40
 i =        1, E =     -1627.4565179393
  S        -1.0265820228        0.0449167608        1.9356743511
  S         1.2274201915        0.9085666255        0.5350649964
  F        12.4380496860        0.2111864392        1.1224458616
  F         9.3016953470       -6.2107377809       12.9616552413
  F         2.3032619920        6.0914213810       12.8476900912
  F         4.9285909795        7.1670550763       11.1951239174
  F        -2.2654279688       -5.9434153063       11.0995394138
  F        -9.4544356796        6.4328846969       11.6775000359
  O        -1.0547649473        1.2523035562        2.7735626878
  O        14.5164310914       -1.5536845779        2.7399365684
  O         2.6167465044        0.8269201626        0.9742030507
  O         0.6056830071        2.2219071390        0.3613910926
  N         0.2938245362       -0.2653483026        1.0946498335
  C        13.7113469542       -0.1595414221        0.7098424541
  C        -9.8114799851        7.7645916026       11.8281541035
  N         2.3243131654        0.9067441024        4.2386027175
  N         2.5556015496        2.8316182526        3.2237862878
  C         1.7341419397       -0.3814854555        4.6754685065
  C         2.1133620849       -1.6009276058        3.7907751756
  C         1.2404672210       -2.8096042143        4.2554696145
  C         1.6576996090        1.9480992313        3.7008234323
  C         3.6816405459        1.1499186513        4.0980686553
  C         3.8300136220        2.3422880981        3.4463144881
  C        -5.0141127712       10.4347727940        3.3285304508
  C         2.2225659884        4.0235636222        2.4337012101
  H         0.6499319358       -0.1894677995        4.6885900505
  H         2.0155730731       -0.4916746781        5.7369741183
  H         1.8991683052       -1.2435442160        2.7675084775
  H         3.2193548135       -1.6335913710        3.8484365240
  H         0.1967580638       -2.5056363265        4.1690825914
  H         1.5702849163       -3.0012170234        5.2981894592
  H         0.5785890508        2.0032707364        3.5614738632
  H         4.4229474108        0.4481423182        4.4492436620
  H         4.7190580852        2.8608158971        3.1024732075
  H        -4.0028191250       10.0304031762        3.4402203567
  H        -5.7406393584        9.6465531935        3.7050285035
  H        -5.3544984778       10.5758822453        2.2828495825
  H         1.8597477691        3.7109795947        1.4467632439
  H         3.1185193580        4.6418772051        2.3299339638
  H         1.4438663187        4.6004940839        2.9420431051
