&CONTROL
  calculation = 'vc-relax'    
  restart_mode ='from_scratch' 
  prefix = 'MIL125_NH2_convtest'  
  outdir = './tmp'       
  pseudo_dir = '/home/yongsang/Research/PSID_server_room/qe/[00]QE/qepseudo/SSSP_1.3.0_PBE_efficiency' 
  verbosity = 'high'      
  max_seconds   =  1.72800e+06 
  nstep = 300
/

&SYSTEM
  ibrav = 0           
  nat = 124
  ntyp = 5            
  ecutwfc = 80   
  ecutrho = 640
  occupations = 'smearing'   
  degauss = 0.05
  nosym = .TRUE.
  vdw_corr='grimme-d3'
! etot_conv_thr=1.0e-6
! forc_conv_thr=2.0e-4
/

&ELECTRONS
  conv_thr = 1.0e-6       
  electron_maxstep = 200
  mixing_beta = 0.2
  diagonalization = 'david'  
  startingwfc = "atomic+random"
  startingpot = "atomic"
/

&IONS
  ion_dynamics = 'bfgs',
/

&CELL
  cell_dofree = 'all'
  cell_dynamics = 'bfgs',
/

ATOMIC_SPECIES
  Ti   47.86700   ti_pbe_v1.4.uspp.F.UPF
  N    14.00674   N.pbe-n-radius_5.UPF
  C    12.01070   C.pbe-n-kjpaw_psl.1.0.0.UPF
  H     1.00794   H.pbe-rrkjus_psl.1.0.0.UPF
  O    15.99940   O.pbe-n-kjpaw_psl.0.1.UPF

CELL_PARAMETERS (angstrom) 
       16.2546348572         0.0000000000         0.0000000000
       -6.1469032765        15.0475491177         0.0000000000
       -5.0538670194        -7.5237763886        13.4931231130

ATOMIC_POSITIONS (angstrom)  
Ti   -3.2853329268      2.1056426673     11.6935719195                 
Ti    8.3130208952      5.3096309621      1.8309517481                 
Ti    1.4684338738     -0.9736203823      9.5396935077                 
Ti    3.4848784994      8.3225558461      3.8709073269                 
Ti    1.7643195162      9.6909604743      1.8358594334                 
Ti    3.1338835281     -2.2680659365     11.6714235944                 
Ti   -1.4847344806      0.9353148897      9.5189923055                 
Ti    6.4051597900      6.3979884748      3.8648971478                 
H    3.6839098319      1.6076928113      7.3094840900                 
H   -0.0861165198     -4.0349498684      7.3671663765                 
H    5.1843828500     11.5507159971      6.1636440335                 
H   -3.1948504978      6.3009637159     11.3294229360                 
H    8.2495126806      1.2532621942      2.1416246495                 
H   -7.0398771114      0.5711345695     11.3296811640                 
H   12.0635628171      6.9372034117      2.1435542270                 
H    3.1920239524     -6.3008095692     11.3295848556                 
H   -1.9581595925      8.1104546805      2.1428837231                 
H    4.9100616632      3.4292562183      6.2204694422                 
H    0.1053443716      4.0041075745      7.3184246791                 
H   -3.7240572355     -1.6105317367      7.3392872935                 
H    3.4068647809      8.6517794999      0.1545788125                 
H    6.7161485040      6.4082598969      0.1509708232                 
H    3.5908902302     -2.3977203829      6.1176108583                 
H    1.5122419922      9.9205784067      7.3683522643                 
H   -6.1248803245      4.1154058415      9.2027560049                 
H   11.1676102870      3.4046533290      4.3177642034                 
H   -3.5570051264      2.3812380585      6.1145547467                 
H   -1.0749710770     11.6316040819      4.2887337732                 
H    1.8359925758     12.9974907752      2.6969156101                 
H    7.9578464119     -1.2763715121      3.1696316199                 
H    5.0767924668      7.6382174239      2.2977344288                 
H    0.5040698702      0.6279141452     11.2267216260                 
H    6.8519041171      0.0828052067     10.3375298173                 
H    6.5117743029     -1.5364028877     10.9642254969                 
H    7.8023963134      4.8783631309      8.2347029670                 
H    8.2436631774      6.1810721627      7.1226417193                 
H    6.2493640548     -5.1378946815      9.7865772426                 
H    6.4243773526     -3.4086744164     10.0112640989                 
H    1.2657420663      1.8686888203      7.8509377769                 
H    1.3114413520      5.8267017417      6.2416645684                 
H    6.2960978562      9.4128280990      5.7340706493                 
H   -7.3229393403      9.1907527130      6.4520245073                 
C    8.6874056926      4.8053827585      4.6605457335                 
C   -3.9698178033      2.5320125148      8.7994446908                 
C    4.0089335815     -2.3882086249      8.8713183201                 
C    1.2268416181     10.2142373977      4.6996593398                 
C    9.7371218895      4.3522919939      5.7293178244                 
C   -4.7166722334      3.1371891133      7.8248850054                 
C    4.7964620074     -3.1629788567      7.7789511136                 
C    0.3869535151     10.7041662019      5.6689804942                 
C    9.5125727472      4.4893445165      7.0371895073                 
C   -4.4559395111      2.9761756718      6.3520159179                 
C    5.8111386994     -4.0011412024      8.0612430202                 
C   -0.9012803787     11.4350948289      5.3638073593                 
C    0.6449151475     10.5601141719      7.1368354115                 
C    4.4744189775     -3.0347327228      6.3123289174                 
C   10.9914423547      3.5597896936      5.4000145486                 
C   -5.8974473977      4.0176585634      8.1259094426                 
C    3.2192126104      4.7854388907      6.1691530617                 
C    1.8074249096      2.6741357700      7.3755135351                 
C    6.8489306051     10.2574974003      6.1323574046                 
C   -1.8067844782     -2.6552662834      7.4238386601                 
C    8.2427290254      1.5453382164     -0.0440409840                 
C    1.8498003928     13.4682250251     -0.0625356732                 
C   11.8064467768      6.8193724166     -0.0492404668                 
C   -1.6987707658      8.2154194639     -0.0497915651                 
C    4.0091588236      5.9654921401      5.6096343901                 
C   -1.1464155785     -1.6430492380      8.0457571571                 
C    8.3744834594      2.8836710624     -0.0124354936                 
C    1.7522952252     12.1252877817     -0.0625912818                 
C   10.5966859973      6.2268469360     -0.0364594624                 
C   -0.5005942112      8.8271125492     -0.0344783555                 
C    1.8454111890      4.9118422810      6.4641554681                 
C    3.1623216122      2.5225698886      7.0645215749                 
C    6.2429041212     11.4195489283      6.3660644777                 
C   -1.1647551555     -3.9822299172      7.1182013980                 
C    8.2256565878      0.6749209490      1.1890746480                 
C   -3.1414107729      6.8752133432     12.2785975299                 
C   12.5886958022      7.1856472915      1.1929870013                 
C   -7.5557310338      0.3012916854     12.2759414894                 
C    8.3003250918     10.1073993971      6.4264093228                 
C   -3.2402455137     -2.5452991055      6.9988233428                 
C    3.8604146790      3.5639816643      6.4530807201                 
C    1.1499712317      3.8684174702      7.0715064054                 
C    7.5446305080     -0.2751016942     12.3575904095                 
C   -2.4869211991      7.8657694806      1.1927849243                 
C    3.1373399296     -6.8821672839     12.2749822381                 
C    1.8857086951     14.3582045757      1.1411291171                 
N    1.8764381457     13.9724349159      2.3738216495                 
N    7.0655690732     -0.6620010425     11.0345446046                 
N    8.4289595632      5.2509249263      7.5152176356                 
N    6.3068058313     -4.1996821037      9.3714464377                 
O    8.1977511662      6.1182078065      4.8199804125                 
O   -2.9774172600      1.6581343641      8.4448925206                 
O    4.0914601859     -3.0714013071     10.1297165531                 
O    0.8543811115     10.3188334342      3.4259944558                 
O    2.4358691416      9.6468636770      4.9810961358                 
O    2.7021729357     -2.0614755845      8.3923113518                 
O    9.3177680465      4.7362734452      3.4372645686                 
O   -4.2679971814      2.7656751635     10.1134479036                 
O    6.5614506390      4.8721144887      2.6228846898                 
O   -1.4171262530      2.3239282742     10.9513474265                 
O    7.8360110543      7.0750988354      2.6565612577                 
O   -2.9485053310      0.5121640495     10.6948422157                 
O    1.5512586570     -2.5680346012     10.5882787798                 
O    3.5558083627      9.9505295797      2.7037827043                 
O    2.7858607721     -0.4521654871     10.9068232783                 
O    2.0211463951      7.9088839368      2.6426506768                 
O    5.0856625762      5.3919208304      4.9075622451                 
O   -1.7381727252     -0.4375708824      8.1770331934                 
O    3.4528857151     -4.0554507150     12.3947682059                 
O    1.5974667492     11.4942645356      1.1121508485                 
O    4.7130285109     -1.3154430925     12.3503930305                 
O   -0.0053632127      9.2399104914      1.1435115356                 
O    0.1057603274     -1.8737116642      8.4809662624                 
O    3.0832667013      6.6768196830      4.8367212608                 
O   10.0610710078      5.8814745710      1.1473013610                 
O   -5.1013355363      1.7855530307     12.3480939299                 
O    8.6159594717      3.4915403007      1.1649853806                 
O   -3.0311441706      3.9710542065     12.2460813535                 
O    5.3923133002      8.0430351860      3.1661822240                 
O    0.0879313044      0.1206770064     10.5003115951                 
O    7.5130503101      5.8239518855      0.0668036530                 
O    2.5398783754      9.1250835294      0.0778490106                 
               
K_POINTS automatic 
  1 1 1 0 0 0 

