! Opt B3LYP D4 def2-TZVP TightSCF TightOpt

%maxcore 5000

%pal
nprocs 30
end

* xyz 0 1
N       -9.4695511826     -9.4857855596     -0.7017306760                 
N      -11.2449476423    -10.6996079218     -0.4204432746                 
C       -8.1942781191     -8.9794849362     -1.2452875682                 
C       -6.9949261038     -9.4223510174     -0.4133611686                 
C       -6.7998134548    -10.9360902236     -0.3518346520                 
C      -10.1924133777    -10.4813531325     -1.2099358910                 
C      -10.0763843087     -9.0549625389      0.4567787100                 
C      -11.1896382317     -9.8124162645      0.6325156986                 
C       -5.5485358874    -11.3306948498      0.4294120990                 
C      -12.2886293362    -11.7035333711     -0.6384502829                 
H       -8.1216618790     -9.3491109267     -2.2680721692                 
H       -8.2735508057     -7.8934614507     -1.2872674065                 
H       -7.0774768306     -9.0104565999      0.5971552501                 
H       -6.1149683875     -8.9515935343     -0.8601441235                 
H       -7.6744623472    -11.4050838379      0.1119804604                 
H       -6.7364578683    -11.3332929790     -1.3710367577                 
H       -9.9641546611    -11.0220473120     -2.1118255965                 
H       -9.6747796083     -8.2525663820      1.0492114445                 
H      -11.9396863473     -9.7915453621      1.4030827971                 
H       -5.5968703274    -10.9714978102      1.4596631565                 
H       -4.6505012211    -10.9114238386     -0.0284194733                 
H       -5.4315210468    -12.4142072363      0.4598910855                 
H      -12.0570989304    -12.2643615275     -1.5400447044                 
H      -12.3222179015    -12.3822291285      0.2116209011                 
H      -13.2508610466    -11.2087089694     -0.7562595373                 
O       12.6896538777      5.4142140992      2.1246974605                 
F       10.2265538777      7.2392140992      1.9184974605                 
O        9.9019538777      4.3095140992      1.3715974605                 
F       14.8095538777      7.1260140992      0.8842974605                 
F        8.2471538777      6.8221140992      1.1360974605                 
S       12.8927538777      5.3205140992      0.7025974605                 
C        9.5574538777      6.8510140992      0.8283974605                 
F       12.8433538777      7.9871140992      0.5692974605                 
C       13.6423538777      6.9647140992      0.2339974605                 
O       13.8463538777      4.3667140992      0.1987974605                 
S       10.1040538777      5.1650140992      0.2324974605                 
N       11.6019538777      5.3708140992     -0.2101025395                 
F        9.7324538777      7.7832140992     -0.1216025395                 
F       13.8926538777      7.0467140992     -1.0797025395                 
O        9.3002538777      4.9677140992     -0.9444025395
*
