&CONTROL
  calculation = 'scf'    
  restart_mode ='from_scratch' 
  prefix = 'MIL125_NH2_convtest'  
  outdir = './tmp'       
  pseudo_dir = '/home/ys/qepseudo/SSSP_1.3.0_PBE_efficiency' 
  verbosity = 'high'      
  max_seconds   =  1.72800e+05 
/

&SYSTEM
  ibrav = 0           
  nat = 132            
  ntyp = 5            
  ecutwfc = 50   
  ecutrho = 400    
  occupations = 'fixed'   
  nosym = .TRUE.
  vdw_corr='grimme-d3'
! etot_conv_thr=1.0e-6
! forc_conv_thr=2.0e-4
/

&ELECTRONS
  conv_thr = 1.0e-6       
  electron_maxstep = 200
  mixing_beta = {mixing_beta}   
  diagonalization = 'david'  
  startingwfc = "atomic+random"
  startingpot = "atomic"
/

ATOMIC_SPECIES
  Ti   47.86700   ti_pbe_v1.4.uspp.F.UPF
  N    14.00674   N.pbe-n-radius_5.UPF
  C    12.01070   C.pbe-n-kjpaw_psl.1.0.0.UPF
  H     1.00794   H.pbe-rrkjus_psl.1.0.0.UPF
  O    15.99940   O.pbe-n-kjpaw_psl.0.1.UPF

CELL_PARAMETERS (angstrom) 
       16.2546348572         0.0000000000         0.0000000000
       -6.1469032765        15.0475491177         0.0000000000
       -5.0538670194        -7.5237763886        13.4931231130

ATOMIC_POSITIONS (angstrom)  
  Ti    -3.158953959         2.121928562        11.627159118
  Ti     8.212818520         5.401844167         1.865963995
  Ti     1.548953472        -1.040464097         9.687657601
  Ti     3.504911089         8.564236827         3.805465512
  Ti     1.894912720         9.645704445         1.865963995
  Ti     3.158951841        -2.121931716        11.627159118
  Ti    -1.548955237         1.040461470         9.687657601
  Ti     6.602819798         6.483311259         3.805465512
  H     3.694732166         1.645847260         7.343321912
  H    -0.126414896        -4.042758303         7.343321912
  H     5.180279457        11.566531032         6.149801201
  H    -3.194435622         6.273434545        11.343817025
  H     8.248300183         1.250338184         2.149306088
  H    -7.015582684         0.584828982        11.343817025
  H    12.069447246         6.938943747         2.149306088
  H     3.194433555        -6.273437622        11.343817025
  H    -1.961716056         8.108604788         2.149306088
  H     4.927451003         3.481016417         6.149801201
  H     0.126413558         4.042756312         7.343321912
  H    -3.694733504        -1.645849252         7.343321912
  H     3.400542670         8.634343874         0.000000000
  H     6.707188911         6.413205244         0.000000000
  H    -0.000001048        -0.000001560        11.501430197
  H     5.053865609         7.523774289         1.991692916
  H     3.601483528        -2.419187777         6.112263332
  H     1.452381033         9.942960506         7.380859781
  H    -6.126922320         4.115571156         9.154557800
  H    11.180786882         3.408201573         4.338565313
  H    -3.601484642         2.419186119         6.112263332
  H    -1.073056091        11.639346368         4.338565313
  H     0.830140085         6.695303485         6.418427963
  H     1.083892459         6.553401466         5.451177480
  H     1.822291526        12.915487783         2.640514734
  H     7.959472268        -1.264826533         3.158114310
  H     6.743161676        -0.343632133        10.401633123
  H     6.490109156        -1.242708874        10.785983790
  H     9.307486832         8.632138812         5.502610837
  H     8.993941847         8.214251102         6.366994606
  H     7.802811972         5.213188236         7.911412215
  H     8.099820853         5.941810062         7.278169963
  H     6.241428890        -4.732675993         9.945868482
  H     6.367585226        -3.737047999        10.059488135
  C     8.957927022         4.901339727         4.703068540
  C    -3.904062461         2.622433002         8.790054573
  C     3.904060860        -2.622435386         8.790054573
  C     1.149803701        10.146208115         4.703068540
  C     9.833367836         4.313288888         5.757677550
  C    -4.779503275         3.210483841         7.735445563
  C     4.779501865        -3.210485939         7.735445563
  C     0.274362696        10.734258668         5.757677550
  C     9.532257437         4.515550336         7.114397586
  C    -4.478392876         3.008222393         6.378725527
  C     5.905727961        -3.966993996         8.098181192
  C    -0.851863400        11.490766725         5.394941921
  C     0.575472847        10.531996852         7.114397586
  C     4.478391714        -3.008224123         6.378725527
  C    10.959593998         3.556780930         5.394941921
  C    -5.905729437         3.966991799         8.098181192
  C     3.214338950         4.785240175         6.084939758
  C     1.839525611         2.738532554         7.408183355
  C     6.893391522        10.262307293         6.084939758
  C    -1.839526961        -2.738534564         7.408183355
  C     8.265505528         1.392274482         0.000000000
  C     1.842226053        13.655274636         0.000000000
  C    11.944558099         6.869341600         0.000000000
  C    -1.836826518         8.178207518         0.000000000
  C     3.942772908         5.869671995         5.359306583
  C     1.111091653         1.654100734         8.133816530
  C     6.164957696         9.177875669         5.359306583
  C    -1.111093135        -1.654102940         8.133816530
  C     8.391584460         2.881319753         0.000000000
  C     1.716147120        12.166229365         0.000000000
  C    10.613769248         6.189523426         0.000000000
  C    -0.506037668         8.858025692         0.000000000
  C     1.860000658         4.948190039         6.417599215
  C     3.193863903         2.575582690         7.075523898
  C     6.230381639        11.454449326         6.417599215
  C    -1.176517077        -3.930676597         7.075523898
  C     8.195984973         0.692187095         1.215109709
  C    -3.142120412         6.831585634        12.278013404
  C    12.566365954         7.198446382         1.215109709
  C    -7.512501392         0.325326347        12.278013404
  C     8.247729754        10.099357338         6.417599215
  C    -3.193865192        -2.575584609         7.075523898
  C     3.877348773         3.593098051         6.417599215
  C     1.176515788         3.930674678         7.075523898
  C     7.512499156        -0.325329677        12.278013404
  C    -2.458634594         7.849102406         1.215109709
  C     3.142118175        -6.831588964        12.278013404
  C     1.911746386        14.355361693         1.215109709
  N     1.359132395         5.877925469         6.149801201
  N     1.859431006        13.797210351         2.149306088
  N     7.015580618        -0.584832059        11.343817025
  N     8.748598065         9.169621981         6.149801201
  N     8.655349203         5.104586610         7.380859781
  N     6.126920653        -4.115573639         9.154557800
  O     7.941277984         5.584242599         5.073670660
  O    -2.887413422         1.939530130         8.419452453
  O     4.211701071        -2.829083544        10.014771385
  O     0.842163490        10.352856273         3.478351728
  O     2.166452673         9.463305143         5.073670660
  O     2.887411888        -1.939532414         8.419452453
  O     9.265567457         4.694691901         3.478351728
  O    -4.211702896         2.829080828        10.014771385
  O     6.600661218         5.007349984         2.687168961
  O    -1.546796657         2.516422745        10.805954152
  O     7.968358594         7.043463950         2.687168961
  O    -2.914494033         0.480308779        10.805954152
  O     1.546794688        -2.516425676        10.805954152
  O     3.507069873        10.040198405         2.687168961
  O     2.914492064        -0.480311709        10.805954152
  O     2.139372497         8.004084439         2.687168961
  O     5.168662008         5.675498461         5.066181977
  O    -0.114797447         1.848274268         8.426941137
  O     6.808297794         8.116451689         5.066181977
  O    -1.754433233        -0.592678960         8.426941137
  O     3.385666537        -4.045384782        12.367229934
  O     1.668198024        11.569157511         1.125893179
  O     5.025302323        -1.604431554        12.367229934
  O     0.028562238         9.128204283         1.125893179
  O     4.939068649         9.372049282         5.066181977
  O     0.114795912        -1.848276553         8.426941137
  O     3.299432863         6.931096055         5.066181977
  O     1.754431698         0.592676674         8.426941137
  O    10.079169138         5.919344529         1.125893179
  O    -5.025304577         1.604428200        12.367229934
  O     8.439533352         3.478391301         1.125893179
  O    -3.385668790         4.045381428        12.367229934
  O     5.053865521         7.523774157         2.961605592
  O    -0.000000959        -0.000001428        10.531517521
  O     7.512322593         5.872381281         0.000000000
  O     2.595408988         9.175167837         0.000000000


K_POINTS automatic 
  1 1 1 0 0 0 

