&CONTROL
  calculation = 'scf'    
  restart_mode ='from_scratch' 
  prefix = 'Zn002'  
  outdir = './tmp'       
  pseudo_dir = '/home/ys/qepseudo/SSSP_1.3.0_PBE_efficiency' 
  verbosity = 'high'      
  max_seconds   =  1.72800e+05 
/

&SYSTEM
  ibrav = 0           
  nat = 48            
  ntyp = 1            
  ecutwfc = {ecutwfc}   
  ecutrho = {ecutrho}    
  occupations = 'smearing'
  smearing = 'mv'     
  nosym = .TRUE.
  degauss = {degauss}      
/

&ELECTRONS
  conv_thr = {conv_thr}        
  electron_maxstep = 200
  mixing_beta = {mixing_beta}   
  diagonalization = 'david'  
  startingwfc = "atomic+random"
  startingpot = "atomic"
/

ATOMIC_SPECIES
  Zn  65.38  Zn_pbe_v1.uspp.F.UPF  

CELL_PARAMETERS (angstrom) 
       10.4574394226         0.0000000000         0.0000000000
       -5.2287197113         9.0564081985         0.0000000000
        0.0000000000         0.0000000000        23.7463226318

ATOMIC_POSITIONS (angstrom)  
Zn     0.0000000000      1.5094010000      1.2182900000                 
Zn     5.2287200000      1.5094010000      1.2182900000                 
Zn     0.0000000000      1.5094010000      6.0914510000                 
Zn     5.2287200000      1.5094010000      6.0914510000                 
Zn    -1.3071800000      3.7735030000      1.2182900000                 
Zn     3.9215400000      3.7735030000      1.2182900000                 
Zn    -1.3071800000      3.7735030000      6.0914510000                 
Zn     3.9215400000      3.7735030000      6.0914510000                 
Zn    -2.6143600000      6.0376050000      1.2182900000                 
Zn     2.6143600000      6.0376050000      1.2182900000                 
Zn    -2.6143600000      6.0376050000      6.0914510000                 
Zn     2.6143600000      6.0376050000      6.0914510000                 
Zn    -3.9215400000      8.3017080000      1.2182900000                 
Zn     1.3071800000      8.3017080000      1.2182900000                 
Zn    -3.9215400000      8.3017080000      6.0914510000                 
Zn     1.3071800000      8.3017080000      6.0914510000                 
Zn     2.6143600000      1.5094010000      1.2182900000                 
Zn     7.8430800000      1.5094010000      1.2182900000                 
Zn     2.6143600000      1.5094010000      6.0914510000                 
Zn     7.8430800000      1.5094010000      6.0914510000                 
Zn     1.3071800000      3.7735030000      1.2182900000                 
Zn     6.5359000000      3.7735030000      1.2182900000                 
Zn     1.3071800000      3.7735030000      6.0914510000                 
Zn     6.5359000000      3.7735030000      6.0914510000                 
Zn     0.0000000000      6.0376050000      1.2182900000                 
Zn     5.2287200000      6.0376050000      1.2182900000                 
Zn     0.0000000000      6.0376050000      6.0914510000                 
Zn     5.2287200000      6.0376050000      6.0914510000                 
Zn    -1.3071800000      8.3017080000      1.2182900000                 
Zn     3.9215400000      8.3017080000      1.2182900000                 
Zn    -1.3071800000      8.3017080000      6.0914510000                 
Zn     3.9215400000      8.3017080000      6.0914510000                 
Zn     1.3071800000      0.7547010000      3.6548710000                 
Zn     6.5359000000      0.7547010000      3.6548710000                 
Zn     0.0000000000      3.0188030000      3.6548710000                 
Zn     5.2287200000      3.0188030000      3.6548710000                 
Zn    -1.3071800000      5.2829050000      3.6548710000                 
Zn     3.9215400000      5.2829050000      3.6548710000                 
Zn    -2.6143600000      7.5470070000      3.6548710000                 
Zn     2.6143600000      7.5470070000      3.6548710000                 
Zn     3.9215400000      0.7547010000      3.6548710000                 
Zn     9.1502600000      0.7547010000      3.6548710000                 
Zn     2.6143600000      3.0188030000      3.6548710000                 
Zn     7.8430800000      3.0188030000      3.6548710000                 
Zn     1.3071800000      5.2829050000      3.6548710000                 
Zn     6.5359000000      5.2829050000      3.6548710000                 
Zn     0.0000000000      7.5470070000      3.6548710000                 
Zn     5.2287200000      7.5470070000      3.6548710000   

K_POINTS automatic 
  {kpoints} 

