      -----------------------------------------------------------      
     |                   =====================                   |     
     |                           x T B                           |     
     |                   =====================                   |     
     |                         S. Grimme                         |     
     |          Mulliken Center for Theoretical Chemistry        |     
     |                    University of Bonn                     |     
      -----------------------------------------------------------      

   * xtb version 6.7.1 (edcfbbe) compiled by 'albert@albert-system' on 2024-07-22

   xtb is free software: you can redistribute it and/or modify it under
   the terms of the GNU Lesser General Public License as published by
   the Free Software Foundation, either version 3 of the License, or
   (at your option) any later version.
   
   xtb is distributed in the hope that it will be useful,
   but WITHOUT ANY WARRANTY; without even the implied warranty of
   MERCHANTABILITY or FITNESS FOR A PARTICULAR PURPOSE.  See the
   GNU Lesser General Public License for more details.
   
   Cite this work as:
   * C. Bannwarth, E. Caldeweyher, S. Ehlert, A. Hansen, P. Pracht,
     J. Seibert, S. Spicher, S. Grimme, WIREs Comput. Mol. Sci., 2020, 11,
     e01493. DOI: 10.1002/wcms.1493
   
   for GFN2-xTB:
   * C. Bannwarth, S. Ehlert and S. Grimme., J. Chem. Theory Comput., 2019,
     15, 1652-1671. DOI: 10.1021/acs.jctc.8b01176
   for GFN1-xTB:
   * S. Grimme, C. Bannwarth, P. Shushkov, J. Chem. Theory Comput., 2017,
     13, 1989-2009. DOI: 10.1021/acs.jctc.7b00118
   for GFN0-xTB:
   * P. Pracht, E. Caldeweyher, S. Ehlert, S. Grimme, ChemRxiv, 2019, preprint.
     DOI: 10.26434/chemrxiv.8326202.v1
   for GFN-FF:
   * S. Spicher and S. Grimme, Angew. Chem. Int. Ed., 2020, 59, 15665-15673.
     DOI: 10.1002/anie.202004239
   
   for ALPB and GBSA implicit solvation:
   * S. Ehlert, M. Stahn, S. Spicher, S. Grimme, J. Chem. Theory Comput.,
     2021, 17, 4250-4261. DOI: 10.1021/acs.jctc.1c00471
   
   for ddCOSMO and CPCM-X implicit solvation:
   * M. Stahn, S. Ehlert, S. Grimme, J. Phys. Chem. A,
     2023, XX, XXXX-XXXX. DOI: 10.1021/acs.jpca.3c04382
   
   for DFT-D4:
   * E. Caldeweyher, C. Bannwarth and S. Grimme, J. Chem. Phys., 2017,
     147, 034112. DOI: 10.1063/1.4993215
   * E. Caldeweyher, S. Ehlert, A. Hansen, H. Neugebauer, S. Spicher,
     C. Bannwarth and S. Grimme, J. Chem. Phys., 2019, 150, 154122.
     DOI: 10.1063/1.5090222
   * E. Caldeweyher, J.-M. Mewes, S. Ehlert and S. Grimme, Phys. Chem. Chem. Phys.
     2020, 22, 8499-8512. DOI: 10.1039/D0CP00502A
   
   for sTDA-xTB:
   * S. Grimme and C. Bannwarth, J. Chem. Phys., 2016, 145, 054103.
     DOI: 10.1063/1.4959605
   
   in the mass-spec context:
   * V. Asgeirsson, C. Bauer and S. Grimme, Chem. Sci., 2017, 8, 4879.
     DOI: 10.1039/c7sc00601b
   * J. Koopman and S. Grimme, ACS Omega 2019, 4, 12, 15120-15133.
     DOI: 10.1021/acsomega.9b02011
   
   for metadynamics refer to:
   * S. Grimme, J. Chem. Theory Comput., 2019, 155, 2847-2862
     DOI: 10.1021/acs.jctc.9b00143
   
   for SPH calculations refer to:
   * S. Spicher and S. Grimme, J. Chem. Theory Comput., 2021, 17, 1701-1714
     DOI: 10.1021/acs.jctc.0c01306
   
   for ONIOM refer to:
   * C. Plett, A. Katbashev, S. Ehlert, S. Grimme, M. Bursch,
     Phys. Chem. Chem. Phys., 2023, 25, 17860-17868. DOI: 10.1039/D3CP02178E
   
   for DIPRO refer to:
   * J. Kohn, N. Gildemeister, S. Grimme, D. Fazzi, A. Hansen,
     J. Chem. Phys., 2023, just accepted.
   
   for PTB refer to:
   * S. Grimme, M. Mueller, A. Hansen, J. Chem. Phys., 2023, 158, 124111.
     DOI: 10.1063/5.0137838
   
   with help from (in alphabetical order)
   P. Atkinson, C. Bannwarth, F. Bohle, G. Brandenburg, E. Caldeweyher
   M. Checinski, S. Dohm, S. Ehlert, S. Ehrlich, I. Gerasimov, C. Hölzer
   A. Katbashev, J. Kohn, J. Koopman, C. Lavigne, S. Lehtola, F. März, M. Müller,
   F. Musil, H. Neugebauer, J. Pisarek, C. Plett, P. Pracht, F. Pultar,
   J. Seibert, P. Shushkov, S. Spicher, M. Stahn, M. Steiner, T. Strunk,
   J. Stückrath, T. Rose, and J. Unsleber
   
 * started run on 2025/06/22 at 05:04:17.169     
   ID    Z sym.   atoms
    1   22 Ti00   1-8
    2    1 H009   9
    3    1 H010   10
    4    1 H011   11
    5    1 H012   12
    6    1 H013   13
    7    1 H014   14
    8    1 H015   15
    9    1 H016   16
   10    1 H017   17
   11    1 H018   18
   12    1 H019   19
   13    1 H020   20
   14    1 H021   21
   15    1 H022   22
   16    1 H023   23
   17    1 H024   24
   18    1 H025   25
   19    1 H026   26
   20    1 H027   27
   21    1 H028   28
   22    1 H029   29
   23    1 H030   30
   24    1 H031   31
   25    1 H032   32
   26    1 H033   33
   27    1 H034   34
   28    1 H035   35
   29    1 H036   36
   30    1 H037   37
   31    1 H038   38
   32    1 H039   39
   33    1 H040   40
   34    1 H041   41
   35    1 H042   42
   36    6 C043   43
   37    6 C044   44
   38    6 C045   45
   39    6 C046   46
   40    6 C047   47
   41    6 C048   48
   42    6 C049   49
   43    6 C050   50
   44    6 C051   51
   45    6 C052   52
   46    6 C053   53
   47    6 C054   54
   48    6 C055   55
   49    6 C056   56
   50    6 C057   57
   51    6 C058   58
   52    6 C059   59
   53    6 C060   60
   54    6 C061   61
   55    6 C062   62
   56    6 C063   63
   57    6 C064   64
   58    6 C065   65
   59    6 C066   66
   60    6 C067   67
   61    6 C068   68
   62    6 C069   69
   63    6 C070   70
   64    6 C071   71
   65    6 C072   72
   66    6 C073   73
   67    6 C074   74
   68    6 C075   75
   69    6 C076   76
   70    6 C077   77
   71    6 C078   78
   72    6 C079   79
   73    6 C080   80
   74    6 C081   81
   75    6 C082   82
   76    6 C083   83
   77    6 C084   84
   78    6 C085   85
   79    6 C086   86
   80    6 C087   87
   81    6 C088   88
   82    7 N089   89
   83    7 N090   90
   84    7 N091   91
   85    7 N092   92
   86    8 O093   93
   87    8 O094   94
   88    8 O095   95
   89    8 O096   96
   90    8 O097   97
   91    8 O098   98
   92    8 O099   99
   93    8 O100   100
   94    8 O101   101
   95    8 O102   102
   96    8 O103   103
   97    8 O104   104
   98    8 O105   105
   99    8 O106   106
  100    8 O107   107
  101    8 O108   108
  102    8 O109   109
  103    8 O110   110
  104    8 O111   111
  105    8 O112   112
  106    8 O113   113
  107    8 O114   114
  108    8 O115   115
  109    8 O116   116
  110    8 O117   117
  111    8 O118   118
  112    8 O119   119
  113    8 O120   120
  114    8 O121   121
  115    8 O122   122
  116    8 O123   123
  117    8 O124   124
  118   16 S      125, 126
  119    9 F      127-132
  120    8 O      133-136
  121    7 N      137
  122    6 C      138, 139

           -------------------------------------------------
          |                Calculation Setup                |
           -------------------------------------------------

          program call               : xtb xtb.coord --gfn 1 --opt tight --etemp 500 --maxit 800 --chrg -1 --input xcontrol --nocellopt
          hostname                   : ga00
          coordinate file            : xtb.coord
          omp threads                :                     8


molecular fragmentation (1/2 indicates fragments):
121221122222212222221212121222221122112222211221122112212122222211221211
2222222122221222212121122121212112122212122221212221222222222222222
# atoms in fragment 1/2:    43    96
 fragment masses (1/2) :      616.71     1201.15
CMA distance (Bohr)    :  16.594
constraining FC (au)   :  0.0500
########################################################################
[WARNING] Please study the warnings concerning your input carefully
-1- prog_main_parseArguments: Unknown option '--maxit' provided
########################################################################

           -------------------------------------------------
          |                 G F N 1 - x T B                 |
           -------------------------------------------------

        Reference                      10.1021/acs.jctc.7b00118
      * Hamiltonian:
        H0-scaling (s, p, d)           1.850000    2.250000    2.000000
        zeta-weighting                 0.000000
      * Dispersion:
        s8                             2.400000
        a1                             0.630000
        a2                             5.000000
        s9                             0.000000
      * Repulsion:
        kExp                           1.500000
        rExp                           1.000000
      * Coulomb:
        alpha                          2.000000
        third order                    atomic
        anisotropic                    false
      * Halogen bond correction:
        rad-scale                      1.300000
        damping                        0.440000

q/qsh data taken from xtbrestart

          ...................................................
          :                      SETUP                      :
          :.................................................:
          :  # basis functions                 548          :
          :  # atomic orbitals                 538          :
          :  # shells                          288          :
          :  # electrons                       554          :
          :  # halogen bonds                     0          :
          :  max. iterations                   250          :
          :  Hamiltonian                  GFN1-xTB          :
          :  restarted?                       true          :
          :  GBSA solvation                  false          :
          :  PC potential                    false          :
          :  electronic temp.          500.0000000     K    :
          :  accuracy                    1.0000000          :
          :  -> integral cutoff          0.2500000E+02      :
          :  -> integral neglect         0.1000000E-07      :
          :  -> SCF convergence          0.1000000E-05 Eh   :
          :  -> wf. convergence          0.2000000E-04 e    :
          :  Broyden damping             0.4000000          :
          :  net charge                         -1          :
          :  unpaired electrons                  0          :
          ...................................................

 iter      E             dE          RMSdq      gap      omega  full diag
   1   -330.2070795 -0.330207E+03  0.619E+00    0.00       0.0  T
   2   -141.8993554  0.188308E+03  0.172E+01    0.04       1.0  T
   3   -269.7323152 -0.127833E+03  0.127E+01    0.03       1.0  T
   4   -315.0042163 -0.452719E+02  0.798E+00    0.03       1.0  T
   5   -300.0596089  0.149446E+02  0.845E+00    0.07       1.0  T
   6   -326.7830432 -0.267234E+02  0.647E+00    0.03       1.0  T
   7   -342.9313193 -0.161483E+02  0.543E+00    0.12       1.0  T
   8   -346.8282700 -0.389695E+01  0.376E+00    0.05       1.0  T
   9   -347.8587591 -0.103049E+01  0.349E+00    0.06       1.0  T
  10   -349.0335882 -0.117483E+01  0.293E+00    0.04       1.0  T
  11   -348.0511293  0.982459E+00  0.373E+00    0.04       1.0  T
  12   -348.5362297 -0.485100E+00  0.283E+00    0.00       1.0  T
  13   -347.5382006  0.998029E+00  0.303E+00    0.03       1.0  T
  14   -344.9285022  0.260970E+01  0.429E+00    0.05       1.0  T
  15   -345.4868751 -0.558373E+00  0.336E+00    0.02       1.0  T
  16   -346.2454240 -0.758549E+00  0.398E+00    0.01       1.0  T
  17   -348.6609992 -0.241558E+01  0.246E+00    0.00       1.0  T
  18   -345.6176143  0.304338E+01  0.385E+00    0.02       1.0  T
  19   -349.3065316 -0.368892E+01  0.239E+00    0.00       1.0  T
  20   -346.9137017  0.239283E+01  0.345E+00    0.00       1.0  T
  21   -347.0696062 -0.155905E+00  0.360E+00    0.01       1.0  T
  22   -345.7299568  0.133965E+01  0.363E+00    0.01       1.0  T
  23   -348.2835802 -0.255362E+01  0.358E+00    0.00       1.0  T
  24   -350.2296742 -0.194609E+01  0.199E+00    0.00       1.0  T
  25   -350.0399801  0.189694E+00  0.210E+00    0.00       1.0  T
  26   -347.9555809  0.208440E+01  0.326E+00    0.02       1.0  T
  27   -345.0444359  0.291115E+01  0.412E+00    0.02       1.0  T
  28   -348.2502553 -0.320582E+01  0.344E+00    0.03       1.0  T
  29   -347.1139423  0.113631E+01  0.367E+00    0.01       1.0  T
  30   -346.0853581  0.102858E+01  0.381E+00    0.00       1.0  T
  31   -345.6487248  0.436633E+00  0.393E+00    0.01       1.0  T
  32   -346.0168361 -0.368111E+00  0.375E+00    0.01       1.0  T
  33   -347.7825781 -0.176574E+01  0.353E+00    0.00       1.0  T
  34   -331.4250414  0.163575E+02  0.578E+00    0.06       1.0  T
  35   -332.0582952 -0.633254E+00  0.583E+00    0.01       1.0  T
  36   -347.4908051 -0.154325E+02  0.346E+00    0.02       1.0  T
  37   -332.0087300  0.154821E+02  0.571E+00    0.01       1.0  T
  38   -329.4739273  0.253480E+01  0.586E+00    0.03       1.0  T
  39   -328.7221918  0.751736E+00  0.583E+00    0.00       1.0  T
  40   -331.7968482 -0.307466E+01  0.562E+00    0.00       1.0  T
  41   -331.3314572  0.465391E+00  0.587E+00    0.02       1.0  T
  42   -329.8989097  0.143255E+01  0.598E+00    0.00       1.0  T
  43   -337.3175797 -0.741867E+01  0.512E+00    0.01       1.0  T
  44   -350.2880878 -0.129705E+02  0.252E+00    0.01       1.0  T
  45   -347.8810375  0.240705E+01  0.306E+00    0.01       1.0  T
  46   -350.6401512 -0.275911E+01  0.155E+00    0.00       1.0  T
  47   -350.5576017  0.825495E-01  0.162E+00    0.00       1.0  T
  48   -350.6857476 -0.128146E+00  0.145E+00    0.02       1.0  T
  49   -349.8316828  0.854065E+00  0.215E+00    0.00       1.0  T
  50   -351.1959302 -0.136425E+01  0.113E+00    0.01       1.0  T
  51   -349.8387621  0.135717E+01  0.206E+00    0.01       1.0  T
  52   -339.9112963  0.992747E+01  0.436E+00    0.02       1.0  T
  53   -349.5910499 -0.967975E+01  0.214E+00    0.01       1.0  T
  54   -351.2686065 -0.167756E+01  0.969E-01    0.00       1.0  T
  55   -351.0283603  0.240246E+00  0.138E+00    0.00       1.0  T
  56   -347.8079699  0.322039E+01  0.279E+00    0.00       1.0  T
  57   -348.6899075 -0.881938E+00  0.250E+00    0.00       1.0  T
  58   -351.1806568 -0.249075E+01  0.115E+00    0.00       1.0  T
  59   -348.8050366  0.237562E+01  0.254E+00    0.00       1.0  T
  60   -351.4427707 -0.263773E+01  0.762E-01    0.02       1.0  T
  61   -349.5579758  0.188479E+01  0.218E+00    0.01       1.0  T
  62   -350.5808208 -0.102285E+01  0.165E+00    0.00       1.0  T
  63   -351.5253130 -0.944492E+00  0.453E-01    0.01       1.0  T
  64   -351.4310308  0.942822E-01  0.685E-01    0.01       1.0  T
  65   -351.5038557 -0.728249E-01  0.554E-01    0.01       1.0  T
  66   -351.5817731 -0.779174E-01  0.206E-01    0.01       1.0  T
  67   -351.5798929  0.188020E-02  0.225E-01    0.00       1.0  T
  68   -351.5899286 -0.100357E-01  0.105E-01    0.01       1.0  T
  69   -351.5900816 -0.153026E-03  0.138E-01    0.01       1.0  T
  70   -351.5934116 -0.332995E-02  0.117E-01    0.01       1.0  T
  71   -351.5912797  0.213184E-02  0.144E-01    0.01       1.0  T
  72   -351.5954101 -0.413031E-02  0.796E-02    0.01       1.0  T
  73   -351.5962531 -0.843061E-03  0.587E-02    0.01       1.0  T
  74   -351.5962601 -0.695687E-05  0.607E-02    0.01       1.0  T
  75   -351.5963968 -0.136699E-03  0.411E-02    0.01       1.0  T
  76   -351.5966578 -0.261040E-03  0.350E-02    0.01       1.0  T
  77   -351.5963908  0.267006E-03  0.445E-02    0.01       1.0  T
  78   -351.5969890 -0.598211E-03  0.205E-02    0.01       1.0  T
  79   -351.5970113 -0.223239E-04  0.193E-02    0.01       1.0  T
  80   -351.5969996  0.117834E-04  0.202E-02    0.01       1.0  T
  81   -351.5971204 -0.120881E-03  0.981E-03    0.01       1.0  T
  82   -351.5971030  0.174132E-04  0.127E-02    0.01       1.0  T
  83   -351.5970668  0.361922E-04  0.169E-02    0.01       1.0  T
  84   -351.5971058 -0.389307E-04  0.127E-02    0.01       1.0  T
  85   -351.5971106 -0.482606E-05  0.122E-02    0.01       1.0  T
  86   -351.5971240 -0.133593E-04  0.992E-03    0.01       1.0  T
  87   -351.5971377 -0.137850E-04  0.699E-03    0.01       1.2  T
  88   -351.5971440 -0.626844E-05  0.558E-03    0.01       1.5  T
  89   -351.5971484 -0.436804E-05  0.356E-03    0.01       2.4  T
  90   -351.5971501 -0.176626E-05  0.258E-03    0.01       3.3  T
  91   -351.5971516 -0.144069E-05  0.167E-03    0.01       5.1  T
  92   -351.5971523 -0.739759E-06  0.882E-04    0.01       9.6  T
  93   -351.5971525 -0.131476E-06  0.540E-04    0.01      15.7  T
  94   -351.5971525 -0.843808E-07  0.143E-04    0.01      59.4  T
  95   -351.5971525  0.295586E-10  0.158E-04    0.01      53.8  T

   *** convergence criteria satisfied after 95 iterations ***

         #    Occupation            Energy/Eh            Energy/eV
      -------------------------------------------------------------
         1        2.0000           -0.9701661             -26.3996
       ...           ...                  ...                  ...
       271        1.5047           -0.3979800             -10.8296
       272        1.4460           -0.3977395             -10.8230
       273        1.3846           -0.3975044             -10.8166
       274        1.3669           -0.3974392             -10.8149
       275        1.1857           -0.3968154             -10.7979
       276        0.9551           -0.3960782             -10.7778
       277        0.9150           -0.3959507             -10.7744 (HOMO)
       278        0.8411           -0.3957130             -10.7679 (LUMO)
       279        0.7004           -0.3952416             -10.7551
       280        0.6607           -0.3951014             -10.7513
       281        0.6430           -0.3950377             -10.7495
       282        0.5625           -0.3947347             -10.7413
       ...           ...                  ...                  ...
       538                          6.0265227             163.9900
      -------------------------------------------------------------
                  HL-Gap            0.0002377 Eh            0.0065 eV
             Fermi-level           -0.3962204 Eh          -10.7817 eV

 SCC (total)                   0 d,  0 h,  0 min,  1.615 sec
 SCC setup                      ...        0 min,  0.017 sec (  1.050%)
 Dispersion                     ...        0 min,  0.020 sec (  1.259%)
 classical contributions        ...        0 min,  0.001 sec (  0.066%)
 integral evaluation            ...        0 min,  0.020 sec (  1.242%)
 iterations                     ...        0 min,  1.491 sec ( 92.353%)
 molecular gradient             ...        0 min,  0.060 sec (  3.717%)
 printout                       ...        0 min,  0.005 sec (  0.311%)

         :::::::::::::::::::::::::::::::::::::::::::::::::::::
         ::                     SUMMARY                     ::
         :::::::::::::::::::::::::::::::::::::::::::::::::::::
         :: total energy            -349.111875644784 Eh    ::
         :: gradient norm              1.053163919390 Eh/a0 ::
         :: HOMO-LUMO gap              0.006467910458 eV    ::
         ::.................................................::
         :: SCC energy              -351.597152536399 Eh    ::
         :: -> electrostatic           2.451963690211 Eh    ::
         :: repulsion energy           2.668430477842 Eh    ::
         :: dispersion energy         -0.183153586227 Eh    ::
         :: halogen bond corr.         0.000000000000 Eh    ::
         :: add. restraining           0.000000000000 Eh    ::
         :: total charge              -1.000000000000 e     ::
         :::::::::::::::::::::::::::::::::::::::::::::::::::::

      ----------------------------------------------------------- 
     |                   =====================                   |
     |                        A N C O P T                        |
     |                   =====================                   |
     |               Approximate Normal Coordinate               |
     |                Rational Function Optimizer                |
      ----------------------------------------------------------- 
      ----------------------------------------------------------- 
     |                   =====================                   |
     |                        A N C O P T                        |
     |                   =====================                   |
     |               Approximate Normal Coordinate               |
     |                Rational Function Optimizer                |
      ----------------------------------------------------------- 

          ...................................................
          :                      SETUP                      :
          :.................................................:
          :   optimization level             tight          :
          :   max. optcycles                   695          :
          :   ANC micro-cycles                  20          :
          :   degrees of freedom                42          :
          :.................................................:
          :   RF solver                   davidson          :
          :   write xtbopt.log                true          :
          :   linear?                        false          :
          :   energy convergence         0.1000000E-05 Eh   :
          :   grad. convergence          0.8000000E-03 Eh/α :
          :   maxmium RF displ.          1.0000000          :
          :   Hlow (freq-cutoff)         0.1000000E-01      :
          :   Hmax (freq-cutoff)         5.0000000          :
          :   S6 in model hess.         20.0000000          :
          ...................................................

generating ANC from exact Hessian ...
Using Lindh-Hessian (1995)
 Shifting diagonal of input Hessian by   1.015905721216461E-002
 Lowest  eigenvalues of input Hessian
    0.010000    0.010004    0.010019    0.010033    0.010046    0.010050
    0.010052    0.010059    0.010085    0.010089    0.010089    0.010104
    0.010106    0.010115    0.010116    0.010126    0.010129    0.010129
 Highest eigenvalues
    2.168166    2.207937    2.208319    2.220075    2.307976    3.260937
 

........................................................................
.............................. CYCLE    1 ..............................
........................................................................

 iter      E             dE          RMSdq      gap      omega  full diag
   1   -351.5971525 -0.351597E+03  0.994E-05    0.01       0.0  T
   2   -351.5971232  0.293328E-04  0.741E-03    0.01       1.1  T
   3   -351.5971512 -0.280232E-04  0.160E-03    0.01       5.3  T
   4   -351.5971525 -0.122444E-05  0.425E-04    0.01      19.9  T
   5   -351.5971523  0.139146E-06  0.613E-04    0.01      13.8  T
   6   -351.5971519  0.430775E-06  0.972E-04    0.01       8.7  T
   7   -351.5971523 -0.433090E-06  0.665E-04    0.01      12.8  T
   8   -351.5971525 -0.152836E-06  0.347E-04    0.01      24.4  T
   9   -351.5971525 -0.292048E-07  0.306E-04    0.01      27.7  T
  10   -351.5971525 -0.209473E-07  0.221E-04    0.01      38.5  T
  11   -351.5971525 -0.199618E-07  0.910E-05    0.01      93.2  T
  12   -351.5971525  0.163664E-08  0.813E-05    0.01     104.3  T
     SCC iter.                  ...        0 min,  0.192 sec
     gradient                   ...        0 min,  0.060 sec
 * total energy  :  -349.1118756 Eh     change       -0.3529976E-08 Eh
   gradient norm :     0.1959662 Eh/α   predicted     0.0000000E+00 (-100.00%)
   displ. norm   :     0.1109683 α      lambda       -0.2174044E-01
   maximum displ.:     0.1105789 α      in ANC's #21, #41, #16, ...

........................................................................
.............................. CYCLE    2 ..............................
........................................................................

 iter      E             dE          RMSdq      gap      omega  full diag
   1   -351.5046446 -0.351505E+03  0.478E-01    0.01       0.0  T
   2   -335.3188284  0.161858E+02  0.499E+00    0.03       1.0  T
   3   -347.4596245 -0.121408E+02  0.271E+00    0.00       1.0  T
   4   -344.1856132  0.327401E+01  0.404E+00    0.01       1.0  T
   5   -349.6559558 -0.547034E+01  0.171E+00    0.01       1.0  T
   6   -348.8458527  0.810103E+00  0.193E+00    0.00       1.0  T
   7   -349.7400725 -0.894220E+00  0.278E+00    0.00       1.0  T
   8   -351.2807090 -0.154064E+01  0.807E-01    0.01       1.0  T
   9   -350.9018546  0.378854E+00  0.103E+00    0.01       1.0  T
  10   -351.2652873 -0.363433E+00  0.802E-01    0.01       1.0  T
  11   -351.4550811 -0.189794E+00  0.632E-01    0.02       1.0  T
  12   -351.4235061  0.315750E-01  0.603E-01    0.00       1.0  T
  13   -351.3099444  0.113562E+00  0.683E-01    0.01       1.0  T
  14   -351.0292183  0.280726E+00  0.101E+00    0.00       1.0  T
  15   -351.1494990 -0.120281E+00  0.121E+00    0.01       1.0  T
  16   -350.4322700  0.717229E+00  0.174E+00    0.00       1.0  T
  17   -351.0680950 -0.635825E+00  0.120E+00    0.00       1.0  T
  18   -351.5395119 -0.471417E+00  0.347E-01    0.01       1.0  T
  19   -351.5740988 -0.345869E-01  0.288E-01    0.00       1.0  T
  20   -351.5391701  0.349287E-01  0.310E-01    0.00       1.0  T
  21   -351.5781309 -0.389608E-01  0.266E-01    0.01       1.0  T
  22   -351.5818415 -0.371061E-02  0.292E-01    0.01       1.0  T
  23   -351.5961443 -0.143028E-01  0.260E-01    0.00       1.0  T
  24   -351.5907998  0.534452E-02  0.255E-01    0.00       1.0  T
  25   -351.5934965 -0.269670E-02  0.291E-01    0.01       1.0  T
  26   -351.5999615 -0.646504E-02  0.253E-01    0.01       1.0  T
  27   -351.6031871 -0.322553E-02  0.226E-01    0.01       1.0  T
  28   -351.6076919 -0.450486E-02  0.207E-01    0.01       1.0  T
  29   -351.6102244 -0.253252E-02  0.188E-01    0.01       1.0  T
  30   -351.6120151 -0.179066E-02  0.166E-01    0.01       1.0  T
  31   -351.6134083 -0.139316E-02  0.150E-01    0.01       1.0  T
  32   -351.6155555 -0.214724E-02  0.115E-01    0.01       1.0  T
  33   -351.6177478 -0.219229E-02  0.733E-02    0.01       1.0  T
  34   -351.6185783 -0.830503E-03  0.456E-02    0.01       1.0  T
  35   -351.6186862 -0.107944E-03  0.372E-02    0.01       1.0  T
  36   -351.6189942 -0.307929E-03  0.175E-02    0.01       1.0  T
  37   -351.6190604 -0.662630E-04  0.864E-03    0.01       1.0  T
  38   -351.6190798 -0.193169E-04  0.486E-03    0.01       1.7  T
  39   -351.6190870 -0.722540E-05  0.410E-03    0.01       2.1  T
  40   -351.6190905 -0.352603E-05  0.269E-03    0.01       3.2  T
  41   -351.6190896  0.906804E-06  0.297E-03    0.01       2.9  T
  42   -351.6190887  0.881478E-06  0.332E-03    0.01       2.6  T
  43   -351.6190917 -0.300442E-05  0.190E-03    0.01       4.5  T
  44   -351.6190929 -0.117867E-05  0.773E-04    0.01      11.0  T
  45   -351.6190930 -0.109406E-06  0.569E-04    0.01      14.9  T
  46   -351.6190931 -0.126997E-06  0.235E-04    0.01      36.1  T
  47   -351.6190932 -0.192031E-07  0.116E-04    0.01      73.3  T
  48   -351.6190932 -0.727880E-09  0.114E-04    0.01      74.4  T
     SCC iter.                  ...        0 min,  0.764 sec
     gradient                   ...        0 min,  0.060 sec
 * total energy  :  -349.1291647 Eh     change       -0.1728906E-01 Eh
   gradient norm :     0.1072600 Eh/α   predicted    -0.1100408E-01 ( -36.35%)
   displ. norm   :     0.1314286 α      lambda       -0.1408643E-01
   maximum displ.:     0.1300583 α      in ANC's #21, #41, #16, ...

........................................................................
.............................. CYCLE    3 ..............................
........................................................................

 iter      E             dE          RMSdq      gap      omega  full diag
   1   -351.4739848 -0.351474E+03  0.593E-01    0.01       0.0  T
   2   -332.9744078  0.184996E+02  0.529E+00    0.00       1.0  T
   3   -346.6362085 -0.136618E+02  0.295E+00    0.03       1.0  T
   4   -343.1446341  0.349157E+01  0.444E+00    0.02       1.0  T
   5   -348.6202291 -0.547560E+01  0.236E+00    0.01       1.0  T
   6   -349.2157472 -0.595518E+00  0.191E+00    0.00       1.0  T
   7   -349.1703013  0.454460E-01  0.296E+00    0.03       1.0  T
   8   -351.4175547 -0.224725E+01  0.873E-01    0.00       1.0  T
   9   -350.7149873  0.702567E+00  0.115E+00    0.01       1.0  T
  10   -351.1770539 -0.462067E+00  0.892E-01    0.01       1.0  T
  11   -351.3572752 -0.180221E+00  0.774E-01    0.02       1.0  T
  12   -351.4365408 -0.792656E-01  0.642E-01    0.01       1.0  T
  13   -351.2798492  0.156692E+00  0.745E-01    0.01       1.0  T
  14   -351.0184448  0.261404E+00  0.921E-01    0.02       1.0  T
  15   -350.9427198  0.757250E-01  0.169E+00    0.01       1.0  T
  16   -351.1715010 -0.228781E+00  0.108E+00    0.00       1.0  T
  17   -346.5144546  0.465705E+01  0.317E+00    0.00       1.0  T
  18   -350.8014541 -0.428700E+01  0.147E+00    0.00       1.0  T
  19   -351.3327052 -0.531251E+00  0.661E-01    0.01       1.0  T
  20   -351.5113294 -0.178624E+00  0.540E-01    0.01       1.0  T
  21   -351.5710742 -0.597448E-01  0.472E-01    0.01       1.0  T
  22   -351.6019307 -0.308565E-01  0.327E-01    0.01       1.0  T
  23   -351.5989303  0.300043E-02  0.284E-01    0.01       1.0  T
  24   -351.6282905 -0.293602E-01  0.186E-01    0.01       1.0  T
  25   -351.6019478  0.263427E-01  0.317E-01    0.00       1.0  T
  26   -351.6355611 -0.336133E-01  0.148E-01    0.01       1.0  T
  27   -351.6355535  0.760486E-05  0.130E-01    0.01       1.0  T
  28   -351.6372784 -0.172494E-02  0.114E-01    0.00       1.0  T
  29   -351.6423124 -0.503398E-02  0.459E-02    0.01       1.0  T
  30   -351.6425893 -0.276903E-03  0.368E-02    0.01       1.0  T
  31   -351.6419058  0.683465E-03  0.611E-02    0.01       1.0  T
  32   -351.6411385  0.767342E-03  0.739E-02    0.01       1.0  T
  33   -351.6389250  0.221348E-02  0.111E-01    0.01       1.0  T
  34   -351.6402018 -0.127679E-02  0.947E-02    0.01       1.0  T
  35   -351.6420661 -0.186432E-02  0.589E-02    0.01       1.0  T
  36   -351.6429860 -0.919880E-03  0.249E-02    0.01       1.0  T
  37   -351.6430087 -0.227463E-04  0.227E-02    0.01       1.0  T
  38   -351.6429998  0.891165E-05  0.217E-02    0.01       1.0  T
  39   -351.6430722 -0.723855E-04  0.165E-02    0.01       1.0  T
  40   -351.6431177 -0.455171E-04  0.115E-02    0.01       1.0  T
  41   -351.6431352 -0.175272E-04  0.953E-03    0.01       1.0  T
  42   -351.6431573 -0.220610E-04  0.618E-03    0.01       1.4  T
  43   -351.6431721 -0.147874E-04  0.214E-03    0.01       4.0  T
  44   -351.6431729 -0.806462E-06  0.180E-03    0.01       4.7  T
  45   -351.6431734 -0.543578E-06  0.102E-03    0.01       8.3  T
  46   -351.6431738 -0.331176E-06  0.669E-04    0.01      12.7  T
  47   -351.6431739 -0.126158E-06  0.246E-04    0.01      34.5  T
  48   -351.6431739 -0.164687E-08  0.171E-04    0.01      49.5  T
  49   -351.6431739 -0.116535E-07  0.891E-05    0.01      95.2  T
     SCC iter.                  ...        0 min,  0.777 sec
     gradient                   ...        0 min,  0.059 sec
 * total energy  :  -349.1316903 Eh     change       -0.2525584E-02 Eh
   gradient norm :     0.0935297 Eh/α   predicted    -0.7164880E-02 ( 183.69%)
   displ. norm   :     0.0595998 α      lambda       -0.5516026E-02
   maximum displ.:     0.0595624 α      in ANC's #21, #41, #16, ...

........................................................................
.............................. CYCLE    4 ..............................
........................................................................

 iter      E             dE          RMSdq      gap      omega  full diag
   1   -351.6090173 -0.351609E+03  0.189E-01    0.01       0.0  T
   2   -313.3105132  0.382985E+02  0.793E+00    0.02       1.0  T
   3   -340.6799885 -0.273695E+02  0.450E+00    0.02       1.0  T
   4   -347.6712583 -0.699127E+01  0.282E+00    0.00       1.0  T
   5   -345.9454513  0.172581E+01  0.313E+00    0.00       1.0  T
   6   -349.0710423 -0.312559E+01  0.250E+00    0.01       1.0  T
   7   -351.2212015 -0.215016E+01  0.941E-01    0.00       1.0  T
   8   -350.7371347  0.484067E+00  0.113E+00    0.00       1.0  T
   9   -351.2969963 -0.559862E+00  0.811E-01    0.00       1.0  T
  10   -351.4136005 -0.116604E+00  0.669E-01    0.00       1.0  T
  11   -351.3932056  0.203949E-01  0.706E-01    0.00       1.0  T
  12   -351.4271975 -0.339919E-01  0.631E-01    0.01       1.0  T
  13   -351.4888554 -0.616580E-01  0.571E-01    0.01       1.0  T
  14   -351.3511935  0.137662E+00  0.611E-01    0.00       1.0  T
  15   -351.5505703 -0.199377E+00  0.485E-01    0.01       1.0  T
  16   -351.5686186 -0.180483E-01  0.372E-01    0.01       1.0  T
  17   -351.5808325 -0.122139E-01  0.363E-01    0.01       1.0  T
  18   -351.5706680  0.101645E-01  0.358E-01    0.00       1.0  T
  19   -351.5959792 -0.253112E-01  0.295E-01    0.01       1.0  T
  20   -351.6128540 -0.168748E-01  0.229E-01    0.00       1.0  T
  21   -351.6102360  0.261801E-02  0.222E-01    0.00       1.0  T
  22   -351.6151929 -0.495693E-02  0.203E-01    0.01       1.0  T
  23   -351.5988401  0.163529E-01  0.257E-01    0.01       1.0  T
  24   -351.6125524 -0.137123E-01  0.206E-01    0.00       1.0  T
  25   -351.6171598 -0.460737E-02  0.175E-01    0.00       1.0  T
  26   -351.6165194  0.640324E-03  0.171E-01    0.00       1.0  T
  27   -351.6263219 -0.980244E-02  0.101E-01    0.01       1.0  T
  28   -351.6296900 -0.336811E-02  0.603E-02    0.01       1.0  T
  29   -351.6310825 -0.139253E-02  0.375E-02    0.01       1.0  T
  30   -351.6313072 -0.224650E-03  0.274E-02    0.01       1.0  T
  31   -351.6314708 -0.163640E-03  0.183E-02    0.01       1.0  T
  32   -351.6314799 -0.905600E-05  0.168E-02    0.01       1.0  T
  33   -351.6315369 -0.570820E-04  0.934E-03    0.01       1.0  T
  34   -351.6315618 -0.248937E-04  0.557E-03    0.01       1.5  T
  35   -351.6315692 -0.737590E-05  0.399E-03    0.01       2.1  T
  36   -351.6315711 -0.185416E-05  0.346E-03    0.01       2.5  T
  37   -351.6315737 -0.267649E-05  0.206E-03    0.01       4.1  T
  38   -351.6315745 -0.790167E-06  0.118E-03    0.01       7.2  T
  39   -351.6315747 -0.221064E-06  0.686E-04    0.01      12.4  T
  40   -351.6315749 -0.158889E-06  0.379E-04    0.01      22.4  T
  41   -351.6315749 -0.307757E-07  0.242E-04    0.01      35.0  T
  42   -351.6315749 -0.445186E-08  0.227E-04    0.01      37.3  T
  43   -351.6315750 -0.151695E-07  0.110E-04    0.01      76.8  T
  44   -351.6315750 -0.911257E-09  0.892E-05    0.01      95.1  T
     SCC iter.                  ...        0 min,  0.703 sec
     gradient                   ...        0 min,  0.060 sec
 * total energy  :  -349.1338395 Eh     change       -0.2149211E-02 Eh
   gradient norm :     0.0171047 Eh/α   predicted    -0.2767809E-02 (  28.78%)
   displ. norm   :     0.0095792 α      lambda       -0.1634442E-03
   maximum displ.:     0.0084339 α      in ANC's #21, #41, #16, ...

........................................................................
.............................. CYCLE    5 ..............................
........................................................................

 iter      E             dE          RMSdq      gap      omega  full diag
   1   -351.6302413 -0.351630E+03  0.573E-02    0.01       0.0  T
   2   -350.8115583  0.818683E+00  0.109E+00    0.00       1.0  T
   3   -350.9115410 -0.999827E-01  0.989E-01    0.00       1.0  T
   4   -351.1360894 -0.224548E+00  0.969E-01    0.00       1.0  T
   5   -351.5845351 -0.448446E+00  0.254E-01    0.01       1.0  T
   6   -351.5915252 -0.699005E-02  0.253E-01    0.01       1.0  T
   7   -351.6126189 -0.210937E-01  0.213E-01    0.01       1.0  T
   8   -351.5625276  0.500913E-01  0.386E-01    0.00       1.0  T
   9   -351.6098512 -0.473236E-01  0.175E-01    0.01       1.0  T
  10   -351.6149037 -0.505255E-02  0.219E-01    0.00       1.0  T
  11   -351.6130676  0.183609E-02  0.183E-01    0.00       1.0  T
  12   -351.6252693 -0.122017E-01  0.116E-01    0.00       1.0  T
  13   -351.6290126 -0.374328E-02  0.865E-02    0.01       1.0  T
  14   -351.6288510  0.161650E-03  0.852E-02    0.00       1.0  T
  15   -351.6319040 -0.305305E-02  0.415E-02    0.01       1.0  T
  16   -351.6316088  0.295212E-03  0.398E-02    0.00       1.0  T
  17   -351.6324558 -0.846981E-03  0.229E-02    0.01       1.0  T
  18   -351.6324429  0.128893E-04  0.218E-02    0.01       1.0  T
  19   -351.6326758 -0.232954E-03  0.140E-02    0.01       1.0  T
  20   -351.6327038 -0.279756E-04  0.110E-02    0.01       1.0  T
  21   -351.6327020  0.183599E-05  0.118E-02    0.01       1.0  T
  22   -351.6327029 -0.938967E-06  0.112E-02    0.01       1.0  T
  23   -351.6327751 -0.721683E-04  0.416E-03    0.01       2.0  T
  24   -351.6327625  0.125484E-04  0.579E-03    0.01       1.5  T
  25   -351.6327780 -0.154610E-04  0.332E-03    0.01       2.6  T
  26   -351.6327825 -0.449208E-05  0.161E-03    0.01       5.3  T
  27   -351.6327824  0.562599E-07  0.149E-03    0.01       5.7  T
  28   -351.6327824  0.517433E-07  0.126E-03    0.01       6.7  T
  29   -351.6327831 -0.686649E-06  0.747E-04    0.01      11.4  T
  30   -351.6327832 -0.130068E-06  0.542E-04    0.01      15.6  T
  31   -351.6327833 -0.101121E-06  0.297E-04    0.01      28.6  T
  32   -351.6327833 -0.422655E-07  0.163E-04    0.01      52.2  T
  33   -351.6327834 -0.104342E-07  0.107E-04    0.01      79.3  T
     SCC iter.                  ...        0 min,  0.526 sec
     gradient                   ...        0 min,  0.059 sec
 * total energy  :  -349.1339422 Eh     change       -0.1027097E-03 Eh
   gradient norm :     0.0055270 Eh/α   predicted    -0.8173090E-04 ( -20.43%)
   displ. norm   :     0.0042869 α      lambda       -0.2314509E-04
   maximum displ.:     0.0029582 α      in ANC's #41, #21, #16, ...

........................................................................
.............................. CYCLE    6 ..............................
........................................................................

 iter      E             dE          RMSdq      gap      omega  full diag
   1   -351.6314621 -0.351631E+03  0.385E-02    0.01       0.0  T
   2   -350.9597628  0.671699E+00  0.102E+00    0.01       1.0  T
   3   -351.0338400 -0.740772E-01  0.914E-01    0.01       1.0  T
   4   -351.3719007 -0.338061E+00  0.690E-01    0.00       1.0  T
   5   -351.6029886 -0.231088E+00  0.195E-01    0.00       1.0  T
   6   -351.5685055  0.344831E-01  0.306E-01    0.01       1.0  T
   7   -351.5896644 -0.211589E-01  0.276E-01    0.01       1.0  T
   8   -351.5320537  0.576107E-01  0.440E-01    0.01       1.0  T
   9   -351.6231743 -0.911207E-01  0.123E-01    0.01       1.0  T
  10   -351.6243816 -0.120726E-02  0.103E-01    0.01       1.0  T
  11   -351.6287336 -0.435197E-02  0.764E-02    0.00       1.0  T
  12   -351.6298139 -0.108036E-02  0.782E-02    0.01       1.0  T
  13   -351.6309564 -0.114250E-02  0.691E-02    0.01       1.0  T
  14   -351.6295344  0.142204E-02  0.907E-02    0.00       1.0  T
  15   -351.6324967 -0.296227E-02  0.236E-02    0.01       1.0  T
  16   -351.6324097  0.869161E-04  0.228E-02    0.01       1.0  T
  17   -351.6326239 -0.214172E-03  0.157E-02    0.01       1.0  T
  18   -351.6327190 -0.951197E-04  0.112E-02    0.01       1.0  T
  19   -351.6327749 -0.558705E-04  0.897E-03    0.01       1.0  T
  20   -351.6327655  0.939454E-05  0.832E-03    0.01       1.0  T
  21   -351.6327930 -0.274747E-04  0.507E-03    0.01       1.7  T
  22   -351.6328016 -0.865376E-05  0.302E-03    0.01       2.8  T
  23   -351.6328008  0.792631E-06  0.294E-03    0.01       2.9  T
  24   -351.6328021 -0.123856E-05  0.259E-03    0.01       3.3  T
  25   -351.6328018  0.274348E-06  0.217E-03    0.01       3.9  T
  26   -351.6328045 -0.273575E-05  0.107E-03    0.01       7.9  T
  27   -351.6328046 -0.182981E-07  0.130E-03    0.01       6.5  T
  28   -351.6328048 -0.280573E-06  0.796E-04    0.01      10.7  T
  29   -351.6328050 -0.124982E-06  0.592E-04    0.01      14.3  T
  30   -351.6328051 -0.156598E-06  0.418E-04    0.01      20.3  T
  31   -351.6328052 -0.103630E-06  0.283E-04    0.01      29.9  T
  32   -351.6328053 -0.616432E-07  0.804E-05    0.01     105.5  T
  33   -351.6328053  0.574289E-09  0.696E-05    0.01     121.9  T
     SCC iter.                  ...        0 min,  0.527 sec
     gradient                   ...        0 min,  0.059 sec
 * total energy  :  -349.1339588 Eh     change       -0.1655583E-04 Eh
   gradient norm :     0.0026890 Eh/α   predicted    -0.1157373E-04 ( -30.09%)
   displ. norm   :     0.0023986 α      lambda       -0.5780913E-05
   maximum displ.:     0.0017408 α      in ANC's #41, #16, #12, ...

........................................................................
.............................. CYCLE    7 ..............................
........................................................................

 iter      E             dE          RMSdq      gap      omega  full diag
   1   -351.6320738 -0.351632E+03  0.223E-02    0.01       0.0  T
   2   -351.0926204  0.539453E+00  0.900E-01    0.02       1.0  T
   3   -351.4080988 -0.315478E+00  0.567E-01    0.01       1.0  T
   4   -351.5671829 -0.159084E+00  0.345E-01    0.00       1.0  T
   5   -351.6304669 -0.632840E-01  0.716E-02    0.01       1.0  T
   6   -351.6198846  0.105823E-01  0.180E-01    0.01       1.0  T
   7   -351.6005468  0.193378E-01  0.244E-01    0.01       1.0  T
   8   -351.6154545 -0.149077E-01  0.196E-01    0.01       1.0  T
   9   -351.6315284 -0.160739E-01  0.398E-02    0.01       1.0  T
  10   -351.6303642  0.116414E-02  0.545E-02    0.01       1.0  T
  11   -351.6298832  0.481021E-03  0.608E-02    0.00       1.0  T
  12   -351.6312508 -0.136758E-02  0.420E-02    0.00       1.0  T
  13   -351.6308829  0.367908E-03  0.509E-02    0.01       1.0  T
  14   -351.6315444 -0.661522E-03  0.427E-02    0.01       1.0  T
  15   -351.6324262 -0.881794E-03  0.148E-02    0.01       1.0  T
  16   -351.6324375 -0.113106E-04  0.129E-02    0.01       1.0  T
  17   -351.6324525 -0.149903E-04  0.124E-02    0.01       1.0  T
  18   -351.6324940 -0.414554E-04  0.886E-03    0.01       1.0  T
  19   -351.6325259 -0.319687E-04  0.603E-03    0.01       1.4  T
  20   -351.6325379 -0.119777E-04  0.408E-03    0.01       2.1  T
  21   -351.6325461 -0.814727E-05  0.234E-03    0.01       3.6  T
  22   -351.6325475 -0.148192E-05  0.152E-03    0.01       5.6  T
  23   -351.6325475  0.491157E-07  0.169E-03    0.01       5.0  T
  24   -351.6325491 -0.164750E-05  0.692E-04    0.01      12.3  T
  25   -351.6325491  0.410796E-07  0.707E-04    0.01      12.0  T
  26   -351.6325493 -0.243050E-06  0.294E-04    0.01      28.9  T
  27   -351.6325493 -0.918601E-08  0.237E-04    0.01      35.8  T
  28   -351.6325494 -0.672759E-08  0.181E-04    0.01      46.9  T
  29   -351.6325494 -0.106906E-07  0.122E-04    0.01      69.5  T
     SCC iter.                  ...        0 min,  0.466 sec
     gradient                   ...        0 min,  0.060 sec
 * total energy  :  -349.1339645 Eh     change       -0.5768620E-05 Eh
   gradient norm :     0.0010512 Eh/α   predicted    -0.2892014E-05 ( -49.87%)
   displ. norm   :     0.0012230 α      lambda       -0.7602550E-06
   maximum displ.:     0.0007190 α      in ANC's #16, #21, #41, ...

........................................................................
.............................. CYCLE    8 ..............................
........................................................................

 iter      E             dE          RMSdq      gap      omega  full diag
   1   -351.6323047 -0.351632E+03  0.725E-03    0.01       0.0  T
   2   -351.5335156  0.987891E-01  0.381E-01    0.00       1.0  T
   3   -351.6121696 -0.786539E-01  0.176E-01    0.01       1.0  T
   4   -351.6281220 -0.159524E-01  0.881E-02    0.00       1.0  T
   5   -351.6319468 -0.382483E-02  0.309E-02    0.01       1.0  T
   6   -351.6286338  0.331302E-02  0.920E-02    0.01       1.0  T
   7   -351.6248858  0.374803E-02  0.105E-01    0.01       1.0  T
   8   -351.6311030 -0.621727E-02  0.471E-02    0.01       1.0  T
   9   -351.6321310 -0.102799E-02  0.217E-02    0.01       1.0  T
  10   -351.6321904 -0.593544E-04  0.171E-02    0.01       1.0  T
  11   -351.6318498  0.340557E-03  0.261E-02    0.01       1.0  T
  12   -351.6320778 -0.227988E-03  0.200E-02    0.01       1.0  T
  13   -351.6322242 -0.146381E-03  0.148E-02    0.01       1.0  T
  14   -351.6323104 -0.862403E-04  0.841E-03    0.01       1.0  T
  15   -351.6323533 -0.428639E-04  0.192E-03    0.01       4.4  T
  16   -351.6323313  0.220561E-04  0.604E-03    0.01       1.4  T
  17   -351.6323454 -0.141907E-04  0.367E-03    0.01       2.3  T
  18   -351.6323521 -0.664167E-05  0.199E-03    0.01       4.3  T
  19   -351.6323511  0.102745E-05  0.212E-03    0.01       4.0  T
  20   -351.6323540 -0.297455E-05  0.109E-03    0.01       7.8  T
  21   -351.6323546 -0.539475E-06  0.646E-04    0.01      13.1  T
  22   -351.6323545  0.322581E-07  0.712E-04    0.01      11.9  T
  23   -351.6323547 -0.155304E-06  0.573E-04    0.01      14.8  T
  24   -351.6323548 -0.806883E-07  0.435E-04    0.01      19.5  T
  25   -351.6323548 -0.685480E-07  0.276E-04    0.01      30.7  T
  26   -351.6323549 -0.263627E-07  0.185E-04    0.01      45.8  T
  27   -351.6323549 -0.114199E-07  0.906E-05    0.01      93.6  T
     SCC iter.                  ...        0 min,  0.432 sec
     gradient                   ...        0 min,  0.059 sec
 * total energy  :  -349.1339679 Eh     change       -0.3374110E-05 Eh
   gradient norm :     0.0003992 Eh/α   predicted    -0.3815352E-06 ( -88.69%)
   displ. norm   :     0.0003446 α      lambda       -0.8022421E-07
   maximum displ.:     0.0002883 α      in ANC's #41, #16, #21, ...

........................................................................
.............................. CYCLE    9 ..............................
........................................................................

 iter      E             dE          RMSdq      gap      omega  full diag
   1   -351.6324040 -0.351632E+03  0.374E-03    0.01       0.0  T
   2   -351.6177879  0.146162E-01  0.142E-01    0.01       1.0  T
   3   -351.6255809 -0.779308E-02  0.108E-01    0.00       1.0  T
   4   -351.6314814 -0.590041E-02  0.432E-02    0.01       1.0  T
   5   -351.6323676 -0.886197E-03  0.115E-02    0.01       1.0  T
   6   -351.6319845  0.383090E-03  0.363E-02    0.01       1.0  T
   7   -351.6317100  0.274461E-03  0.363E-02    0.01       1.0  T
   8   -351.6322906 -0.580606E-03  0.170E-02    0.01       1.0  T
   9   -351.6323404 -0.497910E-04  0.969E-03    0.01       1.0  T
  10   -351.6323677 -0.273130E-04  0.926E-03    0.01       1.0  T
  11   -351.6323469  0.207968E-04  0.102E-02    0.01       1.0  T
  12   -351.6323896 -0.427262E-04  0.691E-03    0.01       1.2  T
  13   -351.6323901 -0.503929E-06  0.680E-03    0.01       1.2  T
  14   -351.6324010 -0.108537E-04  0.552E-03    0.01       1.5  T
  15   -351.6324148 -0.137875E-04  0.230E-03    0.01       3.7  T
  16   -351.6324138  0.103137E-05  0.235E-03    0.01       3.6  T
  17   -351.6324166 -0.281051E-05  0.146E-03    0.01       5.8  T
  18   -351.6324163  0.279570E-06  0.139E-03    0.01       6.1  T
  19   -351.6324166 -0.308836E-06  0.120E-03    0.01       7.1  T
  20   -351.6324174 -0.837894E-06  0.508E-04    0.01      16.7  T
  21   -351.6324175 -0.986734E-07  0.382E-04    0.01      22.2  T
  22   -351.6324176 -0.419407E-07  0.231E-04    0.01      36.7  T
  23   -351.6324176 -0.173702E-07  0.184E-04    0.01      46.0  T
  24   -351.6324176  0.116866E-07  0.247E-04    0.01      34.3  T
  25   -351.6324176 -0.349246E-07  0.977E-05    0.01      86.9  T
     SCC iter.                  ...        0 min,  0.399 sec
     gradient                   ...        0 min,  0.059 sec
 * total energy  :  -349.1339693 Eh     change       -0.1375206E-05 Eh
   gradient norm :     0.0000806 Eh/α   predicted    -0.4074305E-07 ( -97.04%)
   displ. norm   :     0.0000892 α      lambda       -0.2206385E-08
   maximum displ.:     0.0000564 α      in ANC's #16, #1, #12, ...

........................................................................
.............................. CYCLE   10 ..............................
........................................................................

 iter      E             dE          RMSdq      gap      omega  full diag
   1   -351.6324305 -0.351632E+03  0.186E-04    0.01       0.0  T
   2   -351.6323757  0.547498E-04  0.998E-03    0.01       1.0  T
   3   -351.6324258 -0.500723E-04  0.283E-03    0.01       3.0  T
   4   -351.6324288 -0.297432E-05  0.177E-03    0.01       4.8  T
   5   -351.6324289 -0.143862E-06  0.150E-03    0.01       5.7  T
   6   -351.6324301 -0.116400E-05  0.928E-04    0.01       9.1  T
   7   -351.6324297  0.350200E-06  0.112E-03    0.01       7.6  T
   8   -351.6324302 -0.488403E-06  0.725E-04    0.01      11.7  T
   9   -351.6324301  0.836102E-07  0.106E-03    0.01       8.0  T
  10   -351.6324304 -0.221955E-06  0.502E-04    0.01      16.9  T
  11   -351.6324304 -0.530051E-07  0.355E-04    0.01      23.9  T
  12   -351.6324305 -0.837399E-07  0.788E-05    0.01     107.7  T
  13   -351.6324305  0.394560E-07  0.235E-04    0.01      36.0  T
  14   -351.6324305 -0.199506E-07  0.164E-04    0.01      51.8  T
     SCC iter.                  ...        0 min,  0.225 sec
     gradient                   ...        0 min,  0.059 sec
 * total energy  :  -349.1339715 Eh     change       -0.2220636E-05 Eh
   gradient norm :     0.0000427 Eh/α   predicted    -0.2320704E-08 ( -99.90%)
   displ. norm   :     0.0000838 α      lambda       -0.1015716E-08
   maximum displ.:     0.0000686 α      in ANC's #1, #16, #12, ...

........................................................................
.............................. CYCLE   11 ..............................
........................................................................

 iter      E             dE          RMSdq      gap      omega  full diag
   1   -351.6324385 -0.351632E+03  0.241E-04    0.01       0.0  T
   2   -351.6323732  0.653111E-04  0.950E-03    0.01       1.0  T
   3   -351.6324230 -0.497885E-04  0.510E-03    0.01       1.7  T
   4   -351.6324331 -0.101015E-04  0.320E-03    0.01       2.7  T
   5   -351.6324372 -0.410601E-05  0.132E-03    0.01       6.4  T
   6   -351.6324367  0.491465E-06  0.166E-03    0.01       5.1  T
   7   -351.6324383 -0.152192E-05  0.995E-04    0.01       8.5  T
   8   -351.6324382  0.619539E-07  0.111E-03    0.01       7.7  T
   9   -351.6324379  0.270053E-06  0.124E-03    0.01       6.8  T
  10   -351.6324385 -0.582417E-06  0.482E-04    0.01      17.6  T
  11   -351.6324385 -0.325375E-07  0.269E-04    0.01      31.5  T
  12   -351.6324386 -0.253872E-07  0.196E-04    0.01      43.2  T
  13   -351.6324386 -0.121000E-07  0.138E-04    0.01      61.2  T
     SCC iter.                  ...        0 min,  0.208 sec
     gradient                   ...        0 min,  0.059 sec
 * total energy  :  -349.1339752 Eh     change       -0.3669526E-05 Eh
   gradient norm :     0.0000425 Eh/α   predicted    -0.1078431E-08 ( -99.97%)
   displ. norm   :     0.0001888 α      lambda       -0.1360574E-08
   maximum displ.:     0.0001787 α      in ANC's #1, #16, #12, ...

........................................................................
.............................. CYCLE   12 ..............................
........................................................................

 iter      E             dE          RMSdq      gap      omega  full diag
   1   -351.6324551 -0.351632E+03  0.334E-04    0.01       0.0  T
   2   -351.6323038  0.151300E-03  0.162E-02    0.01       1.0  T
   3   -351.6324446 -0.140855E-03  0.451E-03    0.01       1.9  T
   4   -351.6324474 -0.281756E-05  0.391E-03    0.01       2.2  T
   5   -351.6324507 -0.326989E-05  0.267E-03    0.01       3.2  T
   6   -351.6324523 -0.158091E-05  0.187E-03    0.01       4.5  T
   7   -351.6324516  0.727185E-06  0.245E-03    0.01       3.5  T
   8   -351.6324517 -0.137487E-06  0.272E-03    0.01       3.1  T
   9   -351.6324534 -0.165182E-05  0.162E-03    0.01       5.2  T
  10   -351.6324548 -0.142477E-05  0.825E-04    0.01      10.3  T
  11   -351.6324549 -0.110484E-06  0.568E-04    0.01      14.9  T
  12   -351.6324550 -0.711842E-07  0.506E-04    0.01      16.8  T
  13   -351.6324551 -0.100001E-06  0.376E-04    0.01      22.5  T
  14   -351.6324550  0.138313E-07  0.331E-04    0.01      25.6  T
  15   -351.6324550 -0.226333E-08  0.342E-04    0.01      24.8  T
  16   -351.6324551 -0.408003E-07  0.221E-04    0.01      38.3  T
  17   -351.6324551  0.481765E-08  0.195E-04    0.01      43.4  T
  18   -351.6324551 -0.363525E-08  0.188E-04    0.01      45.1  T
     SCC iter.                  ...        0 min,  0.287 sec
     gradient                   ...        0 min,  0.059 sec
 * total energy  :  -349.1339847 Eh     change       -0.9503241E-05 Eh
   gradient norm :     0.0000606 Eh/α   predicted    -0.1857001E-08 ( -99.98%)
   displ. norm   :     0.0007705 α      lambda       -0.1604811E-07
   maximum displ.:     0.0007546 α      in ANC's #1, #16, #12, ...

........................................................................
.............................. CYCLE   13 ..............................
........................................................................

 iter      E             dE          RMSdq      gap      omega  full diag
   1   -351.6325305 -0.351633E+03  0.155E-03    0.01       0.0  T
   2   -351.6300788  0.245167E-02  0.585E-02    0.01       1.0  T
   3   -351.6321404 -0.206154E-02  0.254E-02    0.01       1.0  T
   4   -351.6321797 -0.393864E-04  0.256E-02    0.01       1.0  T
   5   -351.6324136 -0.233815E-03  0.122E-02    0.01       1.0  T
   6   -351.6323721  0.414418E-04  0.147E-02    0.01       1.0  T
   7   -351.6325085 -0.136384E-03  0.745E-03    0.01       1.1  T
   8   -351.6324556  0.528732E-04  0.141E-02    0.01       1.0  T
   9   -351.6325111 -0.555075E-04  0.850E-03    0.01       1.0  T
  10   -351.6325211 -0.994332E-05  0.582E-03    0.01       1.5  T
  11   -351.6325298 -0.873934E-05  0.199E-03    0.01       4.3  T
  12   -351.6325231  0.669844E-05  0.378E-03    0.01       2.2  T
  13   -351.6325301 -0.694351E-05  0.172E-03    0.01       4.9  T
  14   -351.6325306 -0.538172E-06  0.149E-03    0.01       5.7  T
  15   -351.6325309 -0.275317E-06  0.130E-03    0.01       6.5  T
  16   -351.6325317 -0.860957E-06  0.877E-04    0.01       9.7  T
  17   -351.6325319 -0.136470E-06  0.563E-04    0.01      15.1  T
  18   -351.6325319 -0.670517E-07  0.486E-04    0.01      17.5  T
  19   -351.6325317  0.287265E-06  0.764E-04    0.01      11.1  T
  20   -351.6325317 -0.457600E-07  0.781E-04    0.01      10.9  T
  21   -351.6325320 -0.273317E-06  0.458E-04    0.01      18.5  T
  22   -351.6325321 -0.107683E-06  0.246E-04    0.01      34.5  T
  23   -351.6325321 -0.141608E-07  0.183E-04    0.01      46.5  T
  24   -351.6325321 -0.118533E-07  0.101E-04    0.01      84.1  T
     SCC iter.                  ...        0 min,  0.383 sec
     gradient                   ...        0 min,  0.059 sec
 * total energy  :  -349.1340246 Eh     change       -0.3990289E-04 Eh
   gradient norm :     0.0001531 Eh/α   predicted    -0.6899520E-08 ( -99.98%)
   displ. norm   :     0.0008018 α      lambda       -0.1524904E-07
   maximum displ.:     0.0007984 α      in ANC's #1, #16, #12, ...

........................................................................
.............................. CYCLE   14 ..............................
........................................................................

 iter      E             dE          RMSdq      gap      omega  full diag
   1   -351.6326037 -0.351633E+03  0.155E-03    0.01       0.0  T
   2   -351.6280322  0.457149E-02  0.851E-02    0.01       1.0  T
   3   -351.6322211 -0.418889E-02  0.235E-02    0.01       1.0  T
   4   -351.6323822 -0.161098E-03  0.197E-02    0.01       1.0  T
   5   -351.6324505 -0.683369E-04  0.149E-02    0.01       1.0  T
   6   -351.6324855 -0.349255E-04  0.137E-02    0.01       1.0  T
   7   -351.6325517 -0.662147E-04  0.108E-02    0.01       1.0  T
   8   -351.6324396  0.112081E-03  0.177E-02    0.01       1.0  T
   9   -351.6325767 -0.137123E-03  0.870E-03    0.01       1.0  T
  10   -351.6325875 -0.108039E-04  0.598E-03    0.01       1.4  T
  11   -351.6326028 -0.152744E-04  0.221E-03    0.01       3.8  T
  12   -351.6325949  0.788577E-05  0.400E-03    0.01       2.1  T
  13   -351.6326012 -0.629196E-05  0.248E-03    0.01       3.4  T
  14   -351.6326024 -0.115865E-05  0.231E-03    0.01       3.7  T
  15   -351.6326041 -0.169214E-05  0.143E-03    0.01       5.9  T
  16   -351.6326049 -0.805251E-06  0.818E-04    0.01      10.4  T
  17   -351.6326049  0.121863E-07  0.660E-04    0.01      12.8  T
  18   -351.6326051 -0.213869E-06  0.446E-04    0.01      19.0  T
  19   -351.6326041  0.101591E-05  0.127E-03    0.01       6.7  T
  20   -351.6326042 -0.154076E-06  0.120E-03    0.01       7.1  T
  21   -351.6326051 -0.923647E-06  0.398E-04    0.01      21.3  T
  22   -351.6326052 -0.422002E-07  0.313E-04    0.01      27.1  T
  23   -351.6326052 -0.349088E-07  0.192E-04    0.01      44.2  T
  24   -351.6326052 -0.122475E-07  0.931E-05    0.01      91.1  T
     SCC iter.                  ...        0 min,  0.385 sec
     gradient                   ...        0 min,  0.059 sec
 * total energy  :  -349.1340663 Eh     change       -0.4169146E-04 Eh
   gradient norm :     0.0001830 Eh/α   predicted    -0.7034339E-08 ( -99.98%)
   displ. norm   :     0.0166757 α      lambda       -0.3211953E-06
   maximum displ.:     0.0166265 α      in ANC's #1, #19, #13, ...

........................................................................
.............................. CYCLE   15 ..............................
........................................................................

 iter      E             dE          RMSdq      gap      omega  full diag
   1   -351.6334373 -0.351633E+03  0.327E-02    0.01       0.0  T
   2   -349.8773048  0.175613E+01  0.189E+00    0.00       1.0  T
   3   -351.3980096 -0.152070E+01  0.573E-01    0.01       1.0  T
