      15
 i =        1, E =      -227.7478642794
  S        -1.5226762870       -1.0880605837       -0.3644481684
  S         1.4440593450       -0.6117546047        0.2258488902
  F        -1.8049524110        1.6137589588       -0.5838625324
  F        -3.3013391885        0.6764342563        0.6302372760
  F        -1.2979133755        1.1255004979        1.3991152783
  F         3.2363944718        0.8498990304        0.4515324146
  F         2.2526282775        0.8865827206       -1.7434356636
  F         1.2874624363        1.6450691802        0.0547923450
  O        -1.6587473002       -1.8646733293        0.9203219441
  O        -2.2748280527       -1.2783906308       -1.5013704897
  O         2.2874272769       -1.7756143070       -0.2814451946
  O         1.0344728741       -0.9200936843        1.6385043873
  N         0.0622103666       -0.7172150633       -0.7113535018
  C        -1.9910366473        0.6235443193        0.3299360450
  C         2.2705535749        0.8489390890       -0.4240626241
      15
 i =        2, E =      -239.0958516971
  S        -1.7120868701       -1.1153007254       -0.4663528433
  S         1.5171455658       -0.4584146854        0.2478772680
  F        -1.7774947782        1.6081374793       -0.5505902834
  F        -3.2919860854        0.6895622462        0.6480768344
  F        -1.2401769830        1.1315361292        1.4258112382
  F         3.2554275497        0.8005792935        0.3906238763
  F         2.2306028545        0.8698830595       -1.7402557787
  F         1.3059050854        1.5495248646        0.0142175996
  O        -1.6857850827       -1.8525404436        0.9315426160
  O        -2.3360231447       -1.3877274369       -1.5659775649
  O         2.2220822964       -1.9494415333       -0.1647636179
  O         1.2005337997       -0.6700936843        1.6299787713
  N        -0.0179637010       -0.6679803647       -0.6378504709
  C        -1.9880942915        0.6255678061        0.3739564333
  C         2.3684791099        0.8578679687       -0.4486876182
      15
 i =        3, E =      -139.1985849155
  S        -1.9401782080       -1.1618018992       -0.5706688450
  S         1.6375273503       -0.2084146854        0.2694780043
  F        -1.7223005476        1.6177922511       -0.5208245420
  F        -3.2317593073        0.6322606414        0.6692199960
  F        -1.1963693730        1.1074229399        1.4633351546
  F         3.2935980513        0.7717894653        0.2917872612
  F         2.2490752479        0.8625929429       -1.7450891102
  F         1.3312398462        1.5065194423       -0.0384892378
  O        -1.7390281767       -1.8170336298        0.9666616513
  O        -2.3922532789       -1.5199242149       -1.6583770907
  O         2.0576116416       -2.1685372397       -0.0262030508
  O         1.3307173528       -0.4847010329        1.6067065267
  N        -0.1207980210       -0.6368304443       -0.4783584448
  C        -1.9468853170        0.6236574229        0.3959681666
  C         2.4675413758        0.9256599540       -0.4901499285
      15
 i =        4, E =      -236.0992592320
  S        -1.9564677231       -1.2752989853       -0.6593983073
  S         1.6356264960       -0.0363925615        0.1940057241
  F        -1.7250083455        1.6142530270       -0.5197280226
  F        -3.2401547379        0.6534524059        0.6750651187
  F        -1.2092291059        1.0665193181        1.4291367715
  F         3.3613135547        0.8370626555        0.2382333262
  F         2.3205131476        0.8684050135       -1.7241078920
  F         1.4016042949        1.5050068116       -0.0416278438
  O        -1.8605620466       -1.8366454478        1.0489251079
  O        -2.4831263396       -1.4413085065       -1.5949184250
  O         2.2485219616       -2.4185372397       -0.0976303016
  O         1.3637146116       -0.4298512592        1.8495156307
  N        -0.1758641937       -0.5577966938       -0.6205667941
  C        -1.9626753134        0.6174218468        0.3941139630
  C         2.3596683083        0.8841561224       -0.4353563205
      15
 i =        5, E =      -154.4259352116
  S        -1.7953285046       -1.2735888464       -0.5869984066
  S         1.4974630059       -0.2863925615        0.1908523857
  F        -1.7326095933        1.5837906670       -0.5798855746
  F        -3.2570823440        0.5807200842        0.6748942231
  F        -1.2808296903        1.0430557877        1.4001423936
  F         3.3539640169        0.9586766692        0.2422718413
  F         2.3962503251        0.8993100369       -1.7027499274
  F         1.4512793226        1.5952270781       -0.0106889332
  O        -1.9040147419       -1.8056471614        1.0766476046
  O        -2.5340067188       -1.2932497638       -1.5287127099
  O         2.4821123167       -2.2204409608       -0.2384410107
  O         1.2588659757       -0.6546400833        1.9472644068
  N        -0.1400617240       -0.4981100069       -0.7434807996
  C        -1.9807136238        0.6120995809        0.3533558123
  C         2.2375857245        0.7908528527       -0.3992390502
      15
 i =        6, E =      -238.2607143019
  S        -1.8303833786       -1.2468184528       -0.5539042202
  S         1.3806307487       -0.4653192049        0.2182585601
  F        -1.6645741675        1.5495564893       -0.6691062318
  F        -3.2089345578        0.3307200842        0.7026817759
  F        -1.3476490806        0.9855284697        1.4286859705
  F         3.3600188069        1.0996130726        0.1718574053
  F         2.5070297274        0.9332592778       -1.6757976165
  F         1.5314019935        1.7228197207       -0.0454896366
  O        -2.0151046871       -1.6785912038        1.1544892143
  O        -2.5629688778       -1.3525118464       -1.6016387796
  O         2.7083551386       -2.0565340697       -0.3351510085
  O         1.2235537360       -0.8501835975        2.0578845934
  N        -0.2351084959       -0.3430955764       -0.7134673434
  C        -1.9587542069        0.6568718163        0.3317563568
  C         2.1530723244        0.7350454741       -0.3898493886
      15
 i =        7, E =      -157.0437168169
  S        -2.0469095489       -1.2551454146       -0.6477807786
  S         1.3350898433       -0.3362357313        0.2827204452
  F        -1.4145741675        1.4024275583       -0.6757488876
  F        -3.1315062684        0.0935920976        0.7367953786
  F        -1.3236427648        0.9832213899        1.4851765014
  F         3.3869849474        1.1194561660        0.0504387353
  F         2.5574529400        0.9381535835       -1.6982067582
  F         1.5617353088        1.6941337279       -0.1345371821
  O        -1.9709010118       -1.5234245940        1.2068378333
  O        -2.6741566559       -1.4071425259       -1.7508162431
  O         2.5885089499       -2.0497466302       -0.2767295805
  O         1.3164322312       -0.7790029265        2.0805841911
  N        -0.4320932091       -0.2014430205       -0.5015829587
  C        -1.9176501642        0.6116338160        0.4136635793
  C         2.2222551893        0.7417040291       -0.4592915011
      15
 i =        8, E =      -229.9366237592
  S        -2.2329531339       -1.3092378034       -0.7402878397
  S         1.2791782161       -0.2544224425        0.3267859398
  F        -1.1645741675        1.2485223382       -0.6623730620
  F        -3.0465294029       -0.0962595594        0.7667148198
  F        -1.2923686685        0.9645547946        1.4985428028
  F         3.4178629168        1.1021793019       -0.0199646197
  F         2.5727200905        0.9089821140       -1.7259680355
  F         1.5429256580        1.6814471411       -0.2268660681
  O        -1.9310282737       -1.3583039282        1.2738536591
  O        -2.8560682033       -1.4403167034       -1.8735373229
  O         2.5519988364       -1.9772215758       -0.2788795814
  O         1.4498341526       -0.7404266075        2.1049755925
  N        -0.6436088330        0.0248974067       -0.2753607375
  C        -1.8659320890        0.5022463439        0.4815799152
  C         2.2859332358        0.7831294363       -0.5163309043
      15
 i =        9, E =        70.8928963171
  S        -2.1201539244       -1.1100914439       -0.4902878397
  S         1.2171637826       -0.3170540850        0.3287449399
  F        -1.1303225130        1.0109881850       -0.5895980810
  F        -2.9582172751       -0.2955631806        0.7540828028
  F        -1.3013658124        1.0021051276        1.6231643223
  F         3.4126000056        1.1482114085       -0.0657930699
  F         2.6123297627        0.9420000037       -1.8048296416
  F         1.6212944588        1.7091385543       -0.2545356619
  O        -1.8599958921       -1.3155201179        1.1364671446
  O        -2.8280669934       -1.4062500737       -2.0076313972
  O         2.3491688807       -1.7781239913       -0.1942157959
  O         1.4233193802       -0.7548995415        1.9138280959
  N        -0.7236328541       -0.0230836063       -0.1882438743
  C        -1.7713758318        0.6563122236        0.3242052635
  C         2.1242703811        0.5712000721       -0.3536012172
      15
 i =       10, E =      -227.6112972075
  S        -2.3474274220       -1.2239179645       -0.6586644338
  S         1.1946170685       -0.2113719340        0.3852081509
  F        -0.8803225130        0.9380519978       -0.5861317499
  F        -2.9238090876       -0.4224067779        0.8063260790
  F        -1.2812874910        0.9857816134        1.6003510013
  F         3.4515630109        1.1301578223       -0.1376611806
  F         2.6342679546        0.9149877597       -1.8238021024
  F         1.5783448715        1.6748228794       -0.3425723951
  O        -1.8114589994       -1.1614008953        1.2366440949
  O        -3.0317222065       -1.4760210331       -2.1170942971
  O         2.3564669494       -1.7687117516       -0.1945691731
  O         1.5819587344       -0.6985376205        1.9855633292
  N        -0.9115320496        0.1774025833        0.0425157079
  C        -1.7723262142        0.5210904015        0.4275916208
  C         2.2417626697        0.6682772783       -0.4673254295
      15
 i =       11, E =       103.9199166393
  S        -2.3102125731       -1.0994396147       -0.4995943914
  S         1.0969280505       -0.1865569915        0.3769489911
  F        -0.8927234883        0.7743314908       -0.4611592662
  F        -2.6738090876       -0.4750418574        0.7281227438
  F        -1.2985851478        0.9028274435        1.5000903083
  F         3.4597985236        1.1440031796       -0.1440241891
  F         2.6433895243        0.9246940376       -1.8321294529
  F         1.6063033347        1.6828998195       -0.3537386729
  O        -1.8497217393       -0.9933754562        1.0798855339
  O        -2.9966397724       -1.4439681125       -2.0510932897
  O         2.3133616754       -1.7272300843       -0.1902365476
  O         1.5767139860       -0.6914455103        1.9693554587
  N        -1.0563599202        0.2323989784        0.0636278240
  C        -1.7244990218        0.4061276465        0.4146534928
  C         2.1851359470        0.5983071533       -0.4438435915
      15
 i =       12, E =      -217.9120911350
  S        -2.5346450648       -1.2041164506       -0.6491408879
  S         1.0802166656       -0.0819737356        0.4326175768
  F        -0.6427234883        0.7025834518       -0.4705430436
  F        -2.6407479474       -0.5960282171        0.7796609733
  F        -1.2890396799        0.8905863331        1.4769494404
  F         3.5012068286        1.1248654068       -0.2191933665
  F         2.6578851866        0.8937864058       -1.8457157712
  F         1.5681784005        1.6589798495       -0.4475058257
  O        -1.7890943387       -0.8554191290        1.1726277478
  O        -3.1945758073       -1.5070383354       -2.1577428063
  O         2.3150603740       -1.7163046618       -0.1898656487
  O         1.7395378623       -0.6441860154        2.0342144855
  N        -1.2459977915        0.4148763199        0.3039569148
  C        -1.7277663963        0.2871440057        0.4992739574
  C         2.2939207944        0.6895748428       -0.5381634932
      15
 i =       13, E =        83.2219239607
  S        -2.6316925169       -1.2585774680       -0.7947137234
  S         1.0946234729       -0.0379524254        0.4430736983
  F        -0.3927234883        0.5674037621       -0.4378329863
  F        -2.7351178247       -0.7785680221        0.8566539154
  F        -1.3274924969        0.8936210029        1.4509535759
  F         3.5340290766        1.0959897858       -0.2526110576
  F         2.6680583385        0.8351469505       -1.8529823311
  F         1.5298808317        1.6953117208       -0.5095773824
  O        -1.7461558980       -0.6982338666        1.2191789126
  O        -3.3340001302       -1.5070281519       -2.2464121836
  O         2.3911025203       -1.7061220599       -0.2236893512
  O         1.8662699639       -0.6419081626        2.0720548690
  N        -1.3292861970        0.6639608099        0.4338896325
  C        -1.8561533492        0.1321741373        0.6416785094
  C         2.3628230607        0.8050540034       -0.6096608665
      15
 i =       14, E =      -224.5066118456
  S        -2.6346751648       -1.3034845597       -0.8315083132
  S         1.1311826512       -0.0649163308        0.4661931614
  F        -0.2629074629        0.5086504683       -0.5382934885
  F        -2.7196353510       -0.8454466261        0.8822078380
  F        -1.3343562605        0.9695077954        1.5231434257
  F         3.5261191367        1.1059007284       -0.2489435870
  F         2.6665547146        0.8471568556       -1.8455182455
  F         1.5430604813        1.7110302020       -0.5091495749
  O        -1.7776210374       -0.7486441648        1.2742582984
  O        -3.3602266244       -1.5060420222       -2.2658583511
  O         2.4083282372       -1.7214465429       -0.2300265830
  O         1.8811548921       -0.6474812680        2.0685497679
  N        -1.4749975973        0.9139608099        0.4964578834
  C        -1.8600812832        0.0614558996        0.5762275423
  C         2.3624312999        0.7801132698       -0.6277861615
      15
 i =       15, E =        74.6684390682
  S        -2.7407875198       -1.3395847009       -0.9165458180
  S         1.1949363970       -0.0202922739        0.5413356599
  F        -0.1695192933        0.5401926474       -0.5846548261
  F        -2.6342980220       -0.8919781986        0.9507074951
  F        -1.2521351422        1.0401989158        1.4156812320
  F         3.5003460745        1.0536312963       -0.2281096367
  F         2.6333366002        0.8336165786       -1.8600150353
  F         1.5615621334        1.7071736975       -0.5051726568
  O        -2.0276210374       -0.7343505427        1.2528717223
  O        -3.3848423628       -1.4650493819       -2.3239712903
  O         2.4397390569       -1.7557900576       -0.2090988294
  O         1.9413520414       -0.5852351599        2.1342493233
  N        -1.5291315144        0.8668080685        0.6749553199
  C        -1.8393075476       -0.0041442354        0.5602290190
  C         2.4083429113        0.8195155429       -0.7001912089
      15
 i =       16, E =      -219.2709225883
  S        -2.8801603582       -1.3623782253       -1.0445759929
  S         1.2934099370        0.0604507324        0.5925104875
  F        -0.0675838981        0.5630800518       -0.5479846335
  F        -2.6537374260       -1.1419781986        0.8368815173
  F        -1.1477215238        1.1298072716        1.2789733094
  F         3.4832394456        0.9418019001       -0.2009808199
  F         2.5858523885        0.7600683112       -1.8721727419
  F         1.5786393342        1.7530153429       -0.5048255984
  O        -2.1902062089       -0.5048170790        1.3483221749
  O        -3.4944333574       -1.4012646194       -2.3721540130
  O         2.5161639990       -1.8166724536       -0.1909190379
  O         2.0637714933       -0.4854734050        2.1878136712
  N        -1.5861218408        0.7649626657        0.8683230446
  C        -1.8599919276       -0.1310762911        0.6300062111
  C         2.4718709703        0.9415774884       -0.7880385442
      15
 i =       17, E =        54.0457719993
  S        -2.8559739198       -1.3067042697       -0.9675853533
  S         1.3573117490       -0.0045455095        0.5164220208
  F         0.0406995475        0.4801695463       -0.4971668688
  F        -2.7257955658       -1.2679490176        0.7763832880
  F        -1.1209765374        1.3798072716        1.3012503117
  F         3.4205506736        0.8943297558       -0.1035304069
  F         2.5467852612        0.7536010400       -1.9209181519
  F         1.6731704694        1.8501234724       -0.4452911543
  O        -2.2823188372       -0.5443522365        1.2772453901
  O        -3.5104343625       -1.3209134994       -2.3897387400
  O         2.5834022404       -1.8329607121       -0.1743901430
  O         2.0514969749       -0.4680771835        2.0660081757
  N        -1.5796035600        0.6152798419        0.8584859470
  C        -1.8824223977       -0.0872431762        0.6919773330
  C         2.3947221768        0.9279355580       -0.7738017369
      15
 i =       18, E =      -226.2838472962
  S        -2.8741368685       -1.3277716153       -1.0548571068
  S         1.4030202873       -0.0410953201        0.4993792220
  F         0.0509255186        0.4646399113       -0.4937189688
  F        -2.6676691206       -1.3865002764        0.8190326440
  F        -1.0310305470        1.6298072716        1.3331470496
  F         3.4249170416        0.9093337920       -0.1286563796
  F         2.5515258002        0.7653568996       -1.9076246566
  F         1.6630456599        1.8485638479       -0.4553043964
  O        -2.4839643293       -0.5519088264        1.4209148170
  O        -3.5320619314       -1.3235627214       -2.4217933268
  O         2.6004535981       -1.8496979351       -0.1713174451
  O         2.0130960833       -0.4346575767        2.0479759946
  N        -1.5728966892        0.6476949721        0.9198572671
  C        -1.8552842945       -0.2010268581        0.5552408395
  C         2.4209727827        0.9193825558       -0.7469864680
      15
 i =       19, E =        24.1880559791
  S        -2.8345045018       -1.2268729847       -0.9427374621
  S         1.5409474328       -0.1457336024        0.4188497219
  F         0.0929571179        0.3918805328       -0.3385232695
  F        -2.8333562910       -1.4480149099        0.7174059173
  F        -1.0578412415        1.8016747080        1.2764248005
  F         3.3977910888        0.9549155675       -0.0330868851
  F         2.5080833365        0.8077616012       -1.9154941231
  F         1.8290352321        1.9703258619       -0.3649115473
  O        -2.3921688455       -0.7983058280        1.2002810742
  O        -3.4740069628       -1.2132364297       -2.4848758614
  O         2.7234436151       -1.9229131998       -0.0806765312
  O         1.7630960833       -0.3558208327        1.8570057914
  N        -1.5463167533        0.6115546128        1.0032963416
  C        -1.9359120707       -0.2218768653        0.5586317979
  C         2.3299145335        0.8613954360       -0.6631921852
      15
 i =       20, E =      -228.7081172772
  S        -2.8711560097       -1.2487612188       -1.0631407876
  S         1.6564183374       -0.1964568175        0.4723239691
  F         0.1229345911        0.3654491151       -0.3657155555
  F        -2.8431657571       -1.6452684412        0.7312979948
  F        -0.9836547938        2.0516747080        1.3192149741
  F         3.3980250168        0.9546462227       -0.0514022051
  F         2.5094969725        0.8078793256       -1.8942263085
  F         1.7992819291        1.9582037622       -0.3653815564
  O        -2.5505459816       -0.7893904199        1.4065574488
  O        -3.5026879435       -1.2187657595       -2.5360548755
  O         2.7480121822       -1.9518260556       -0.0784961517
  O         1.6768926723       -0.3045641509        1.7864341052
  N        -1.5513078239        0.6505629174        1.0799640024
  C        -1.8884873718       -0.2549121111        0.4222470344
  C         2.3908763663        0.8882422427       -0.6552341982
      15
 i =       21, E =        -6.3912108307
  S        -2.8448803934       -1.1475943511       -0.9381273648
  S         1.7707528539       -0.3172725138        0.3730981159
  F         0.2203555636        0.2800370733       -0.1795415761
  F        -3.0410850929       -1.6674278866        0.5952956587
  F        -0.9884845582        2.2567995152        1.2520703918
  F         3.3401979590        0.9948344959        0.0685595801
  F         2.4640708609        0.8575854756       -1.9150774068
  F         2.0144418405        2.1340681435       -0.2590023333
  O        -2.4778689744       -1.0393904199        1.1747952836
  O        -3.4519427471       -1.1097205476       -2.5956550951
  O         2.8888821176       -2.0109768344       -0.0140673559
  O         1.4800640971       -0.2782119671        1.6121518754
  N        -1.5487305101        0.5736284760        1.1407934033
  C        -1.9852356701       -0.2967186993        0.4760059582
  C         2.2693211293        0.8339989480       -0.5939669971
      15
 i =       22, E =      -227.9446566325
  S        -2.8913377951       -1.0495803580       -0.9229782016
  S         1.8170914026       -0.3207436203        0.3099872250
  F         0.1912922547        0.2393217497        0.0112723510
  F        -3.2060952416       -1.7478106590        0.5793025733
  F        -0.9849429976        2.4581236186        1.1490652599
  F         3.5033392142        1.1200836585        0.0665075832
  F         2.4753353603        0.9223601724       -1.8425805898
  F         2.0582040756        2.1507107502       -0.2428039529
  O        -2.3557195381       -1.2884109349        0.9247952836
  O        -3.5086476449       -1.0980658930       -2.6501360984
  O         2.9363428040       -2.0103401490        0.0370419703
  O         1.4246854475       -0.3483197188        1.5211200592
  N        -1.5905897698        0.5764737099        1.1994171704
  C        -2.0831255353       -0.3690941505        0.5206194686
  C         2.3263954546        0.8307402885       -0.4655992566
      15
 i =       23, E =         4.3881778336
  S        -2.9123767642       -0.9679411344       -0.8363464272
  S         1.8039648367       -0.3026334271        0.2005136959
  F         0.3436420171        0.1320110077        0.0163689207
  F        -3.3477815765       -1.6968594192        0.5261767030
  F        -1.0965630670        2.5878761473        1.0569565774
  F         3.7533392142        1.2587649638        0.0678757360
  F         2.5857668241        0.9206018569       -1.7365920603
  F         1.9320886599        2.0433044357       -0.1731981649
  O        -2.3833041026       -1.3695808146        0.8712477795
  O        -3.5409977398       -1.0739082974       -2.5789654944
  O         3.0027285115       -1.9965934610        0.0389261522
  O         1.3455499413       -0.4106411591        1.4389018833
  N        -1.6598525077        0.4770115444        1.1409743776
  C        -2.2105485403       -0.4686835344        0.5194299475
  C         2.4902424741        0.9315933400       -0.3711516256
      15
 i =       24, E =      -222.4289981669
  S        -2.9331195710       -0.8101843827       -0.6496895869
  S         1.8389425941       -0.2527513023        0.0468196834
  F         0.5381080366       -0.0735370031        0.0398895830
  F        -3.5892371206       -1.7503904025        0.3961434810
  F        -1.2507193884        2.8378761473        0.9826864441
  F         3.9833945255        1.3654244362        0.1395083812
  F         2.7646479905        0.8946393179       -1.6843126867
  F         1.8153168322        1.9388974839       -0.0073023875
  O        -2.4490484351       -1.5645867662        0.7231679046
  O        -3.5592009940       -0.9280733568       -2.5246104855
  O         3.0731312604       -1.9714502021        0.0591063124
  O         1.3664120687       -0.4438732917        1.2980410514
  N        -1.7418774079        0.2753521041        1.0900953509
  C        -2.4084381508       -0.5366987870        0.5639247427
  C         2.6492858745        1.0818994804       -0.3108040738
      15
 i =       25, E =        -0.4273675961
  S        -2.9154279228       -0.6720828694       -0.3996895869
  S         1.8612585917       -0.2235924674       -0.0724175762
  F         0.6866985118       -0.2212765843        0.0126141505
  F        -3.8008475233       -1.7907200242        0.2925430558
  F        -1.4379560055        3.0701471968        0.8109145934
  F         4.1679739282        1.4375962272        0.2159741815
  F         2.9346702392        0.9405118372       -1.6223785978
  F         1.7267926776        1.8299905822        0.1425189968
  O        -2.4696342654       -1.7802060529        0.6417925572
  O        -3.5112117327       -0.8271312998       -2.4175364043
  O         3.1206379221       -1.9375354707        0.0846399727
  O         1.3943828802       -0.4685083824        1.1833780763
  N        -1.8159330918        0.1358306883        1.0577145824
  C        -2.6097610129       -0.5911862628        0.4548822468
  C         2.7583573513        1.1585754269       -0.2403727087
      15
 i =       26, E =      -216.5607898354
  S        -3.0156128588       -0.5559923021       -0.2303026941
  S         1.9486847599       -0.1903492196       -0.2393895528
  F         0.8942874139       -0.3951704268        0.1546610001
  F        -4.0354379610       -1.7505743669        0.1822040386
  F        -1.6879560055        3.2627607753        0.7073585024
  F         4.3181793945        1.4401726971        0.3024098889
  F         3.1206514862        1.1391329022       -1.5621366701
  F         1.7526422398        1.8094440388        0.1726587268
  O        -2.4974333838       -1.9587398412        0.5787445065
  O        -3.5823574233       -0.7716648019       -2.3420942900
  O         3.3153918585       -1.8818259276        0.1075525407
  O         1.4636672998       -0.4802141752        0.9943555169
  N        -1.9531135032       -0.0585388321        1.1154432546
  C        -2.8530745905       -0.7693686893        0.4219002112
  C         2.8980812528        1.2207114086       -0.2243279503
      15
 i =       27, E =        -3.6359135685
  S        -3.1298759383       -0.4413603139       -0.1884902450
  S         2.0020567994       -0.1366412726       -0.3450971568
  F         1.1442874139       -0.6082716604        0.2040022162
  F        -4.1787459127       -1.7404171861        0.2176264524
  F        -1.8506270518        3.4074774711        0.6477602368
  F         4.3688284287        1.3142081277        0.4022563925
  F         3.2837214206        1.2894722614       -1.5143045239
  F         1.7444966095        1.8143981216        0.2058976300
  O        -2.4988680693       -1.9715963755        0.5306624246
  O        -3.7271161410       -0.7056575526       -2.3384837942
  O         3.4868638179       -1.7981605463        0.1247033432
  O         1.5670386772       -0.4806366317        0.8781386318
  N        -2.0667895825       -0.2833920546        1.0966050059
  C        -3.0099952032       -0.8988051119        0.4510031095
  C         2.9499751158        1.2993873400       -0.2306538491
      15
 i =       28, E =      -223.2250599255
  S        -3.1246026245       -0.1942764647       -0.0936864292
  S         2.0602677291       -0.2151665482       -0.4300080671
  F         0.9202455863       -0.7126847039        0.2037506759
  F        -4.2396433249       -1.7207386002        0.1894113512
  F        -1.8564087515        3.4045794822        0.6289821919
  F         4.3556923044        1.3332005136        0.3921843139
  F         3.2720341767        1.2938048230       -1.5234876348
  F         1.7580755346        1.8463113543        0.2031271416
  O        -2.3702234546       -2.2215963755        0.4815236285
  O        -3.7427047687       -0.6858639160       -2.3859438594
  O         3.5327566723       -1.8231702974        0.1322402130
  O         1.7059738759       -0.2985144039        0.9978349462
  N        -1.9069788414       -0.2264333603        1.2853626169
  C        -3.2524265177       -0.9993099918        0.3009793675
  C         2.9732508801        1.2800486652       -0.2408104384
