40
 i =        1, E =     -1722.9611276963
  H         0.5465566361        2.3275073859       14.8517965210
  H         1.9469747168        3.3317518294       15.2808676512
  C         1.6227322390        2.4152746318       14.7693210031
  H         0.3057247340        3.3427736842       12.4812563918
  H         2.1567970127        1.6184984893       15.2959998354
  C         1.2792473664        2.9050429907       12.2767458203
  N         1.9466067153        2.2673755567       13.3201622303
  O         4.1124863256        2.2440991022       15.7159471252
  N         3.4813902239        4.2843988422       14.2351001502
  C         1.9898175700        2.7161867162       11.1288688840
  S         4.5605391157        3.1633621999       14.6809798174
  C         3.1456241299        1.8681000000       12.8384686098
  H         4.0117449871        1.5705247760       13.4227993749
  H         1.9258691008        3.2465117444       10.1476647871
  N         3.2859571357        2.3410538971       11.5535511612
  O         5.4200675252        2.6145553300       13.6392137624
  H         5.7982133793        3.8826244711       12.3941841075
  C         4.4423186672        2.1140127220       10.6210942567
  H         3.9242841425        1.9080167004        9.6632799800
  H         4.8663306619        1.1345539221       10.8907262568
  C         6.4427181599        3.4231319061       11.6636414440
  C         5.5265154107        3.1944958752       10.4375815830
  H         6.6776308492        2.4685006670       12.1348503707
  H         6.1816250774        2.8141592058        9.6417957251
  F         5.1724799435        4.8377024996       16.5364315711
  C         5.8296203100        4.2630098725       15.4965788559
  F         6.8260923467        3.4302964438       15.9148557010
  F         6.2994300607        5.1960323497       14.6301453542
  C         2.8343054743        6.7397703990       13.8610171463
  F         3.9024549976        7.0443934663       14.6334301198
  F         2.6314767401        7.6524546276       12.8612745185
  F         1.7029281092        6.5145442259       14.5853802019
  H         8.1551828575        4.4755229497       12.5621084516
  H         7.3946426757        5.3333317511       11.1839544192
  C         7.6962129897        4.3510570102       11.5614596529
  O         2.0498731701        4.9867249890       12.2498490493
  S         3.3227899047        5.2247485193       12.9365460643
  O         4.5108210835        5.4227030664       12.1070839078
  H         8.4009473414        3.8177114354       10.9148374192
  H         5.0728117630        4.1395799124       10.1403865060
