
                                 *****************
                                 * O   R   C   A *
                                 *****************

                                            #,                                       
                                            ###                                      
                                            ####                                     
                                            #####                                    
                                            ######                                   
                                           ########,                                 
                                     ,,################,,,,,                         
                               ,,#################################,,                 
                          ,,##########################################,,             
                       ,#########################################, ''#####,          
                    ,#############################################,,   '####,        
                  ,##################################################,,,,####,       
                ,###########''''           ''''###############################       
              ,#####''   ,,,,##########,,,,          '''####'''          '####       
            ,##' ,,,,###########################,,,                        '##       
           ' ,,###''''                  '''############,,,                           
         ,,##''                                '''############,,,,        ,,,,,,###''
      ,#''                                            '''#######################'''  
     '                                                          ''''####''''         
             ,#######,   #######,   ,#######,      ##                                
            ,#'     '#,  ##    ##  ,#'     '#,    #''#        ,####,   ,####,        
            ##       ##  ##   ,#'  ##            #'  '#       #'       #'  '#        
            ##       ##  #######   ##           ,######,      #####,   #    #        
            '#,     ,#'  ##    ##  '#,     ,#' ,#      #,     #,   #   #,  ,#        
             '#######'   ##     ##  '#######'  #'      '#     '####' # '####'        



                #########################################################
                #                        -***-                          #
                #          Department of theory and spectroscopy        #
                #                                                       #
                #                      Frank Neese                      #
                #                                                       #
                #     Directorship, Architecture, Infrastructure        #
                #                    SHARK, DRIVERS                     #
                #        Core code/Algorithms in most modules           #
                #                                                       #
                #        Max Planck Institute fuer Kohlenforschung      #
                #                Kaiser Wilhelm Platz 1                 #
                #                 D-45470 Muelheim/Ruhr                 #
                #                      Germany                          #
                #                                                       #
                #                  All rights reserved                  #
                #                        -***-                          #
                #########################################################


                         Program Version 6.0.1  -  RELEASE   -


 With contributions from (in alphabetic order):
[Max-Planck-Institut fuer Kohlenforschung]                               
  Daniel Aravena         : Magnetic Suceptibility                        
  Michael Atanasov       : Ab Initio Ligand Field Theory (pilot matlab implementation)
  Alexander A. Auer      : GIAO ZORA, VPT2 properties, NMR spectrum      
  Ute Becker             : All parallelization in ORCA, NUMFREQ, NUMCALC 
  Giovanni Bistoni       : ED, misc. LED, open-shell LED, HFLD           
  Martin Brehm           : Molecular dynamics                            
  Dmytro Bykov           : pre 5.0 version of the SCF Hessian            
  Marcos Casanova-Páez   : Triplet and SCS-CIS(D). UHF-(DLPNO)-IP/EA/STEOM-CCSD. UHF-CVS-IP/STEOM-CCSD   
  Vijay G. Chilkuri      : MRCI spin determinant printing, contributions to CSF-ICE 
  Pauline Colinet        : FMM embedding                                 
  Dipayan Datta          : RHF DLPNO-CCSD density                        
  Achintya Kumar Dutta   : EOM-CC, STEOM-CC                              
  Nicolas Foglia         : Exact transition moments, OPA infrastructure, MCD improvements    
  Dmitry Ganyushin       : Spin-Orbit,Spin-Spin,Magnetic field MRCI      
  Miquel Garcia-Rates    : C-PCM and meta-GGA Hessian, CCSD/C-PCM, Gaussian charge scheme 
  Tiago L. C. Gouveia    : GS-ROHF, GS-ROCIS                             
  Yang Guo               : DLPNO-NEVPT2, F12-NEVPT2, CIM, IAO-localization        
  Andreas Hansen         : Spin unrestricted coupled pair/coupled cluster methods 
  Ingolf Harden          : AUTO-CI MPn and infrastructure                
  Benjamin Helmich-Paris : MC-RPA, TRAH-(SCF,CASSCF), AVAS, COSX integrals, SCF dyn. polar. 
  Lee Huntington         : MR-EOM, pCC                                   
  Robert Izsak           : Overlap fitted RIJCOSX, COSX-SCS-MP3, EOM     
  Riya Kayal             : Wick's Theorem for AUTO-CI, AUTO-CI UHF-CCSDT 
  Emily Kempfer          : AUTO-CI, RHF CISDT and CCSDT                  
  Christian Kollmar      : KDIIS, OOCD, Brueckner-CCSD(T), CCSD density, CASPT2, CASPT2-K, improved NEVPT2 
  Axel Koslowski         : Symmetry handling                             
  Simone Kossmann        : meta-GGA functionals, TD-DFT gradient, OOMP2, (MP2 Hessian; deprecated post 5.0) 
  Lucas Lang             : DCDCAS                                        
  Marvin Lechner         : AUTO-CI (C++ implementation), FIC-MRCC        
  Spencer Leger          : CASSCF response                               
  Dagmar Lenk            : GEPOL surface, SMD, ORCA-2-JSON               
  Dimitrios Liakos       : Extrapolation schemes; Compound Job, initial MDCI parallelization 
  Dimitrios Manganas     : Further ROCIS development; embedding schemes. LFT, Crystal Embedding 
  Dimitrios Pantazis     : SARC Basis sets                               
  Anastasios Papadopoulos: AUTO-CI, single reference methods and gradients 
  Taras Petrenko         : pre 6.0 DFT Hessian and TD-DFT gradient, (ASA, deprecated), ECA, 1-Electron XAS/XES, NRVS 
  Peter Pinski           : DLPNO-MP2, DLPNO-MP2 Gradient                 
  Christoph Reimann      : Effective Core Potentials                     
  Marius Retegan         : Local ZFS, SOC                                
  Christoph Riplinger    : Optimizer, TS searches, QM/MM, DLPNO-CCSD(T), (RO)-DLPNO pert. Triples 
  Michael Roemelt        : Original ROCIS implementation                 
  Masaaki Saitow         : Open-shell DLPNO-CCSD energy and density      
  Barbara Sandhoefer     : DKH picture change effects                    
  Kantharuban Sivalingam : CASSCF convergence/infrastructure, NEVPT2 and variants, FIC-MRCI 
  Bernardo de Souza      : ESD, SOC TD-DFT                               
  Georgi L. Stoychev     : AutoAux, RI-MP2 NMR, DLPNO-MP2 response, X2C  
  Van Anh Tran           : RI-MP2 g-tensors                              
  Willem Van den Heuvel  : Paramagnetic NMR                              
  Zikuan Wang            : NOTCH, Electric field optimization            
  Frank Wennmohs         : Technical directorship and infrastructure     
  Hang Xu                : AUTO-CI-Response properties                   
                                                                         
[FACCTs GmbH]                                                            
  Markus Bursch, Miquel Garcia-Rates, Christoph Riplinger, Bernardo de Souza, Georgi L. Stoychev 
                                                                 
  APM, Basis sets (HGBS, AHGBS, def-TZVP (Ac-Lr), def2-XVPD (La-Lu)), CI-OPT, improved COSX, DLPNO-Multilevel,           
  DOCKER, DRACO, updates on ESD, GOAT, IRC, LR-CPCM, MBIS, meta-GGA TD-DFT gradient, ML-optimized integration grids, 
  MM, NACMEs, nearIR, NEB, NEB-TS, NL-DFT gradient (VV10), 2- and 3-layer-ONIOM, interface openCOSMO-RS, QMMM,   
  Crystal-QMMM, SF, symmetry and pop. for TD-DFT, r2SCAN hybrids, SOLVATOR                                   
                                                                         
[Other institutions]                                                     
  V. Asgeirsson          : NEB                                           
  Christoph Bannwarth    : sTDA-DFT, sTD-DFT, PBEh-3c, B97-3c, D3        
  Sebastian Ehlert       : rSCAN, r2SCAN, r2SCAN-3c, D4, dhf basis sets  
  Marvin Friede          : D4 for Fr, Ra, Ac-Lr                          
  Lars Goerigk           : TD-DFT with DH, B97 family of functionals     
  Stefan Grimme          : VdW corrections, initial TS optimization, DFT functionals, gCP, sTDA/sTD-DF 
  Waldemar Hujo          : DFT-NL                                        
  H. Jonsson             : NEB                                           
  Holger Kruse           : gCP                                           
  Marcel Mueller         : wB97X-3c, vDZP basis set                      
  Hagen Neugebauer       : wr2SCAN                                       
  Tobias Risthaus        : range-separated hybrid DFT                    
  Lukas Wittmann         : regularized MP2, r2SCAN double-hybrids, wr2SCAN        
                                                                         
We gratefully acknowledge several colleagues who have allowed us to      
interface, adapt or use parts of their codes:                            
  Ed Valeev, F. Pavosevic, A. Kumar             : LibInt (2-el integral package), F12 methods 
  Garnet Chan, S. Sharma, J. Yang, R. Olivares  : DMRG                   
  Ulf Ekstrom                                   : XCFun DFT Library      
  Mihaly Kallay                                 : mrcc  (arbitrary order and MRCC methods)
  Frank Weinhold                                : gennbo (NPA and NBO analysis)           
  Simon Mueller                                 : openCOSMO-RS                            
  Christopher J. Cramer and Donald G. Truhlar   : smd solvation model                     
  S Lehtola, MJT Oliveira, MAL Marques          : LibXC Library                           
  Liviu Ungur et al                             : ANISO software                          


 Your calculation uses the libint2 library for the computation of 2-el integrals
 For citations please refer to: http://libint.valeyev.net

 Your ORCA version has been built with support for libXC version: 6.2.2
 For citations please refer to: https://libxc.gitlab.io

 This ORCA versions uses:
   CBLAS   interface :  Fast vector & matrix operations
   LAPACKE interface :  Fast linear algebra routines
   SCALAPACK package :  Parallel linear algebra routines
   Shared memory     :  Shared parallel matrices
   BLAS/LAPACK       :  OpenBLAS 0.3.27  USE64BITINT DYNAMIC_ARCH NO_AFFINITY SkylakeX SINGLE_THREADED
        Core in use  :  SkylakeX
   Copyright (c) 2011-2014, The OpenBLAS Project


NOTE: MaxCore=5000 MB was set to SCF,MP2,MDCI,CIPSI,MRCI and CIS
      => If you want to overwrite this, your respective input block should be placed after the MaxCore statement
Your calculation utilizes the atom-pairwise dispersion correction
based on EEQ partial charges (D4)


Warning: RI is on but no J-basis has been assigned. Assigning Def2/J (nothing to worry about!)
================================================================================

----- Orbital basis set information -----
Your calculation utilizes the basis: def2-TZVP
   F. Weigend and R. Ahlrichs, Phys. Chem. Chem. Phys. 7, 3297 (2005).

----- AuxJ basis set information -----
Your calculation utilizes the auxiliary basis: def2/J
   F. Weigend, Phys. Chem. Chem. Phys. 8, 1057 (2006).

================================================================================
                                        WARNINGS
                       Please study these warnings very carefully!
================================================================================


WARNING: Geometry Optimization
  ===> : Switching off AutoStart
         For restart on a previous wavefunction, please use MOREAD

================================================================================
                                       INPUT FILE
================================================================================
NAME = complex.inp
|  1> ! Opt B3LYP D4 def2-TZVP TightSCF TightOpt
|  2> 
|  3> %maxcore 5000
|  4> 
|  5> %pal
|  6> nprocs 30
|  7> end
|  8> 
|  9> * xyz 0 1
| 10> N      -33.9633331618    -22.3791470276     -8.0571204387                 
| 11> N      -35.7387296215    -23.5929693898     -7.7758330373                 
| 12> C      -32.6880600983    -21.8728464042     -8.6006773309                 
| 13> C      -31.4887080830    -22.3157124854     -7.7687509313                 
| 14> C      -31.2935954340    -23.8294516916     -7.7072244147                 
| 15> C      -34.6861953569    -23.3747146005     -8.5653256537                 
| 16> C      -34.5701662879    -21.9483240069     -6.8986110527                 
| 17> C      -35.6834202109    -22.7057777325     -6.7228740641                 
| 18> C      -30.0423178666    -24.2240563178     -6.9259776637                 
| 19> C      -36.7824113154    -24.5968948391     -7.9938400456                 
| 20> H      -32.6154438582    -22.2424723947     -9.6234619319                 
| 21> H      -32.7673327849    -20.7868229187     -8.6426571692                 
| 22> H      -31.5712588098    -21.9038180679     -6.7582345126                 
| 23> H      -30.6087503667    -21.8449550023     -8.2155338862                 
| 24> H      -32.1682443264    -24.2984453059     -7.2434093023                 
| 25> H      -31.2302398475    -24.2266544470     -8.7264265204                 
| 26> H      -34.4579366403    -23.9154087800     -9.4672153592                 
| 27> H      -34.1685615875    -21.1459278500     -6.3061783182                 
| 28> H      -36.4334683265    -22.6849068301     -5.9523069656                 
| 29> H      -30.0906523066    -23.8648592782     -5.8957266062                 
| 30> H      -29.1442832003    -23.8047853066     -7.3838092360                 
| 31> H      -29.9253030260    -25.3075687043     -6.8954986772                 
| 32> H      -36.5508809096    -25.1577229955     -8.8954344671                 
| 33> H      -36.8159998807    -25.2755905965     -7.1437688616                 
| 34> H      -37.7446430258    -24.1020704374     -8.1116493000                 
| 35> O       12.6896538777      5.4142140992      2.1246974605                 
| 36> F       10.2265538777      7.2392140992      1.9184974605                 
| 37> O        9.9019538777      4.3095140992      1.3715974605                 
| 38> F       14.8095538777      7.1260140992      0.8842974605                 
| 39> F        8.2471538777      6.8221140992      1.1360974605                 
| 40> S       12.8927538777      5.3205140992      0.7025974605                 
| 41> C        9.5574538777      6.8510140992      0.8283974605                 
| 42> F       12.8433538777      7.9871140992      0.5692974605                 
| 43> C       13.6423538777      6.9647140992      0.2339974605                 
| 44> O       13.8463538777      4.3667140992      0.1987974605                 
| 45> S       10.1040538777      5.1650140992      0.2324974605                 
| 46> N       11.6019538777      5.3708140992     -0.2101025395                 
| 47> F        9.7324538777      7.7832140992     -0.1216025395                 
| 48> F       13.8926538777      7.0467140992     -1.0797025395                 
| 49> O        9.3002538777      4.9677140992     -0.9444025395
| 50> *
| 51> 
| 52>                          ****END OF INPUT****
================================================================================

                       *****************************
                       * Geometry Optimization Run *
                       *****************************

Geometry optimization settings:
Update method            Update   .... BFGS
Choice of coordinates    CoordSys .... (2022) Redundant Internals
Initial Hessian          InHess   .... Almloef's Model
Max. no of cycles        MaxIter  .... 120

Convergence Tolerances:
Energy Change            TolE     ....  1.0000e-06 Eh
Max. Gradient            TolMAXG  ....  1.0000e-04 Eh/bohr
RMS Gradient             TolRMSG  ....  3.0000e-05 Eh/bohr
Max. Displacement        TolMAXD  ....  1.0000e-03 bohr
RMS Displacement         TolRMSD  ....  6.0000e-04 bohr
Strict Convergence                .... False

------------------------------------------------------------------------------
                        ORCA OPTIMIZATION COORDINATE SETUP
------------------------------------------------------------------------------

The optimization will be done in redundant internal coordinates (2022)
Making redundant internal coordinates   ...  (2022 redundants) done
Evaluating the initial hessian          ...  (Almloef) done
Evaluating the coordinates              ...  done
Calculating the B-matrix                .... done
Calculating the G-matrix                .... done
Diagonalizing the G-matrix              .... done
The first mode is                       .... 1636
The number of degrees of freedom        ....  114

    -----------------------------------------------------------------
                    Redundant Internal Coordinates


    -----------------------------------------------------------------
         Definition                    Initial Value    Approx d2E/dq
    -----------------------------------------------------------------
      1. B(C   2,N   0)                  1.4758         0.408241   
      2. B(C   3,C   2)                  1.5253         0.380018   
      3. B(C   4,C   3)                  1.5275         0.377019   
      4. B(C   5,N   0)                  1.3311         0.694654   
      5. B(C   5,N   1)                  1.3337         0.688168   
      6. B(C   6,N   0)                  1.3770         0.587072   
      7. B(C   7,N   1)                  1.3780         0.584813   
      8. B(C   7,C   6)                  1.3579         0.702936   
      9. B(C   8,C   4)                  1.5270         0.377703   
     10. B(C   9,N   1)                  1.4645         0.425665   
     11. B(H  10,C   2)                  1.0899         0.360170   
     12. B(H  10,N   0)                  2.0710         0.008780   
     13. B(H  11,C   2)                  1.0897         0.360468   
     14. B(H  11,N   0)                  2.0758         0.008627   
     15. B(H  12,C   3)                  1.0944         0.354383   
     16. B(H  13,C   3)                  1.0934         0.355612   
     17. B(H  14,C   4)                  1.0955         0.352915   
     18. B(H  15,C   4)                  1.0957         0.352639   
     19. B(H  16,C   5)                  1.0760         0.379052   
     20. B(H  16,N   1)                  2.1460         0.006666   
     21. B(H  17,C   6)                  1.0752         0.380190   
     22. B(H  17,N   0)                  2.1515         0.006533   
     23. B(H  18,N   1)                  2.1523         0.006512   
     24. B(H  18,C   7)                  1.0755         0.379749   
     25. B(H  19,C   8)                  1.0921         0.357276   
     26. B(H  20,C   8)                  1.0917         0.357825   
     27. B(H  21,C   8)                  1.0902         0.359784   
     28. B(H  22,C   9)                  1.0867         0.364437   
     29. B(H  23,C   9)                  1.0883         0.362368   
     30. B(H  24,C   9)                  1.0884         0.362219   
     31. B(O  25,N   1)                 57.3127         0.000000   
     32. B(O  25,C   5)                 56.4584         0.000000   
     33. B(O  25,C   7)                 56.6478         0.000000   
     34. B(O  25,H  13)                 52.1990         0.000000   
     35. B(O  25,H  10)                 54.3642         0.000000   
     36. B(O  25,C   9)                 58.7413         0.000000   
     37. B(O  25,C   3)                 53.0901         0.000000   
     38. B(O  25,H  11)                 53.5609         0.000000   
     39. B(O  25,H  23)                 58.9795         0.000000   
     40. B(O  25,N   0)                 55.2507         0.000000   
     41. B(O  25,H  22)                 58.9976         0.000000   
     42. B(O  25,H  20)                 51.9061         0.000000   
     43. B(O  25,H  15)                 54.0859         0.000000   
     44. B(O  25,C   2)                 54.0255         0.000000   
     45. B(O  25,C   6)                 55.3500         0.000000   
     46. B(O  25,H  24)                 59.3263         0.000000   
     47. B(O  25,H  18)                 57.1654         0.000000   
     48. B(O  25,H  20)                 51.9061         0.000000   
     49. B(O  25,H  12)                 52.7656         0.000000   
     50. B(O  25,C   4)                 53.7251         0.000000   
     51. B(O  25,H  16)                 56.7230         0.000000   
     52. B(O  25,H  19)                 52.4571         0.000000   
     53. B(O  25,H  17)                 54.5180         0.000000   
     54. B(O  25,H  14)                 54.6153         0.000000   
     55. B(O  25,H  21)                 53.3032         0.000000   
     56. B(O  25,C   8)                 52.7860         0.000000   
     57. B(F  26,H  13)                 51.1479         0.000000   
     58. B(F  26,H  19)                 51.5170         0.000000   
     59. B(F  26,C   2)                 52.9134         0.000000   
     60. B(F  26,C   6)                 54.1886         0.000000   
     61. B(F  26,N   0)                 54.1249         0.000000   
     62. B(F  26,H  24)                 58.1732         0.000000   
     63. B(F  26,C   8)                 51.8627         0.000000   
     64. B(F  26,N   1)                 56.1908         0.000000   
     65. B(F  26,H  15)                 53.1233         0.000000   
     66. B(F  26,H  12)                 51.6881         0.000000   
     67. B(F  26,H  21)                 52.4323         0.000000   
     68. B(F  26,H  14)                 53.6273         0.000000   
     69. B(F  26,H  10)                 53.2712         0.000000   
     70. B(F  26,C   9)                 57.6336         0.000000   
     71. B(F  26,H  16)                 55.6502         0.000000   
     72. B(F  26,H  22)                 57.9192         0.000000   
     73. B(F  26,C   7)                 55.4897         0.000000   
     74. B(F  26,H  18)                 55.9871         0.000000   
     75. B(F  26,H  11)                 52.3972         0.000000   
     76. B(F  26,H  20)                 50.9934         0.000000   
     77. B(F  26,C   5)                 55.3559         0.000000   
     78. B(F  26,H  23)                 57.8994         0.000000   
     79. B(F  26,C   4)                 52.7431         0.000000   
     80. B(F  26,C   3)                 52.0336         0.000000   
     81. B(F  26,H  17)                 53.3319         0.000000   
     82. B(O  27,C   8)                 49.7851         0.000000   
     83. B(O  27,C   3)                 50.0563         0.000000   
     84. B(O  27,H  14)                 51.5998         0.000000   
     85. B(O  27,H  12)                 49.7319         0.000000   
     86. B(O  27,C   9)                 55.7021         0.000000   
     87. B(O  27,H  17)                 51.4698         0.000000   
     88. B(O  27,H  24)                 56.2792         0.000000   
     89. B(O  27,H  19)                 49.4572         0.000000   
     90. B(O  27,N   0)                 52.2049         0.000000   
     91. B(O  27,C   4)                 50.7080         0.000000   
     92. B(O  27,H  10)                 51.3189         0.000000   
     93. B(O  27,C   5)                 53.4159         0.000000   
     94. B(O  27,H  18)                 54.1231         0.000000   
     95. B(O  27,C   2)                 50.9791         0.000000   
     96. B(O  27,C   7)                 53.6039         0.000000   
     97. B(O  27,C   6)                 52.3033         0.000000   
     98. B(O  27,H  22)                 55.9607         0.000000   
     99. B(O  27,H  16)                 53.6836         0.000000   
    100. B(O  27,H  23)                 55.9496         0.000000   
    101. B(O  27,H  15)                 51.0700         0.000000   
    102. B(O  27,N   1)                 54.2706         0.000000   
    103. B(O  27,H  20)                 48.9048         0.000000   
    104. B(O  27,H  21)                 50.3163         0.000000   
    105. B(O  27,H  11)                 50.5052         0.000000   
    106. B(O  27,H  13)                 49.1639         0.000000   
    107. B(F  28,H  18)                 59.6764         0.000000   
    108. B(F  28,N   1)                 59.7811         0.000000   
    109. B(F  28,H  22)                 61.4474         0.000000   
    110. B(F  28,H  20)                 54.3784         0.000000   
    111. B(F  28,H  14)                 57.1005         0.000000   
    112. B(F  28,H  12)                 55.2478         0.000000   
    113. B(F  28,C   9)                 61.2119         0.000000   
    114. B(F  28,C   7)                 59.1384         0.000000   
    115. B(F  28,H  15)                 56.5245         0.000000   
    116. B(F  28,C   6)                 57.8295         0.000000   
    117. B(F  28,H  17)                 57.0076         0.000000   
    118. B(F  28,H  16)                 59.1440         0.000000   
    119. B(F  28,H  10)                 56.7631         0.000000   
    120. B(F  28,C   3)                 55.5448         0.000000   
    121. B(F  28,C   5)                 58.9018         0.000000   
    122. B(F  28,C   2)                 56.4528         0.000000   
    123. B(F  28,H  13)                 54.6347         0.000000   
    124. B(F  28,C   4)                 56.1921         0.000000   
    125. B(F  28,H  24)                 61.7905         0.000000   
    126. B(F  28,H  11)                 55.9772         0.000000   
    127. B(F  28,H  21)                 55.8003         0.000000   
    128. B(F  28,N   0)                 57.7001         0.000000   
    129. B(F  28,C   8)                 55.2767         0.000000   
    130. B(F  28,H  23)                 61.4777         0.000000   
    131. B(F  28,H  19)                 54.9766         0.000000   
    132. B(F  29,C   3)                 50.0724         0.000000   
    133. B(F  29,H  13)                 49.1837         0.000000   
    134. B(F  29,H  19)                 49.6077         0.000000   
    135. B(F  29,N   0)                 52.1436         0.000000   
    136. B(F  29,C   8)                 49.9494         0.000000   
    137. B(F  29,H  14)                 51.6925         0.000000   
    138. B(F  29,N   1)                 54.2149         0.000000   
    139. B(F  29,H  18)                 54.0117         0.000000   
    140. B(F  29,H  16)                 53.6745         0.000000   
    141. B(F  29,C   7)                 53.5122         0.000000   
    142. B(F  29,H  17)                 51.3487         0.000000   
    143. B(F  29,C   5)                 53.3783         0.000000   
    144. B(F  29,H  10)                 51.2862         0.000000   
    145. B(F  29,H  12)                 49.7293         0.000000   
    146. B(F  29,H  15)                 51.1836         0.000000   
    147. B(F  29,H  20)                 49.0787         0.000000   
    148. B(F  29,C   4)                 50.8054         0.000000   
    149. B(F  29,C   2)                 50.9303         0.000000   
    150. B(F  29,H  24)                 56.1878         0.000000   
    151. B(F  29,H  22)                 55.9482         0.000000   
    152. B(F  29,H  23)                 55.9420         0.000000   
    153. B(F  29,C   9)                 55.6612         0.000000   
    154. B(F  29,H  21)                 50.5367         0.000000   
    155. B(F  29,C   6)                 52.2074         0.000000   
    156. B(F  29,H  11)                 50.3991         0.000000   
    157. B(S  30,H  14)                 54.5061         0.000000   
    158. B(S  30,H  17)                 54.4460         0.000000   
    159. B(S  30,H  20)                 51.7763         0.000000   
    160. B(S  30,H  10)                 54.1972         0.000000   
    161. B(S  30,N   1)                 57.2092         0.000000   
    162. B(S  30,H  15)                 53.9331         0.000000   
    163. B(S  30,O  25)                  1.4396         1.257586   
    164. B(S  30,C   2)                 53.8854         0.000000   
    165. B(S  30,H  21)                 53.1902         0.000000   
    166. B(S  30,H  24)                 59.2244         0.000000   
    167. B(S  30,H  22)                 58.8704         0.000000   
    168. B(S  30,C   9)                 58.6370         0.000000   
    169. B(S  30,H  23)                 58.8952         0.000000   
    170. B(S  30,H  16)                 56.5708         0.000000   
    171. B(S  30,H  18)                 57.1110         0.000000   
    172. B(S  30,C   3)                 52.9645         0.000000   
    173. B(S  30,C   7)                 56.5708         0.000000   
    174. B(S  30,C   5)                 56.3300         0.000000   
    175. B(S  30,C   8)                 52.6735         0.000000   
    176. B(S  30,H  12)                 52.6676         0.000000   
    177. B(S  30,H  19)                 52.3727         0.000000   
    178. B(S  30,C   6)                 55.2639         0.000000   
    179. B(S  30,N   0)                 55.1316         0.000000   
    180. B(S  30,C   4)                 53.5992         0.000000   
    181. B(S  30,H  11)                 53.4207         0.000000   
    182. B(S  30,H  13)                 52.0565         0.000000   
    183. B(C  31,H  16)                 54.6802         0.000000   
    184. B(C  31,H  20)                 50.0504         0.000000   
    185. B(C  31,C   7)                 54.5652         0.000000   
    186. B(C  31,C   4)                 51.7973         0.000000   
    187. B(C  31,C   5)                 54.3998         0.000000   
    188. B(C  31,F  29)                  1.3463         0.610605   
    189. B(C  31,F  26)                  1.3367         0.632465   
    190. B(C  31,H  21)                 51.5046         0.000000   
    191. B(C  31,H  11)                 51.4290         0.000000   
    192. B(C  31,C   2)                 51.9485         0.000000   
    193. B(C  31,C   6)                 53.2574         0.000000   
    194. B(C  31,H  24)                 57.2320         0.000000   
    195. B(C  31,N   0)                 53.1734         0.000000   
    196. B(C  31,C   8)                 50.9307         0.000000   
    197. B(C  31,H  22)                 56.9657         0.000000   
    198. B(C  31,H  12)                 50.7540         0.000000   
    199. B(C  31,C   9)                 56.6938         0.000000   
    200. B(C  31,H  14)                 52.6923         0.000000   
    201. B(C  31,H  19)                 50.6029         0.000000   
    202. B(C  31,H  17)                 52.4089         0.000000   
    203. B(C  31,H  23)                 56.9752         0.000000   
    204. B(C  31,H  10)                 52.2898         0.000000   
    205. B(C  31,N   1)                 55.2505         0.000000   
    206. B(C  31,H  15)                 52.1608         0.000000   
    207. B(C  31,H  18)                 55.0773         0.000000   
    208. B(C  31,H  13)                 50.1854         0.000000   
    209. B(C  31,C   3)                 51.0823         0.000000   
    210. B(F  32,H  21)                 54.7121         0.000000   
    211. B(F  32,H  11)                 54.7095         0.000000   
    212. B(F  32,C   3)                 54.3426         0.000000   
    213. B(F  32,C   8)                 54.1564         0.000000   
    214. B(F  32,H  12)                 54.0353         0.000000   
    215. B(F  32,H  19)                 53.8486         0.000000   
    216. B(F  32,N   1)                 58.5420         0.000000   
    217. B(F  32,H  24)                 60.5328         0.000000   
    218. B(F  32,H  23)                 60.2657         0.000000   
    219. B(F  32,H  22)                 60.2325         0.000000   
    220. B(F  32,C   9)                 59.9813         0.000000   
    221. B(F  32,H  13)                 53.4342         0.000000   
    222. B(F  32,H  18)                 58.4081         0.000000   
    223. B(F  32,H  16)                 57.9303         0.000000   
    224. B(F  32,C   7)                 57.8799         0.000000   
    225. B(F  32,C   5)                 57.6720         0.000000   
    226. B(F  32,C   6)                 56.5680         0.000000   
    227. B(F  32,N   0)                 56.4570         0.000000   
    228. B(F  32,H  20)                 53.2629         0.000000   
    229. B(F  32,H  14)                 55.9414         0.000000   
    230. B(F  32,H  17)                 55.7326         0.000000   
    231. B(F  32,H  10)                 55.5358         0.000000   
    232. B(F  32,H  15)                 55.3771         0.000000   
    233. B(F  32,C   2)                 55.2161         0.000000   
    234. B(F  32,C   4)                 55.0351         0.000000   
    235. B(C  33,H  21)                 54.6852         0.000000   
    236. B(C  33,F  32)                  1.3402         0.624344   
    237. B(C  33,S  30)                  1.8668         0.292300   
    238. B(C  33,C   3)                 54.3893         0.000000   
    239. B(C  33,F  28)                  1.3458         0.611553   
    240. B(C  33,C   8)                 54.1512         0.000000   
    241. B(C  33,H  12)                 54.0976         0.000000   
    242. B(C  33,H  19)                 53.8573         0.000000   
    243. B(C  33,H  24)                 60.6252         0.000000   
    244. B(C  33,C   9)                 60.0541         0.000000   
    245. B(C  33,H  13)                 53.4748         0.000000   
    246. B(C  33,N   1)                 58.6210         0.000000   
    247. B(C  33,H  18)                 58.5231         0.000000   
    248. B(C  33,C   7)                 57.9808         0.000000   
    249. B(C  33,H  16)                 57.9770         0.000000   
    250. B(C  33,C   5)                 57.7370         0.000000   
    251. B(C  33,H  20)                 53.2493         0.000000   
    252. B(C  33,H  23)                 60.3317         0.000000   
    253. B(C  33,C   6)                 56.6682         0.000000   
    254. B(C  33,N   0)                 56.5341         0.000000   
    255. B(C  33,H  14)                 55.9634         0.000000   
    256. B(C  33,H  17)                 55.8468         0.000000   
    257. B(C  33,H  10)                 55.5879         0.000000   
    258. B(C  33,H  15)                 55.3782         0.000000   
    259. B(C  33,C   2)                 55.2826         0.000000   
    260. B(C  33,C   4)                 55.0507         0.000000   
    261. B(C  33,H  22)                 60.2873         0.000000   
    262. B(C  33,H  11)                 54.7978         0.000000   
    263. B(O  34,H  17)                 54.7599         0.000000   
    264. B(O  34,H  14)                 54.7213         0.000000   
    265. B(O  34,H  20)                 51.9550         0.000000   
    266. B(O  34,H  10)                 54.4355         0.000000   
    267. B(O  34,C   2)                 54.1424         0.000000   
    268. B(O  34,H  15)                 54.1215         0.000000   
    269. B(O  34,C   4)                 53.8065         0.000000   
    270. B(O  34,H  24)                 59.5077         0.000000   
    271. B(O  34,H  23)                 59.1545         0.000000   
    272. B(O  34,H  22)                 59.1124         0.000000   
    273. B(O  34,C   9)                 58.9006         0.000000   
    274. B(O  34,H  21)                 53.3559         0.000000   
    275. B(O  34,H  11)                 53.7002         0.000000   
    276. B(O  34,N   1)                 57.4806         0.000000   
    277. B(O  34,C   3)                 53.2043         0.000000   
    278. B(O  34,H  18)                 57.4255         0.000000   
    279. B(O  34,C   7)                 56.8685         0.000000   
    280. B(O  34,H  16)                 56.8033         0.000000   
    281. B(O  34,H  12)                 52.9273         0.000000   
    282. B(O  34,C   5)                 56.5845         0.000000   
    283. B(O  34,C   8)                 52.8622         0.000000   
    284. B(O  34,H  19)                 52.5797         0.000000   
    285. B(O  34,C   6)                 55.5609         0.000000   
    286. B(O  34,N   0)                 55.4010         0.000000   
    287. B(O  34,H  13)                 52.2887         0.000000   
    288. B(O  34,S  30)                  1.4398         1.256777   
    289. B(S  35,N   1)                 54.7057         0.000000   
    290. B(S  35,H  17)                 51.9142         0.000000   
    291. B(S  35,H  18)                 54.5858         0.000000   
    292. B(S  35,H  19)                 49.9590         0.000000   
    293. B(S  35,H  10)                 51.7036         0.000000   
    294. B(S  35,H  16)                 54.0881         0.000000   
    295. B(S  35,C   7)                 54.0523         0.000000   
    296. B(S  35,H  15)                 51.5039         0.000000   
    297. B(S  35,C   5)                 53.8339         0.000000   
    298. B(S  35,H  13)                 49.5827         0.000000   
    299. B(S  35,C   2)                 51.3832         0.000000   
    300. B(S  35,H  20)                 49.3730         0.000000   
    301. B(S  35,C   4)                 51.1613         0.000000   
    302. B(S  35,H  11)                 50.8942         0.000000   
    303. B(S  35,H  24)                 56.7070         0.000000   
    304. B(S  35,H  21)                 50.8108         0.000000   
    305. B(S  35,H  23)                 56.4139         0.000000   
    306. B(S  35,H  22)                 56.3868         0.000000   
    307. B(S  35,C   9)                 56.1408         0.000000   
    308. B(S  35,C   6)                 52.7425         0.000000   
    309. B(S  35,N   0)                 52.6245         0.000000   
    310. B(S  35,C   3)                 50.4893         0.000000   
    311. B(S  35,C  31)                  1.8699         0.288990   
    312. B(S  35,C   8)                 50.2662         0.000000   
    313. B(S  35,O  27)                  1.4388         1.261000   
    314. B(S  35,H  14)                 52.0666         0.000000   
    315. B(S  35,H  12)                 50.1839         0.000000   
    316. B(N  36,C   3)                 51.7734         0.000000   
    317. B(N  36,C   8)                 51.5287         0.000000   
    318. B(N  36,C   6)                 54.0642         0.000000   
    319. B(N  36,N   0)                 53.9243         0.000000   
    320. B(N  36,H  12)                 51.4850         0.000000   
    321. B(N  36,H  19)                 51.2379         0.000000   
    322. B(N  36,H  14)                 53.3438         0.000000   
    323. B(N  36,H  24)                 58.0187         0.000000   
    324. B(N  36,H  23)                 57.7198         0.000000   
    325. B(N  36,H  22)                 57.6725         0.000000   
    326. B(N  36,H  17)                 53.2470         0.000000   
    327. B(N  36,C   9)                 57.4430         0.000000   
    328. B(N  36,H  10)                 52.9744         0.000000   
    329. B(N  36,H  13)                 50.8579         0.000000   
    330. B(N  36,H  15)                 52.7554         0.000000   
    331. B(N  36,N   1)                 56.0114         0.000000   
    332. B(N  36,H  20)                 50.6254         0.000000   
    333. B(N  36,C   2)                 52.6709         0.000000   
    334. B(N  36,H  18)                 55.9240         0.000000   
    335. B(N  36,C   4)                 52.4299         0.000000   
    336. B(N  36,S  35)                  1.5754         0.763511   
    337. B(N  36,C   7)                 55.3771         0.000000   
    338. B(N  36,H  16)                 55.3615         0.000000   
    339. B(N  36,S  30)                  1.5817         0.746153   
    340. B(N  36,H  11)                 52.1916         0.000000   
    341. B(N  36,C   5)                 55.1245         0.000000   
    342. B(N  36,H  21)                 52.0612         0.000000   
    343. B(F  37,H  11)                 51.9142         0.000000   
    344. B(F  37,C   3)                 51.6102         0.000000   
    345. B(F  37,C   8)                 51.5053         0.000000   
    346. B(F  37,C   6)                 53.7830         0.000000   
    347. B(F  37,N   0)                 53.6848         0.000000   
    348. B(F  37,H  12)                 51.2968         0.000000   
    349. B(F  37,H  19)                 51.1940         0.000000   
    350. B(F  37,H  24)                 57.7459         0.000000   
    351. B(F  37,H  14)                 53.2506         0.000000   
    352. B(F  37,H  23)                 57.5235         0.000000   
    353. B(F  37,H  22)                 57.4825         0.000000   
    354. B(F  37,C   9)                 57.2195         0.000000   
    355. B(F  37,H  17)                 52.9381         0.000000   
    356. B(F  37,H  10)                 52.7747         0.000000   
    357. B(F  37,H  13)                 50.7026         0.000000   
    358. B(F  37,H  15)                 52.6936         0.000000   
    359. B(F  37,H  20)                 50.6156         0.000000   
    360. B(F  37,N   1)                 55.7735         0.000000   
    361. B(F  37,C  31)                  1.3424         0.619241   
    362. B(F  37,C   2)                 52.4488         0.000000   
    363. B(F  37,H  18)                 55.6201         0.000000   
    364. B(F  37,C   4)                 52.3454         0.000000   
    365. B(F  37,H  16)                 55.1809         0.000000   
    366. B(F  37,C   7)                 55.0977         0.000000   
    367. B(F  37,H  21)                 52.0924         0.000000   
    368. B(F  37,C   5)                 54.9102         0.000000   
    369. B(F  38,C   3)                 54.4643         0.000000   
    370. B(F  38,C   8)                 54.2432         0.000000   
    371. B(F  38,H  12)                 54.1973         0.000000   
    372. B(F  38,H  19)                 53.9745         0.000000   
    373. B(F  38,H  24)                 60.7133         0.000000   
    374. B(F  38,H  23)                 60.4390         0.000000   
    375. B(F  38,H  22)                 60.3553         0.000000   
    376. B(F  38,C   9)                 60.1422         0.000000   
    377. B(F  38,H  13)                 53.5353         0.000000   
    378. B(F  38,N   1)                 58.7103         0.000000   
    379. B(F  38,H  18)                 58.6552         0.000000   
    380. B(F  38,C   7)                 58.0934         0.000000   
    381. B(F  38,H  16)                 58.0240         0.000000   
    382. B(F  38,H  20)                 53.3267         0.000000   
    383. B(F  38,C   5)                 57.8049         0.000000   
    384. B(F  38,C   6)                 56.7734         0.000000   
    385. B(F  38,N   0)                 56.6106         0.000000   
    386. B(F  38,H  14)                 56.0546         0.000000   
    387. B(F  38,H  17)                 55.9645         0.000000   
    388. B(F  38,C  33)                  1.3398         0.625155   
    389. B(F  38,H  10)                 55.6224         0.000000   
    390. B(F  38,H  15)                 55.4308         0.000000   
    391. B(F  38,C   2)                 55.3414         0.000000   
    392. B(F  38,C   4)                 55.1277         0.000000   
    393. B(F  38,H  11)                 54.8549         0.000000   
    394. B(F  38,H  21)                 54.7781         0.000000   
    395. B(O  39,C   6)                 51.8125         0.000000   
    396. B(O  39,H  11)                 49.9224         0.000000   
    397. B(O  39,N   0)                 51.6738         0.000000   
    398. B(O  39,H  21)                 49.9064         0.000000   
    399. B(O  39,N   1)                 53.7670         0.000000   
    400. B(O  39,C   3)                 49.5449         0.000000   
    401. B(O  39,H  18)                 53.6779         0.000000   
    402. B(O  39,C   8)                 49.3536         0.000000   
    403. B(O  39,H  12)                 49.2581         0.000000   
    404. B(O  39,H  14)                 51.1451         0.000000   
    405. B(O  39,H  17)                 50.9922         0.000000   
    406. B(O  39,C   7)                 53.1295         0.000000   
    407. B(O  39,H  19)                 49.0660         0.000000   
    408. B(O  39,H  16)                 53.1192         0.000000   
    409. B(O  39,C   5)                 52.8789         0.000000   
    410. B(O  39,H  13)                 48.6263         0.000000   
    411. B(O  39,H  10)                 50.7213         0.000000   
    412. B(O  39,H  20)                 48.4490         0.000000   
    413. B(O  39,S  35)                  1.4388         1.261254   
    414. B(O  39,H  24)                 55.7642         0.000000   
    415. B(O  39,H  15)                 50.5529         0.000000   
    416. B(O  39,H  23)                 55.4959         0.000000   
    417. B(O  39,H  22)                 55.4354         0.000000   
    418. B(O  39,C   2)                 50.4188         0.000000   
    419. B(O  39,C   9)                 55.2030         0.000000   
    420. B(O  39,C   4)                 50.2282         0.000000   
    421. A(C   2,N   0,O  27)           33.3922         0.089000   
    422. A(C   6,N   0,S  35)           94.1717         0.089000   
    423. A(C   6,N   0,F  26)           91.9214         0.089000   
    424. A(C   2,N   0,S  30)           31.9797         0.089000   
    425. A(C   2,N   0,O  39)           31.3154         0.089000   
    426. A(C   5,N   0,C  31)          156.8366         0.089000   
    427. A(C   5,N   0,C  33)          154.3508         0.089000   
    428. A(C   6,N   0,O  25)           93.4218         0.089000   
    429. A(O  34,N   0,F  37)            5.3336         0.089000   
    430. A(C   6,N   0,F  28)           94.7121         0.089000   
    431. A(C   6,N   0,F  37)           93.3565         0.089000   
    432. A(C   2,N   0,O  25)           33.4536         0.089000   
    433. A(C   6,N   0,C  33)           94.8942         0.089000   
    434. A(C   5,N   0,S  30)          153.8899         0.089000   
    435. A(C   5,N   0,C   6)          108.4150         0.432983   
    436. A(C   6,N   0,F  38)           96.0975         0.089000   
    437. A(C   5,N   0,F  29)          157.7798         0.089000   
    438. A(C   5,N   0,F  28)          154.2402         0.089000   
    439. A(C   5,N   0,F  38)          153.4914         0.089000   
    440. A(C   5,N   0,F  26)          157.3673         0.089000   
    441. A(C   2,N   0,F  26)           34.3776         0.089000   
    442. A(C   2,N   0,F  28)           31.9232         0.089000   
    443. A(C   2,N   0,S  35)           32.3138         0.089000   
    444. A(C   6,N   0,O  34)           95.9632         0.089000   
    445. A(C   2,N   0,N  36)           31.4500         0.089000   
    446. A(C   6,N   0,O  39)           95.0248         0.089000   
    447. A(C   6,N   0,F  29)           91.9026         0.089000   
    448. A(C   2,N   0,O  34)           31.0821         0.089000   
    449. A(C   6,N   0,S  30)           94.7997         0.089000   
    450. A(C   2,N   0,F  37)           32.6885         0.089000   
    451. A(C   6,N   0,O  27)           93.3476         0.089000   
    452. A(C   5,N   0,S  35)          155.0035         0.089000   
    453. A(C   5,N   0,O  25)          154.8386         0.089000   
    454. A(C   2,N   0,F  38)           30.3003         0.089000   
    455. A(C   6,N   0,C  31)           92.7579         0.089000   
    456. A(C   2,N   0,C  31)           33.4595         0.089000   
    457. A(C   6,N   0,F  32)           93.9297         0.089000   
    458. A(C   2,N   0,C  33)           31.6051         0.089000   
    459. A(C   2,N   0,C   5)          125.8171         0.405830   
    460. A(C   5,N   0,F  37)          156.7265         0.089000   
    461. A(C   5,N   0,O  27)          155.1744         0.089000   
    462. A(C   2,N   0,F  32)           32.3667         0.089000   
    463. A(C   5,N   0,F  32)          155.6187         0.089000   
    464. A(C   5,N   0,O  34)          152.4470         0.089000   
    465. A(C   6,N   0,N  36)           95.1030         0.089000   
    466. A(C   2,N   0,C   6)          125.6866         0.393991   
    467. A(C   5,N   0,O  39)          154.5566         0.089000   
    468. A(C   5,N   0,N  36)          154.0651         0.089000   
    469. A(C   2,N   0,F  29)           34.2413         0.089000   
    470. A(F  29,N   0,O  34)            5.6075         0.089000   
    471. A(C   5,N   1,O  27)           49.6052         0.089000   
    472. A(C   5,N   1,C   9)          125.9082         0.408163   
    473. A(C   5,N   1,O  39)           47.7172         0.089000   
    474. A(C   9,N   1,O  27)          167.6575         0.089000   
    475. A(C   9,N   1,N  36)          167.6719         0.089000   
    476. A(C   7,N   1,S  30)           61.7870         0.089000   
    477. A(C   9,N   1,F  26)          170.0011         0.089000   
    478. A(C   9,N   1,S  30)          166.9921         0.089000   
    479. A(C   9,N   1,O  25)          167.1276         0.089000   
    480. A(C   9,N   1,O  39)          168.5335         0.089000   
    481. A(C   5,N   1,F  28)           48.2689         0.089000   
    482. A(C   5,N   1,C  33)           47.9938         0.089000   
    483. A(C   5,N   1,F  29)           50.5961         0.089000   
    484. A(C   5,N   1,N  36)           47.8033         0.089000   
    485. A(C   9,N   1,F  38)          167.7419         0.089000   
    486. A(C   5,N   1,F  38)           46.7619         0.089000   
    487. A(C   7,N   1,F  28)           61.6103         0.089000   
    488. A(C   5,N   1,O  34)           47.2925         0.089000   
    489. A(C   7,N   1,N  36)           61.9617         0.089000   
    490. A(C   7,N   1,O  25)           60.5432         0.089000   
    491. A(C   9,N   1,O  34)          165.6690         0.089000   
    492. A(C   5,N   1,F  37)           49.1387         0.089000   
    493. A(C   9,N   1,F  37)          170.7900         0.089000   
    494. A(C   7,N   1,C  33)           61.7169         0.089000   
    495. A(F  29,N   1,O  34)            5.3935         0.089000   
    496. A(C   5,N   1,S  35)           48.6470         0.089000   
    497. A(C   5,N   1,O  25)           49.6531         0.089000   
    498. A(C   9,N   1,C  33)          167.9661         0.089000   
    499. A(C   9,N   1,S  35)          168.3418         0.089000   
    500. A(C   9,N   1,F  32)          169.2477         0.089000   
    501. A(O  34,N   1,F  37)            5.1402         0.089000   
    502. A(C   7,N   1,C   9)          125.7120         0.396621   
    503. A(C   7,N   1,F  29)           58.7105         0.089000   
    504. A(C   7,N   1,O  34)           63.0120         0.089000   
    505. A(C   7,N   1,F  26)           58.8063         0.089000   
    506. A(C   7,N   1,C  31)           59.5583         0.089000   
    507. A(C   7,N   1,S  35)           61.0568         0.089000   
    508. A(C   5,N   1,F  26)           50.7109         0.089000   
    509. A(C   7,N   1,F  32)           60.6896         0.089000   
    510. A(C   5,N   1,F  32)           48.7907         0.089000   
    511. A(C   7,N   1,O  39)           61.7901         0.089000   
    512. A(C   9,N   1,C  31)          170.1265         0.089000   
    513. A(C   5,N   1,C   7)          108.3783         0.431954   
    514. A(C   7,N   1,F  37)           60.0144         0.089000   
    515. A(C   7,N   1,O  27)           60.4250         0.089000   
    516. A(C   9,N   1,F  29)          170.8450         0.089000   
    517. A(C   5,N   1,C  31)           49.8355         0.089000   
    518. A(C   7,N   1,F  38)           62.8012         0.089000   
    519. A(C   5,N   1,S  30)           48.2537         0.089000   
    520. A(C   9,N   1,F  28)          167.5350         0.089000   
    521. A(F  26,C   2,O  34)            5.1132         0.089000   
    522. A(N   0,C   2,C  33)          147.5932         0.089000   
    523. A(O  34,C   2,F  37)            5.4667         0.089000   
    524. A(C   3,C   2,F  29)           55.0639         0.089000   
    525. A(H  11,C   2,O  39)           62.3471         0.089000   
    526. A(H  10,C   2,F  37)          106.8320         0.089000   
    527. A(F  29,C   2,O  34)            5.7700         0.089000   
    528. A(H  10,C   2,O  27)          107.5820         0.089000   
    529. A(N   0,C   2,C  31)          145.6430         0.089000   
    530. A(C   3,C   2,S  30)           52.2116         0.089000   
    531. A(N   0,C   2,F  29)          144.8245         0.089000   
    532. A(N   0,C   2,H  10)          106.6687         0.327128   
    533. A(C   3,C   2,S  35)           53.4302         0.089000   
    534. A(C   3,C   2,O  39)           54.3334         0.089000   
    535. A(H  10,C   2,F  26)          108.6082         0.089000   
    536. A(C   3,C   2,O  25)           51.5336         0.089000   
    537. A(N   0,C   2,C   3)          112.2686         0.367691   
    538. A(H  10,C   2,C  31)          107.6773         0.089000   
    539. A(H  10,C   2,F  29)          108.4766         0.089000   
    540. A(C   3,C   2,H  10)          111.1585         0.325242   
    541. A(H  11,C   2,F  29)           60.2861         0.089000   
    542. A(N   0,C   2,F  28)          147.2847         0.089000   
    543. A(N   0,C   2,F  38)          148.9288         0.089000   
    544. A(N   0,C   2,N  36)          147.7124         0.089000   
    545. A(C   3,C   2,O  27)           52.0869         0.089000   
    546. A(C   3,C   2,H  11)          111.5654         0.325286   
    547. A(N   0,C   2,S  35)          146.8065         0.089000   
    548. A(C   3,C   2,C  33)           53.5113         0.089000   
    549. A(H  10,C   2,F  28)          106.0103         0.089000   
    550. A(H  10,C   2,O  25)          107.5546         0.089000   
    551. A(N   0,C   2,O  27)          145.6948         0.089000   
    552. A(H  11,C   2,F  26)           61.2063         0.089000   
    553. A(H  10,C   2,S  35)          106.5156         0.089000   
    554. A(N   0,C   2,F  32)          146.8135         0.089000   
    555. A(H  11,C   2,F  38)           62.9783         0.089000   
    556. A(C   3,C   2,N  36)           53.2819         0.089000   
    557. A(C   3,C   2,F  32)           54.4130         0.089000   
    558. A(H  11,C   2,S  35)           62.7928         0.089000   
    559. A(H  10,C   2,F  38)          104.3985         0.089000   
    560. A(N   0,C   2,O  25)          145.6836         0.089000   
    561. A(H  10,C   2,F  32)          106.5167         0.089000   
    562. A(H  11,C   2,C  31)           60.9939         0.089000   
    563. A(C   3,C   2,C  31)           54.6986         0.089000   
    564. A(H  11,C   2,F  28)           63.6239         0.089000   
    565. A(N   0,C   2,F  26)          144.7200         0.089000   
    566. A(H  11,C   2,O  25)           64.2393         0.089000   
    567. A(C   3,C   2,F  38)           54.2527         0.089000   
    568. A(H  10,C   2,O  39)          105.5183         0.089000   
    569. A(H  11,C   2,F  37)           60.1028         0.089000   
    570. A(H  11,C   2,F  32)           61.7991         0.089000   
    571. A(H  11,C   2,O  34)           65.5304         0.089000   
    572. A(C   3,C   2,F  28)           52.8397         0.089000   
    573. A(N   0,C   2,F  37)          146.4408         0.089000   
    574. A(H  10,C   2,S  30)          106.0689         0.089000   
    575. A(H  10,C   2,H  11)          107.8586         0.290895   
    576. A(H  11,C   2,C  33)           63.0800         0.089000   
    577. A(H  10,C   2,N  36)          105.5972         0.089000   
    578. A(C   3,C   2,F  26)           54.0988         0.089000   
    579. A(H  11,C   2,S  30)           64.2304         0.089000   
    580. A(N   0,C   2,O  34)          148.1115         0.089000   
    581. A(H  11,C   2,O  27)           63.6703         0.089000   
    582. A(N   0,C   2,S  30)          147.1891         0.089000   
    583. A(H  11,C   2,N  36)           63.3730         0.089000   
    584. A(H  10,C   2,O  34)          105.0464         0.089000   
    585. A(C   3,C   2,F  37)           55.9476         0.089000   
    586. A(H  10,C   2,C  33)          105.7254         0.089000   
    587. A(C   3,C   2,O  34)           51.4111         0.089000   
    588. A(N   0,C   2,H  11)          107.0510         0.327172   
    589. A(N   0,C   2,O  39)          147.8129         0.089000   
    590. A(H  12,C   3,S  30)           73.6877         0.089000   
    591. A(C   2,C   3,C  33)          125.1967         0.089000   
    592. A(C   2,C   3,O  25)          127.1774         0.089000   
    593. A(C   2,C   3,F  32)          124.2790         0.089000   
    594. A(C   2,C   3,F  28)          125.9063         0.089000   
    595. A(H  12,C   3,S  35)           73.1988         0.089000   
    596. A(C   4,C   3,S  35)          115.3265         0.089000   
    597. A(H  12,C   3,F  28)           73.7113         0.089000   
    598. A(H  13,C   3,F  26)           35.5446         0.089000   
    599. A(C   2,C   3,N  36)          125.3649         0.089000   
    600. A(H  12,C   3,F  26)           71.0212         0.089000   
    601. A(C   4,C   3,F  26)          116.9348         0.089000   
    602. A(C   2,C   3,F  26)          124.5405         0.089000   
    603. A(H  12,C   3,O  34)           74.7659         0.089000   
    604. A(C   2,C   3,S  30)          126.4843         0.089000   
    605. A(H  13,C   3,C  33)           32.9183         0.089000   
    606. A(H  13,C   3,N  36)           32.8181         0.089000   
    607. A(H  13,C   3,O  39)           32.5033         0.089000   
    608. A(C   4,C   3,H  12)          110.2081         0.323956   
    609. A(H  12,C   3,N  36)           74.1391         0.089000   
    610. A(H  13,C   3,F  29)           35.2624         0.089000   
    611. A(F  29,C   3,O  34)            5.9235         0.089000   
    612. A(H  12,C   3,O  27)           72.1554         0.089000   
    613. A(C   2,C   3,F  37)          122.6492         0.089000   
    614. A(H  13,C   3,F  37)           33.5582         0.089000   
    615. A(H  12,C   3,F  37)           72.7780         0.089000   
    616. A(C   4,C   3,F  29)          117.9138         0.089000   
    617. A(H  13,C   3,O  34)           32.8096         0.089000   
    618. A(C   4,C   3,F  32)          116.2455         0.089000   
    619. A(C   4,C   3,F  37)          118.0313         0.089000   
    620. A(H  12,C   3,O  25)           72.1880         0.089000   
    621. A(C   2,C   3,S  35)          125.1794         0.089000   
    622. A(H  12,C   3,O  39)           74.1957         0.089000   
    623. A(C   4,C   3,O  27)          114.4650         0.089000   
    624. A(C   4,C   3,O  25)          113.8169         0.089000   
    625. A(H  12,C   3,F  29)           71.1329         0.089000   
    626. A(F  26,C   3,O  34)            5.2175         0.089000   
    627. A(H  13,C   3,O  25)           35.0728         0.089000   
    628. A(H  12,C   3,C  31)           71.9590         0.089000   
    629. A(C   2,C   3,C   4)          114.2127         0.364988   
    630. A(C   4,C   3,N  36)          114.6928         0.089000   
    631. A(C   2,C   3,C  31)          123.9050         0.089000   
    632. A(O  34,C   3,F  37)            5.5944         0.089000   
    633. A(C   4,C   3,S  30)          113.8041         0.089000   
    634. A(C   4,C   3,O  39)          115.7861         0.089000   
    635. A(C   2,C   3,H  12)          109.5743         0.324377   
    636. A(H  12,C   3,H  13)          106.0198         0.289540   
    637. A(H  13,C   3,S  35)           33.6378         0.089000   
    638. A(C   2,C   3,H  13)          106.5543         0.324562   
    639. A(C   4,C   3,F  28)          114.3641         0.089000   
    640. A(H  13,C   3,C  31)           34.5407         0.089000   
    641. A(H  12,C   3,C  33)           73.9845         0.089000   
    642. A(C   4,C   3,C  33)          114.9345         0.089000   
    643. A(H  13,C   3,F  32)           33.4970         0.089000   
    644. A(C   2,C   3,O  39)          124.2334         0.089000   
    645. A(C   2,C   3,F  38)          124.4449         0.089000   
    646. A(C   4,C   3,O  34)          112.4649         0.089000   
    647. A(H  12,C   3,F  38)           75.3174         0.089000   
    648. A(H  13,C   3,F  28)           33.3464         0.089000   
    649. A(H  12,C   3,F  32)           73.1407         0.089000   
    650. A(C   2,C   3,O  34)          127.3048         0.089000   
    651. A(C   2,C   3,O  27)          126.5355         0.089000   
    652. A(C   2,C   3,F  29)          123.5051         0.089000   
    653. A(H  13,C   3,S  30)           33.5236         0.089000   
    654. A(H  13,C   3,O  27)           34.9301         0.089000   
    655. A(C   4,C   3,F  38)          115.0164         0.089000   
    656. A(C   4,C   3,C  31)          117.1560         0.089000   
    657. A(C   4,C   3,H  13)          109.8965         0.324140   
    658. A(H  13,C   3,F  38)           31.5161         0.089000   
    659. A(C   3,C   4,O  27)           63.9638         0.089000   
    660. A(C   8,C   4,S  30)           52.0292         0.089000   
    661. A(C   3,C   4,H  15)          109.2180         0.323693   
    662. A(C   3,C   4,S  30)           64.7018         0.089000   
    663. A(C   3,C   4,O  39)           62.6448         0.089000   
    664. A(C   8,C   4,F  29)           55.1875         0.089000   
    665. A(C   3,C   4,C  31)           61.3404         0.089000   
    666. A(O  34,C   4,F  37)            5.5665         0.089000   
    667. A(H  15,C   4,F  32)          107.6431         0.089000   
    668. A(H  14,C   4,C  33)          146.1109         0.089000   
    669. A(H  15,C   4,O  39)          106.6394         0.089000   
    670. A(H  15,C   4,O  34)          106.1488         0.089000   
    671. A(C   3,C   4,F  28)           64.2169         0.089000   
    672. A(C   8,C   4,S  35)           53.4163         0.089000   
    673. A(C   3,C   4,S  35)           63.1271         0.089000   
    674. A(H  14,C   4,F  37)          145.3816         0.089000   
    675. A(C   8,C   4,F  32)           54.2174         0.089000   
    676. A(H  14,C   4,O  39)          146.4818         0.089000   
    677. A(H  15,C   4,S  30)          107.1834         0.089000   
    678. A(H  14,C   4,S  35)          145.3822         0.089000   
    679. A(H  14,C   4,O  34)          146.2992         0.089000   
    680. A(C   8,C   4,O  25)           51.4049         0.089000   
    681. A(C   3,C   4,O  25)           64.6927         0.089000   
    682. A(C   8,C   4,H  14)          109.0867         0.323831   
    683. A(H  15,C   4,F  38)          105.5138         0.089000   
    684. A(H  14,C   4,F  26)          143.4594         0.089000   
    685. A(H  14,C   4,H  15)          106.5468         0.288971   
    686. A(C   3,C   4,H  14)          109.8359         0.323735   
    687. A(C   3,C   4,C   8)          112.4182         0.364607   
    688. A(H  14,C   4,S  30)          145.5477         0.089000   
    689. A(H  14,C   4,C  31)          144.4389         0.089000   
    690. A(C   8,C   4,H  15)          109.5628         0.323790   
    691. A(H  15,C   4,C  31)          108.8083         0.089000   
    692. A(H  15,C   4,F  28)          107.1265         0.089000   
    693. A(H  15,C   4,S  35)          107.6386         0.089000   
    694. A(C   8,C   4,C  31)           54.7247         0.089000   
    695. A(C   8,C   4,O  39)           54.3394         0.089000   
    696. A(F  29,C   4,O  34)            5.9295         0.089000   
    697. A(H  14,C   4,O  25)          144.0166         0.089000   
    698. A(C   3,C   4,F  37)           60.4927         0.089000   
    699. A(C   3,C   4,O  34)           66.0318         0.089000   
    700. A(H  15,C   4,F  26)          109.7417         0.089000   
    701. A(H  14,C   4,F  28)          145.7073         0.089000   
    702. A(C   3,C   4,F  26)           61.5857         0.089000   
    703. A(C   8,C   4,F  37)           55.9227         0.089000   
    704. A(C   3,C   4,N  36)           63.7903         0.089000   
    705. A(F  26,C   4,O  34)            5.1800         0.089000   
    706. A(H  14,C   4,F  38)          147.4914         0.089000   
    707. A(C   8,C   4,O  34)           51.1560         0.089000   
    708. A(C   8,C   4,F  38)           53.9542         0.089000   
    709. A(C   3,C   4,F  38)           63.5448         0.089000   
    710. A(C   8,C   4,F  26)           54.1110         0.089000   
    711. A(C   8,C   4,F  28)           52.5425         0.089000   
    712. A(H  14,C   4,N  36)          146.2133         0.089000   
    713. A(H  15,C   4,C  33)          106.8438         0.089000   
    714. A(C   8,C   4,C  33)           53.2645         0.089000   
    715. A(C   3,C   4,C  33)           63.6238         0.089000   
    716. A(H  15,C   4,F  29)          109.6100         0.089000   
    717. A(H  14,C   4,F  32)          145.5010         0.089000   
    718. A(C   3,C   4,F  32)           62.3280         0.089000   
    719. A(H  14,C   4,F  29)          143.7047         0.089000   
    720. A(C   3,C   4,F  29)           60.5638         0.089000   
    721. A(H  15,C   4,N  36)          106.7143         0.089000   
    722. A(C   8,C   4,N  36)           53.1549         0.089000   
    723. A(H  14,C   4,O  27)          144.1352         0.089000   
    724. A(H  15,C   4,O  27)          108.7072         0.089000   
    725. A(C   8,C   4,O  27)           52.1271         0.089000   
    726. A(H  15,C   4,F  37)          107.9633         0.089000   
    727. A(H  15,C   4,O  25)          108.6758         0.089000   
    728. A(H  16,C   5,C  31)          104.5603         0.089000   
    729. A(N   0,C   5,C  31)           22.6119         0.089000   
    730. A(N   0,C   5,F  38)           25.9196         0.089000   
    731. A(H  16,C   5,F  38)          101.2281         0.089000   
    732. A(N   1,C   5,F  26)          128.2206         0.089000   
    733. A(H  16,C   5,O  25)          103.7049         0.089000   
    734. A(N   1,C   5,O  25)          129.3153         0.089000   
    735. A(N   1,C   5,F  28)          130.7629         0.089000   
    736. A(H  16,C   5,O  27)          103.8439         0.089000   
    737. A(H  16,C   5,S  35)          103.1131         0.089000   
    738. A(N   1,C   5,H  16)          125.5442         0.360120   
    739. A(N   1,C   5,F  38)          132.2750         0.089000   
    740. A(N   1,C   5,F  32)          130.2124         0.089000   
    741. A(N   0,C   5,C  33)           25.0774         0.089000   
    742. A(H  16,C   5,F  32)          103.3667         0.089000   
    743. A(N   0,C   5,F  32)           23.8353         0.089000   
    744. A(H  16,C   5,F  29)          105.4250         0.089000   
    745. A(N   1,C   5,F  29)          128.2977         0.089000   
    746. A(N   0,C   5,F  29)           21.6799         0.089000   
    747. A(N   1,C   5,C  33)          131.0227         0.089000   
    748. A(N   1,C   5,S  35)          130.2874         0.089000   
    749. A(N   0,C   5,O  25)           24.5871         0.089000   
    750. A(N   0,C   5,O  34)           26.9295         0.089000   
    751. A(N   1,C   5,O  34)          131.7151         0.089000   
    752. A(N   1,C   5,S  30)          130.7341         0.089000   
    753. A(N   0,C   5,S  30)           25.5142         0.089000   
    754. A(H  16,C   5,O  39)          102.3373         0.089000   
    755. A(N   0,C   5,H  16)          125.4933         0.360696   
    756. A(H  16,C   5,O  34)          101.1996         0.089000   
    757. A(F  29,C   5,O  34)            5.5166         0.089000   
    758. A(N   0,C   5,S  35)           24.3978         0.089000   
    759. A(N   1,C   5,O  39)          131.2136         0.089000   
    760. A(N   0,C   5,O  39)           24.8238         0.089000   
    761. A(H  16,C   5,F  26)          105.3386         0.089000   
    762. A(N   0,C   5,F  26)           22.1025         0.089000   
    763. A(N   1,C   5,C  31)          129.0909         0.089000   
    764. A(N   0,C   5,F  28)           25.1971         0.089000   
    765. A(H  16,C   5,S  30)          102.3980         0.089000   
    766. A(O  34,C   5,F  37)            5.2326         0.089000   
    767. A(N   0,C   5,O  27)           24.2261         0.089000   
    768. A(H  16,C   5,N  36)          102.1777         0.089000   
    769. A(N   1,C   5,N  36)          131.1697         0.089000   
    770. A(N   0,C   5,N  36)           25.3298         0.089000   
    771. A(H  16,C   5,F  28)          102.4983         0.089000   
    772. A(H  16,C   5,C  33)          102.3698         0.089000   
    773. A(H  16,C   5,F  37)          104.0292         0.089000   
    774. A(N   1,C   5,F  37)          129.8087         0.089000   
    775. A(N   0,C   5,F  37)           22.7246         0.089000   
    776. A(N   0,C   5,N   1)          108.9625         0.445578   
    777. A(N   1,C   5,O  27)          129.3052         0.089000   
    778. A(H  17,C   6,F  38)           40.8492         0.089000   
    779. A(H  17,C   6,O  27)           38.7988         0.089000   
    780. A(C   7,C   6,O  27)          163.0663         0.089000   
    781. A(N   0,C   6,O  27)           85.1464         0.089000   
    782. A(N   0,C   6,F  38)           82.5207         0.089000   
    783. A(H  17,C   6,F  29)           36.6426         0.089000   
    784. A(C   7,C   6,F  29)          163.7078         0.089000   
    785. A(N   0,C   6,F  29)           86.5869         0.089000   
    786. A(N   0,C   6,H  17)          122.1718         0.350721   
    787. A(H  17,C   6,F  26)           36.8333         0.089000   
    788. A(C   7,C   6,F  26)          163.1612         0.089000   
    789. A(N   0,C   6,F  26)           86.6234         0.089000   
    790. A(C   7,C   6,O  39)          165.7091         0.089000   
    791. A(H  17,C   6,F  28)           39.8006         0.089000   
    792. A(C   7,C   6,O  25)          162.6784         0.089000   
    793. A(C   7,C   6,N  36)          165.0164         0.089000   
    794. A(O  34,C   6,F  37)            5.2987         0.089000   
    795. A(H  17,C   6,O  39)           39.8926         0.089000   
    796. A(C   7,C   6,F  28)          164.3775         0.089000   
    797. A(N   0,C   6,F  28)           83.9281         0.089000   
    798. A(H  17,C   6,F  37)           37.8486         0.089000   
    799. A(C   7,C   6,F  37)          165.3207         0.089000   
    800. A(N   0,C   6,F  37)           85.1789         0.089000   
    801. A(C   7,C   6,F  38)          166.2710         0.089000   
    802. A(C   7,C   6,F  32)          164.8509         0.089000   
    803. A(C   7,C   6,C  31)          164.1836         0.089000   
    804. A(H  17,C   6,F  32)           38.6736         0.089000   
    805. A(H  17,C   6,C  33)           39.8360         0.089000   
    806. A(N   0,C   6,C  33)           83.7186         0.089000   
    807. A(H  17,C   6,C  31)           37.5364         0.089000   
    808. A(N   0,C   6,C  31)           85.7623         0.089000   
    809. A(N   0,C   6,F  32)           84.6788         0.089000   
    810. A(H  17,C   6,O  34)           41.4692         0.089000   
    811. A(C   7,C   6,O  34)          164.1670         0.089000   
    812. A(N   0,C   6,O  34)           82.6244         0.089000   
    813. A(H  17,C   6,O  25)           38.9535         0.089000   
    814. A(N   0,C   6,O  25)           85.1552         0.089000   
    815. A(C   7,C   6,H  17)          130.6299         0.363873   
    816. A(F  29,C   6,O  34)            5.5313         0.089000   
    817. A(H  17,C   6,S  30)           40.1111         0.089000   
    818. A(C   7,C   6,S  30)          164.0565         0.089000   
    819. A(H  17,C   6,S  35)           39.2404         0.089000   
    820. A(C   7,C   6,S  35)          164.5066         0.089000   
    821. A(N   0,C   6,S  35)           84.3362         0.089000   
    822. A(N   0,C   6,S  30)           83.7775         0.089000   
    823. A(N   0,C   6,C   7)          107.1971         0.436769   
    824. A(N   0,C   6,N  36)           83.4434         0.089000   
    825. A(C   7,C   6,C  33)          164.9730         0.089000   
    826. A(H  17,C   6,N  36)           40.1603         0.089000   
    827. A(N   0,C   6,O  39)           83.4582         0.089000   
    828. A(H  18,C   7,O  34)          120.7263         0.089000   
    829. A(H  18,C   7,F  32)          118.9551         0.089000   
    830. A(O  34,C   7,F  37)            5.1770         0.089000   
    831. A(N   1,C   7,S  35)          117.6649         0.089000   
    832. A(C   6,C   7,F  29)           15.8843         0.089000   
    833. A(C   6,C   7,F  28)           15.2682         0.089000   
    834. A(N   1,C   7,F  29)          120.0286         0.089000   
    835. A(H  18,C   7,F  38)          121.0370         0.089000   
    836. A(N   1,C   7,F  38)          115.9899         0.089000   
    837. A(C   6,C   7,O  27)           16.5109         0.089000   
    838. A(N   1,C   7,O  27)          118.2939         0.089000   
    839. A(H  18,C   7,C  33)          119.8267         0.089000   
    840. A(C   6,C   7,C  33)           14.6791         0.089000   
    841. A(N   1,C   7,C  33)          117.0838         0.089000   
    842. A(C   6,C   7,F  32)           14.7978         0.089000   
    843. A(N   1,C   7,F  32)          118.1208         0.089000   
    844. A(H  18,C   7,F  28)          119.5692         0.089000   
    845. A(H  18,C   7,O  27)          118.3649         0.089000   
    846. A(C   6,C   7,S  35)           15.1089         0.089000   
    847. A(F  29,C   7,O  34)            5.3982         0.089000   
    848. A(C   6,C   7,O  34)           15.4597         0.089000   
    849. A(N   1,C   7,O  34)          115.7507         0.089000   
    850. A(N   1,C   7,O  25)          118.2431         0.089000   
    851. A(H  18,C   7,F  29)          117.1663         0.089000   
    852. A(H  18,C   7,S  30)          119.6805         0.089000   
    853. A(C   6,C   7,S  30)           15.5657         0.089000   
    854. A(N   1,C   7,S  30)          116.9830         0.089000   
    855. A(H  18,C   7,O  39)          120.1602         0.089000   
    856. A(C   6,C   7,O  39)           13.9295         0.089000   
    857. A(N   1,C   7,O  39)          116.9003         0.089000   
    858. A(C   6,C   7,F  38)           13.4111         0.089000   
    859. A(H  18,C   7,F  26)          117.0606         0.089000   
    860. A(C   6,C   7,F  26)           16.4327         0.089000   
    861. A(N   1,C   7,F  26)          119.9764         0.089000   
    862. A(H  18,C   7,N  36)          120.0908         0.089000   
    863. A(C   6,C   7,N  36)           14.6204         0.089000   
    864. A(N   1,C   7,N  36)          116.7798         0.089000   
    865. A(C   6,C   7,O  25)           16.9127         0.089000   
    866. A(N   1,C   7,C   6)          107.0462         0.436465   
    867. A(H  18,C   7,O  25)          118.2924         0.089000   
    868. A(N   1,C   7,F  28)          117.2151         0.089000   
    869. A(H  18,C   7,F  37)          118.5713         0.089000   
    870. A(C   6,C   7,F  37)           14.3214         0.089000   
    871. A(N   1,C   7,F  37)          118.7443         0.089000   
    872. A(C   6,C   7,H  18)          130.8147         0.363800   
    873. A(H  18,C   7,S  35)          119.2448         0.089000   
    874. A(H  18,C   7,C  31)          117.9396         0.089000   
    875. A(C   6,C   7,C  31)           15.4277         0.089000   
    876. A(N   1,C   7,C  31)          119.1942         0.089000   
    877. A(N   1,C   7,H  18)          122.1377         0.350424   
    878. A(H  21,C   8,F  38)          118.8808         0.089000   
    879. A(H  20,C   8,F  38)           32.5990         0.089000   
    880. A(H  19,C   8,F  38)           75.2010         0.089000   
    881. A(C   4,C   8,F  38)          124.7415         0.089000   
    882. A(H  21,C   8,F  32)          120.1489         0.089000   
    883. A(H  20,C   8,F  32)           34.7373         0.089000   
    884. A(H  19,C   8,F  32)           73.0744         0.089000   
    885. A(C   4,C   8,F  32)          124.4719         0.089000   
    886. A(H  21,C   8,C  33)          118.8241         0.089000   
    887. A(H  20,C   8,C  33)           33.9695         0.089000   
    888. A(H  19,C   8,C  33)           73.8320         0.089000   
    889. A(C   4,C   8,C  33)          125.4406         0.089000   
    890. A(H  21,C   8,F  26)          120.9853         0.089000   
    891. A(C   4,C   8,F  26)          124.5222         0.089000   
    892. A(H  21,C   8,S  35)          119.4299         0.089000   
    893. A(H  19,C   8,S  35)           73.0650         0.089000   
    894. A(H  19,C   8,F  26)           70.9717         0.089000   
    895. A(H  20,C   8,N  36)           33.8286         0.089000   
    896. A(H  19,C   8,N  36)           73.9739         0.089000   
    897. A(C   4,C   8,N  36)          125.4862         0.089000   
    898. A(H  21,C   8,F  37)          122.0747         0.089000   
    899. A(H  20,C   8,F  37)           35.0658         0.089000   
    900. A(H  19,C   8,F  37)           72.8525         0.089000   
    901. A(C   4,C   8,F  37)          122.6702         0.089000   
    902. A(H  21,C   8,F  29)          122.0683         0.089000   
    903. A(H  20,C   8,S  35)           34.7353         0.089000   
    904. A(H  20,C   8,F  29)           36.7188         0.089000   
    905. A(H  19,C   8,F  29)           71.1703         0.089000   
    906. A(C   4,C   8,F  29)          123.3742         0.089000   
    907. A(H  21,C   8,O  27)          118.6087         0.089000   
    908. A(H  20,C   8,O  27)           35.8845         0.089000   
    909. A(H  19,C   8,O  27)           71.9279         0.089000   
    910. A(H  21,C   8,N  36)          118.7122         0.089000   
    911. A(C   4,C   8,O  27)          126.4855         0.089000   
    912. A(H  20,C   8,H  21)          107.7649         0.290510   
    913. A(F  26,C   8,O  34)            5.2853         0.089000   
    914. A(O  34,C   8,F  37)            5.6930         0.089000   
    915. A(C  31,C   8,O  34)            5.0898         0.089000   
    916. A(F  29,C   8,O  34)            6.0871         0.089000   
    917. A(H  21,C   8,O  34)          116.4003         0.089000   
    918. A(H  20,C   8,O  34)           33.4739         0.089000   
    919. A(H  19,C   8,O  34)           74.4380         0.089000   
    920. A(C   4,C   8,O  34)          127.5548         0.089000   
    921. A(H  21,C   8,O  25)          117.7967         0.089000   
    922. A(H  20,C   8,O  25)           35.9396         0.089000   
    923. A(H  19,C   8,H  21)          107.7727         0.290440   
    924. A(H  19,C   8,O  25)           71.9057         0.089000   
    925. A(C   4,C   8,O  25)          127.2995         0.089000   
    926. A(C   4,C   8,H  21)          111.0434         0.324858   
    927. A(H  21,C   8,F  28)          118.2039         0.089000   
    928. A(H  20,C   8,F  28)           34.3095         0.089000   
    929. A(H  19,C   8,F  28)           73.5065         0.089000   
    930. A(C   4,C   8,F  28)          126.2010         0.089000   
    931. A(H  21,C   8,O  39)          119.9263         0.089000   
    932. A(H  19,C   8,H  20)          107.8000         0.290191   
    933. A(H  20,C   8,O  39)           33.6894         0.089000   
    934. A(H  21,C   8,C  31)          121.2433         0.089000   
    935. A(H  20,C   8,C  31)           35.8992         0.089000   
    936. A(H  19,C   8,O  39)           74.1223         0.089000   
    937. A(H  19,C   8,C  31)           71.9476         0.089000   
    938. A(C   4,C   8,O  39)          124.2201         0.089000   
    939. A(H  21,C   8,S  30)          117.7688         0.089000   
    940. A(C   4,C   8,C  31)          123.8728         0.089000   
    941. A(H  20,C   8,S  30)           34.3936         0.089000   
    942. A(C   4,C   8,H  20)          111.1156         0.324567   
    943. A(H  19,C   8,S  30)           73.4399         0.089000   
    944. A(C   4,C   8,S  30)          126.6612         0.089000   
    945. A(C   4,C   8,H  19)          111.1843         0.324485   
    946. A(C   4,C   8,S  35)          125.1859         0.089000   
    947. A(H  20,C   8,F  26)           36.8542         0.089000   
    948. A(N   1,C   9,C  33)           11.7426         0.089000   
    949. A(H  24,C   9,F  28)          121.6833         0.089000   
    950. A(H  22,C   9,F  28)          102.0175         0.089000   
    951. A(N   1,C   9,F  28)           12.1691         0.089000   
    952. A(H  23,C   9,F  38)          105.3271         0.089000   
    953. A(H  22,C   9,F  38)          100.8004         0.089000   
    954. A(N   1,C   9,F  38)           11.9619         0.089000   
    955. A(H  23,C   9,O  25)          102.1259         0.089000   
    956. A(H  22,C   9,F  32)          102.8569         0.089000   
    957. A(N   1,C   9,F  32)           10.4913         0.089000   
    958. A(O  34,C   9,F  37)            5.0218         0.089000   
    959. A(H  23,C   9,C  33)          104.2794         0.089000   
    960. A(F  29,C   9,O  34)            5.2746         0.089000   
    961. A(H  24,C   9,O  34)          123.4641         0.089000   
    962. A(H  23,C   9,O  34)          102.9763         0.089000   
    963. A(N   1,C   9,O  34)           13.9783         0.089000   
    964. A(H  24,C   9,O  25)          122.0692         0.089000   
    965. A(H  22,C   9,O  25)          103.1285         0.089000   
    966. A(N   1,C   9,O  25)           12.5541         0.089000   
    967. A(H  24,C   9,S  30)          122.2118         0.089000   
    968. A(H  22,C   9,S  30)          101.8797         0.089000   
    969. A(H  22,C   9,F  37)          103.4728         0.089000   
    970. A(H  24,C   9,F  26)          119.2474         0.089000   
    971. A(H  23,C   9,F  26)          103.6105         0.089000   
    972. A(H  22,C   9,F  26)          104.7132         0.089000   
    973. A(N   1,C   9,F  26)            9.7461         0.089000   
    974. A(H  22,C   9,C  33)          101.8878         0.089000   
    975. A(H  24,C   9,N  36)          121.4764         0.089000   
    976. A(H  23,C   9,N  36)          104.2114         0.089000   
    977. A(H  22,C   9,N  36)          101.6652         0.089000   
    978. A(N   1,C   9,N  36)           12.0162         0.089000   
    979. A(H  24,C   9,F  37)          118.4441         0.089000   
    980. A(H  23,C   9,F  37)          105.6961         0.089000   
    981. A(N   1,C   9,F  37)            8.9753         0.089000   
    982. A(H  24,C   9,F  32)          119.9949         0.089000   
    983. A(H  23,C   9,F  28)          103.6458         0.089000   
    984. A(H  24,C   9,C  31)          119.1619         0.089000   
    985. A(H  22,C   9,C  31)          103.9585         0.089000   
    986. A(N   1,C   9,C  31)            9.6198         0.089000   
    987. A(H  23,C   9,H  24)          109.9248         0.291395   
    988. A(H  22,C   9,H  24)          109.4615         0.291656   
    989. A(N   1,C   9,H  24)          109.5425         0.329700   
    990. A(H  22,C   9,H  23)          109.4370         0.291675   
    991. A(H  22,C   9,O  34)          100.7214         0.089000   
    992. A(H  24,C   9,S  35)          120.8766         0.089000   
    993. A(H  23,C   9,S  35)          104.0003         0.089000   
    994. A(H  22,C   9,S  35)          102.5456         0.089000   
    995. A(N   1,C   9,S  35)           11.3562         0.089000   
    996. A(H  24,C   9,O  27)          121.5485         0.089000   
    997. A(N   1,C   9,H  23)          109.4651         0.329722   
    998. A(H  23,C   9,O  27)          102.6015         0.089000   
    999. A(H  22,C   9,O  27)          103.2229         0.089000   
   1000. A(N   1,C   9,O  27)           12.0205         0.089000   
   1001. A(H  24,C   9,F  29)          118.4467         0.089000   
   1002. A(H  23,C   9,F  29)          104.4105         0.089000   
   1003. A(H  22,C   9,F  29)          104.7752         0.089000   
   1004. A(N   1,C   9,F  29)            8.9152         0.089000   
   1005. A(N   1,C   9,H  22)          108.9923         0.330033   
   1006. A(H  24,C   9,O  39)          120.5542         0.089000   
   1007. A(H  23,C   9,O  39)          105.0708         0.089000   
   1008. A(H  22,C   9,O  39)          101.7989         0.089000   
   1009. A(N   1,C   9,O  39)           11.1644         0.089000   
   1010. A(H  23,C   9,F  32)          104.6434         0.089000   
   1011. A(H  24,C   9,F  38)          121.2084         0.089000   
   1012. A(H  23,C   9,S  30)          103.2080         0.089000   
   1013. A(N   1,C   9,S  30)           12.6858         0.089000   
   1014. A(H  24,C   9,C  33)          121.2127         0.089000   
   1015. A(H  23,C   9,C  31)          104.4542         0.089000   
   1016. A(C   2,O  25,S  30)           83.6565         0.089000   
   1017. A(C   9,O  25,S  30)           85.1471         0.089000   
   1018. A(C   4,O  25,S  30)           84.2199         0.089000   
   1019. A(N   1,O  25,S  30)           85.1597         0.089000   
   1020. A(C   7,O  25,S  30)           86.2086         0.089000   
   1021. A(C   5,O  25,S  30)           84.1545         0.089000   
   1022. A(C   3,O  25,S  30)           84.2214         0.089000   
   1023. A(C   6,O  25,S  30)           85.8276         0.089000   
   1024. A(C   8,O  25,S  30)           84.7379         0.089000   
   1025. A(N   0,O  25,S  30)           84.5107         0.089000   
   1026. A(C   6,F  26,C  31)           45.3369         0.089000   
   1027. A(C   3,F  26,C  31)           44.1028         0.089000   
   1028. A(N   0,F  26,C  31)           44.1171         0.089000   
   1029. A(C   8,F  26,C  31)           45.2567         0.089000   
   1030. A(C   9,F  26,C  31)           44.8483         0.089000   
   1031. A(N   1,F  26,C  31)           44.8033         0.089000   
   1032. A(C   2,F  26,C  31)           43.2902         0.089000   
   1033. A(C   7,F  26,C  31)           45.7429         0.089000   
   1034. A(C   5,F  26,C  31)           43.8463         0.089000   
   1035. A(C   4,F  26,C  31)           44.4416         0.089000   
   1036. A(C   6,O  27,S  35)          107.0223         0.089000   
   1037. A(N   1,O  27,S  35)          106.8806         0.089000   
   1038. A(N   0,O  27,S  35)          106.2006         0.089000   
   1039. A(C   7,O  27,S  35)          107.4309         0.089000   
   1040. A(C   3,O  27,S  35)          106.7287         0.089000   
   1041. A(C   5,O  27,S  35)          106.1484         0.089000   
   1042. A(C   8,O  27,S  35)          108.7549         0.089000   
   1043. A(C   9,O  27,S  35)          107.0475         0.089000   
   1044. A(C   2,O  27,S  35)          105.5363         0.089000   
   1045. A(C   4,O  27,S  35)          107.5964         0.089000   
   1046. A(C   9,F  28,C  33)           30.3259         0.089000   
   1047. A(N   1,F  28,C  33)           30.1276         0.089000   
   1048. A(C   7,F  28,C  33)           30.3338         0.089000   
   1049. A(C   5,F  28,C  33)           29.7317         0.089000   
   1050. A(C   6,F  28,C  33)           30.0217         0.089000   
   1051. A(N   0,F  28,C  33)           29.6280         0.089000   
   1052. A(C   2,F  28,C  33)           29.2561         0.089000   
   1053. A(C   4,F  28,C  33)           31.6292         0.089000   
   1054. A(C   3,F  28,C  33)           30.4921         0.089000   
   1055. A(C   8,F  28,C  33)           32.8647         0.089000   
   1056. A(C   6,F  29,C   8)            5.0919         0.089000   
   1057. A(C   6,F  29,C  31)          140.7950         0.089000   
   1058. A(N   1,F  29,C  31)          139.8295         0.089000   
   1059. A(N   0,F  29,C  31)          139.4299         0.089000   
   1060. A(C   3,F  29,C  31)          138.0921         0.089000   
   1061. A(C   7,F  29,C   8)            5.1374         0.089000   
   1062. A(C   7,F  29,C  31)          141.0139         0.089000   
   1063. A(C   5,F  29,C  31)          138.8897         0.089000   
   1064. A(C   8,F  29,C  31)          136.2649         0.089000   
   1065. A(C   9,F  29,C  31)          139.6422         0.089000   
   1066. A(C   2,F  29,C  31)          138.6496         0.089000   
   1067. A(C   4,F  29,C  31)          136.9417         0.089000   
   1068. A(O  34,S  30,N  36)          111.0802         0.565869   
   1069. A(C  33,S  30,N  36)           98.9075         0.434206   
   1070. A(O  25,S  30,N  36)          116.9254         0.565938   
   1071. A(C   2,S  30,N  36)           39.2948         0.089000   
   1072. A(C   2,S  30,O  34)           99.5278         0.089000   
   1073. A(C   9,S  30,N  36)           40.4722         0.089000   
   1074. A(C   2,S  30,C  33)          137.7999         0.089000   
   1075. A(C   9,S  30,C  33)          138.7922         0.089000   
   1076. A(C   2,S  30,O  25)           94.8220         0.089000   
   1077. A(C   9,S  30,O  25)           93.4511         0.089000   
   1078. A(N   1,S  30,O  25)           93.4035         0.089000   
   1079. A(O  25,S  30,O  34)          118.8314         0.625675   
   1080. A(N   1,S  30,N  36)           40.2549         0.089000   
   1081. A(N   1,S  30,O  34)          100.1575         0.089000   
   1082. A(C   4,S  30,N  36)           41.7534         0.089000   
   1083. A(N   1,S  30,C  33)          138.5278         0.089000   
   1084. A(C   4,S  30,O  34)           97.5175         0.089000   
   1085. A(C   4,S  30,C  33)          140.4121         0.089000   
   1086. A(C   4,S  30,O  25)           94.2489         0.089000   
   1087. A(O  25,S  30,C  33)          104.3175         0.477500   
   1088. A(C   7,S  30,O  34)          101.2213         0.089000   
   1089. A(C   7,S  30,C  33)          138.4347         0.089000   
   1090. A(C   7,S  30,O  25)           92.3364         0.089000   
   1091. A(C   5,S  30,N  36)           39.8208         0.089000   
   1092. A(C   5,S  30,O  34)           99.4620         0.089000   
   1093. A(C   5,S  30,C  33)          138.2914         0.089000   
   1094. A(C   5,S  30,O  25)           94.3887         0.089000   
   1095. A(C   7,S  30,N  36)           40.4696         0.089000   
   1096. A(C   3,S  30,N  36)           40.5760         0.089000   
   1097. A(C   3,S  30,O  34)           98.8219         0.089000   
   1098. A(C   3,S  30,C  33)          139.1039         0.089000   
   1099. A(C   3,S  30,O  25)           94.2291         0.089000   
   1100. A(C   6,S  30,N  36)           40.1311         0.089000   
   1101. A(C   6,S  30,O  34)          101.1762         0.089000   
   1102. A(C  33,S  30,O  34)          103.2788         0.477444   
   1103. A(C   6,S  30,C  33)          138.1535         0.089000   
   1104. A(C   6,S  30,O  25)           92.6837         0.089000   
   1105. A(C   8,S  30,N  36)           43.0342         0.089000   
   1106. A(C   8,S  30,O  34)           96.7548         0.089000   
   1107. A(C   8,S  30,C  33)          141.7183         0.089000   
   1108. A(C   8,S  30,O  25)           93.7026         0.089000   
   1109. A(N   0,S  30,N  36)           39.7089         0.089000   
   1110. A(N   0,S  30,O  34)          100.0479         0.089000   
   1111. A(N   0,S  30,C  33)          138.0655         0.089000   
   1112. A(N   0,S  30,O  25)           93.9999         0.089000   
   1113. A(C   9,S  30,O  34)           99.8579         0.089000   
   1114. A(C   5,C  31,S  35)           71.4417         0.089000   
   1115. A(C   5,C  31,F  29)           40.1779         0.089000   
   1116. A(C   5,C  31,F  26)          135.1784         0.089000   
   1117. A(F  29,C  31,F  37)          107.6698         0.423380   
   1118. A(F  26,C  31,F  37)          108.0713         0.426052   
   1119. A(C   2,C  31,F  37)          111.1938         0.089000   
   1120. A(C   2,C  31,S  35)           71.4169         0.089000   
   1121. A(C   2,C  31,F  29)           40.3694         0.089000   
   1122. A(C   2,C  31,F  26)          135.6989         0.089000   
   1123. A(F  29,C  31,S  35)          109.7546         0.394361   
   1124. A(F  26,C  31,S  35)          112.0510         0.396802   
   1125. A(C   4,C  31,F  37)          113.4225         0.089000   
   1126. A(C   4,C  31,S  35)           69.1426         0.089000   
   1127. A(C   4,C  31,F  29)           42.0415         0.089000   
   1128. A(C   4,C  31,F  26)          134.5231         0.089000   
   1129. A(C   9,C  31,F  37)          112.4340         0.089000   
   1130. A(C   9,C  31,S  35)           71.8921         0.089000   
   1131. A(C   9,C  31,F  29)           39.4768         0.089000   
   1132. A(C   9,C  31,F  26)          134.1990         0.089000   
   1133. A(F  26,C  31,F  29)          107.8808         0.424983   
   1134. A(C   6,C  31,F  37)          112.3861         0.089000   
   1135. A(C   6,C  31,S  35)           73.0456         0.089000   
   1136. A(C   6,C  31,F  29)           38.2895         0.089000   
   1137. A(C   6,C  31,F  26)          133.6402         0.089000   
   1138. A(N   0,C  31,F  37)          111.7260         0.089000   
   1139. A(N   0,C  31,S  35)           71.9615         0.089000   
   1140. A(N   0,C  31,F  29)           39.6266         0.089000   
   1141. A(N   0,C  31,F  26)          134.8802         0.089000   
   1142. A(C   3,C  31,F  37)          112.4663         0.089000   
   1143. A(C   3,C  31,S  35)           70.5141         0.089000   
   1144. A(C   3,C  31,F  29)           40.8993         0.089000   
   1145. A(C   3,C  31,F  26)          134.8537         0.089000   
   1146. A(C   8,C  31,F  37)          114.6645         0.089000   
   1147. A(C   8,C  31,S  35)           68.1992         0.089000   
   1148. A(C   8,C  31,F  29)           42.6880         0.089000   
   1149. A(N   1,C  31,F  37)          112.2904         0.089000   
   1150. A(C   8,C  31,F  26)          133.6752         0.089000   
   1151. A(N   1,C  31,S  35)           72.1330         0.089000   
   1152. A(N   1,C  31,F  29)           39.2699         0.089000   
   1153. A(N   1,C  31,F  26)          134.2199         0.089000   
   1154. A(C   7,C  31,F  37)          112.7243         0.089000   
   1155. A(C   7,C  31,S  35)           73.1332         0.089000   
   1156. A(C   7,C  31,F  29)           38.0967         0.089000   
   1157. A(C   7,C  31,F  26)          133.2517         0.089000   
   1158. A(S  35,C  31,F  37)          111.2534         0.395334   
   1159. A(C   5,C  31,F  37)          111.6942         0.089000   
   1160. A(C   3,F  32,C  33)           91.2934         0.089000   
   1161. A(C   8,F  32,C  33)           89.0683         0.089000   
   1162. A(C   9,F  32,C  33)           92.4711         0.089000   
   1163. A(N   1,F  32,C  33)           92.7260         0.089000   
   1164. A(C   7,F  32,C  33)           93.6568         0.089000   
   1165. A(C   5,F  32,C  33)           92.1124         0.089000   
   1166. A(C   6,F  32,C  33)           93.6099         0.089000   
   1167. A(N   0,F  32,C  33)           92.6207         0.089000   
   1168. A(C   2,F  32,C  33)           92.1499         0.089000   
   1169. A(C   4,F  32,C  33)           89.9697         0.089000   
   1170. A(C   3,C  33,F  38)           92.5043         0.089000   
   1171. A(C   3,C  33,F  32)           87.2950         0.089000   
   1172. A(C   3,C  33,S  30)           39.6085         0.089000   
   1173. A(C   3,C  33,F  28)          148.7885         0.089000   
   1174. A(C   8,C  33,F  38)           93.2282         0.089000   
   1175. A(C   8,C  33,F  32)           89.5137         0.089000   
   1176. A(C   8,C  33,S  30)           37.0579         0.089000   
   1177. A(C   8,C  33,F  28)          146.3625         0.089000   
   1178. A(C   9,C  33,F  38)           93.1350         0.089000   
   1179. A(C   9,C  33,F  32)           86.2514         0.089000   
   1180. A(N   1,C  33,F  38)           93.1700         0.089000   
   1181. A(N   1,C  33,F  32)           85.9654         0.089000   
   1182. A(N   1,C  33,S  30)           40.2638         0.089000   
   1183. A(N   1,C  33,F  28)          149.2121         0.089000   
   1184. A(C   7,C  33,F  38)           94.1634         0.089000   
   1185. A(C   7,C  33,F  32)           85.0214         0.089000   
   1186. A(C   7,C  33,S  30)           40.3413         0.089000   
   1187. A(C   7,C  33,F  28)          148.9945         0.089000   
   1188. A(C   5,C  33,F  38)           92.2409         0.089000   
   1189. A(C   5,C  33,F  32)           86.5585         0.089000   
   1190. A(C   5,C  33,S  30)           40.4759         0.089000   
   1191. A(C   5,C  33,F  28)          149.6059         0.089000   
   1192. A(S  30,C  33,F  32)          111.6981         0.396695   
   1193. A(F  28,C  33,F  32)          107.7419         0.424119   
   1194. A(F  28,C  33,S  30)          109.4217         0.395257   
   1195. A(C   6,C  33,F  38)           93.8275         0.089000   
   1196. A(C   6,C  33,F  32)           85.0376         0.089000   
   1197. A(C   6,C  33,S  30)           40.5872         0.089000   
   1198. A(C   6,C  33,F  28)          149.2975         0.089000   
   1199. A(N   0,C  33,F  38)           92.5953         0.089000   
   1200. A(N   0,C  33,F  32)           86.0223         0.089000   
   1201. A(N   0,C  33,S  30)           40.6700         0.089000   
   1202. A(N   0,C  33,F  28)          149.6976         0.089000   
   1203. A(C   9,C  33,S  30)           40.0343         0.089000   
   1204. A(C   9,C  33,F  28)          149.0257         0.089000   
   1205. A(C   2,C  33,F  38)           91.8220         0.089000   
   1206. A(C   2,C  33,F  32)           86.4619         0.089000   
   1207. A(C   2,C  33,S  30)           40.9004         0.089000   
   1208. A(C   2,C  33,F  28)          150.0622         0.089000   
   1209. A(C   4,C  33,F  38)           92.5955         0.089000   
   1210. A(C   4,C  33,F  32)           88.6353         0.089000   
   1211. A(C   4,C  33,S  30)           38.3497         0.089000   
   1212. A(C   4,C  33,F  28)          147.6362         0.089000   
   1213. A(F  32,C  33,F  38)          108.0587         0.425792   
   1214. A(S  30,C  33,F  38)          112.0268         0.396786   
   1215. A(F  28,C  33,F  38)          107.7230         0.424218   
   1216. A(C   2,O  34,S  30)           78.9694         0.089000   
   1217. A(C   9,O  34,S  30)           78.7621         0.089000   
   1218. A(C   4,O  34,S  30)           80.9624         0.089000   
   1219. A(N   1,O  34,S  30)           78.4297         0.089000   
   1220. A(C   7,O  34,S  30)           77.3557         0.089000   
   1221. A(C   5,O  34,S  30)           79.0998         0.089000   
   1222. A(C   3,O  34,S  30)           79.6458         0.089000   
   1223. A(C   6,O  34,S  30)           77.3671         0.089000   
   1224. A(N   0,O  34,S  30)           78.4858         0.089000   
   1225. A(C   8,O  34,S  30)           81.6953         0.089000   
   1226. A(C   3,S  35,O  39)           48.3568         0.089000   
   1227. A(C   3,S  35,N  36)          144.0800         0.089000   
   1228. A(C   3,S  35,C  31)          107.4850         0.089000   
   1229. A(C   3,S  35,O  27)           71.7074         0.089000   
   1230. A(C  31,S  35,N  36)          104.4585         0.435114   
   1231. A(O  27,S  35,N  36)          115.6983         0.568721   
   1232. A(C   8,S  35,O  39)           49.9949         0.089000   
   1233. A(C   8,S  35,N  36)          142.7254         0.089000   
   1234. A(C   7,S  35,O  39)           49.5183         0.089000   
   1235. A(C   7,S  35,N  36)          146.7848         0.089000   
   1236. A(C   8,S  35,C  31)          109.8214         0.089000   
   1237. A(C   7,S  35,C  31)          104.9696         0.089000   
   1238. A(C   7,S  35,O  27)           71.1138         0.089000   
   1239. A(C   8,S  35,O  27)           69.6920         0.089000   
   1240. A(O  27,S  35,C  31)          104.0490         0.476738   
   1241. A(C   5,S  35,O  39)           47.8410         0.089000   
   1242. A(C   5,S  35,N  36)          144.5290         0.089000   
   1243. A(C   5,S  35,C  31)          106.6713         0.089000   
   1244. A(C   5,S  35,O  27)           72.3805         0.089000   
   1245. A(C   2,S  35,O  39)           47.3100         0.089000   
   1246. A(C   2,S  35,N  36)          144.3179         0.089000   
   1247. A(C   2,S  35,C  31)          106.6064         0.089000   
   1248. A(C   2,S  35,O  27)           72.9177         0.089000   
   1249. A(C   4,S  35,O  39)           48.9510         0.089000   
   1250. A(C   9,S  35,O  39)           48.7665         0.089000   
   1251. A(C   4,S  35,N  36)          143.1087         0.089000   
   1252. A(C   9,S  35,N  36)          145.3005         0.089000   
   1253. A(C   9,S  35,C  31)          106.2938         0.089000   
   1254. A(C   9,S  35,O  27)           71.5484         0.089000   
   1255. A(C   4,S  35,C  31)          108.9001         0.089000   
   1256. A(C   4,S  35,O  27)           70.8674         0.089000   
   1257. A(C   6,S  35,O  39)           49.1340         0.089000   
   1258. A(C   6,S  35,N  36)          146.5653         0.089000   
   1259. A(C   6,S  35,C  31)          105.0110         0.089000   
   1260. A(C   6,S  35,O  27)           71.4830         0.089000   
   1261. A(N  36,S  35,O  39)          108.6196         0.568743   
   1262. A(C  31,S  35,O  39)          102.7685         0.476756   
   1263. A(N   0,S  35,O  39)           48.0526         0.089000   
   1264. A(N   0,S  35,N  36)          145.1156         0.089000   
   1265. A(N   0,S  35,C  31)          106.1023         0.089000   
   1266. A(N   0,S  35,O  27)           72.2949         0.089000   
   1267. A(O  27,S  35,O  39)          119.1811         0.626437   
   1268. A(N   1,S  35,O  39)           48.7013         0.089000   
   1269. A(N   1,S  35,N  36)          145.5174         0.089000   
   1270. A(N   1,S  35,C  31)          106.0027         0.089000   
   1271. A(N   1,S  35,O  27)           71.6772         0.089000   
   1272. A(S  30,N  36,S  35)          127.5654         0.515000   
   1273. A(C   6,N  36,S  35)           32.5147         0.089000   
   1274. A(C   6,N  36,S  30)          138.7885         0.089000   
   1275. A(N   0,N  36,S  35)           33.9270         0.089000   
   1276. A(N   0,N  36,S  30)          139.2174         0.089000   
   1277. A(C   3,N  36,S  35)           34.8971         0.089000   
   1278. A(C   3,N  36,S  30)          138.2854         0.089000   
   1279. A(C   9,N  36,S  35)           33.8049         0.089000   
   1280. A(C   9,N  36,S  30)          138.5037         0.089000   
   1281. A(C   8,N  36,S  35)           36.2136         0.089000   
   1282. A(C   8,N  36,S  30)          135.7655         0.089000   
   1283. A(N   1,N  36,S  35)           33.5701         0.089000   
   1284. A(N   1,N  36,S  30)          138.6995         0.089000   
   1285. A(C   7,N  36,S  35)           32.3223         0.089000   
   1286. A(C   7,N  36,S  30)          138.4682         0.089000   
   1287. A(C   2,N  36,S  35)           34.6824         0.089000   
   1288. A(C   2,N  36,S  30)          139.6155         0.089000   
   1289. A(C   5,N  36,S  35)           34.5208         0.089000   
   1290. A(C   5,N  36,S  30)          139.1264         0.089000   
   1291. A(C   4,N  36,S  35)           35.8578         0.089000   
   1292. A(C   4,N  36,S  30)          137.0955         0.089000   
   1293. A(C   6,F  37,C  31)           66.2914         0.089000   
   1294. A(N   0,F  37,C  31)           66.9429         0.089000   
   1295. A(C   3,F  37,C  31)           66.1564         0.089000   
   1296. A(C   9,F  37,C  31)           66.3234         0.089000   
   1297. A(C   8,F  37,C  31)           63.9782         0.089000   
   1298. A(N   1,F  37,C  31)           66.4335         0.089000   
   1299. A(C   7,F  37,C  31)           65.9880         0.089000   
   1300. A(C   2,F  37,C  31)           67.4387         0.089000   
   1301. A(C   5,F  37,C  31)           67.0041         0.089000   
   1302. A(C   4,F  37,C  31)           65.2291         0.089000   
   1303. A(C   8,F  38,C  33)           85.3587         0.089000   
   1304. A(C   9,F  38,C  33)           85.5903         0.089000   
   1305. A(N   1,F  38,C  33)           85.5243         0.089000   
   1306. A(C   7,F  38,C  33)           84.5186         0.089000   
   1307. A(C   5,F  38,C  33)           86.4320         0.089000   
   1308. A(C   6,F  38,C  33)           84.8232         0.089000   
   1309. A(N   0,F  38,C  33)           86.0499         0.089000   
   1310. A(C   2,F  38,C  33)           86.7914         0.089000   
   1311. A(C   4,F  38,C  33)           86.0132         0.089000   
   1312. A(C   3,F  38,C  33)           86.0875         0.089000   
   1313. A(C   2,O  39,S  35)          131.4881         0.089000   
   1314. A(C   6,O  39,C   8)            5.0222         0.089000   
   1315. A(C   6,O  39,S  35)          129.6627         0.089000   
   1316. A(C   4,O  39,S  35)          129.8112         0.089000   
   1317. A(N   1,O  39,S  35)          130.1467         0.089000   
   1318. A(N   0,O  39,S  35)          130.7608         0.089000   
   1319. A(C   7,O  39,S  35)          129.3015         0.089000   
   1320. A(C   3,O  39,S  35)          130.3997         0.089000   
   1321. A(C   5,O  39,S  35)          131.0033         0.089000   
   1322. A(C   8,O  39,S  35)          128.7255         0.089000   
   1323. A(C   9,O  39,S  35)          130.1103         0.089000   
   1324. D(C   3,C   2,N   0,C   6)     71.1720         0.035850   
   1325. D(C   3,C   2,N   0,C   5)   -105.1643         0.035850   
   1326. D(H  10,C   2,N   0,C   5)     16.8248         0.035850   
   1327. D(C   4,C   3,C   2,H  10)    -57.6742         0.025830   
   1328. D(H  12,C   3,C   2,N   0)    -62.4636         0.025830   
   1329. D(C   4,C   3,C   2,N   0)     61.7223         0.025830   
   1330. D(C   8,C   4,C   3,C   2)    177.0213         0.025413   
   1331. D(C   8,C   4,C   3,H  12)    -59.1326         0.025413   
   1332. D(H  14,C   4,C   3,C   2)    -61.3200         0.025413   
   1333. D(H  16,C   5,N   1,C   7)    179.8541         0.109054   
   1334. D(N   1,C   5,N   0,C   6)      0.2768         0.113022   
   1335. D(H  16,C   5,N   0,C   2)     -2.8689         0.113022   
   1336. D(N   1,C   5,N   0,C   2)    177.1410         0.113022   
   1337. D(N   0,C   5,N   1,C   9)    179.4188         0.109054   
   1338. D(N   0,C   5,N   1,C   7)     -0.1558         0.109054   
   1339. D(C   7,C   6,N   0,C   5)     -0.2905         0.077612   
   1340. D(H  17,C   6,N   0,C   2)      3.1934         0.077612   
   1341. D(C   7,C   6,N   0,C   2)   -177.1598         0.077612   
   1342. D(N   1,C   7,C   6,N   0)      0.1919         0.094039   
   1343. D(H  18,C   7,C   6,N   0)   -179.3737         0.094039   
   1344. D(C   6,C   7,N   1,C   5)     -0.0272         0.075844   
   1345. D(H  18,C   7,N   1,C   5)    179.5846         0.075844   
   1346. D(N   1,C   7,C   6,H  17)    179.7980         0.094039   
   1347. D(C   6,C   7,N   1,C   9)   -179.6029         0.075844   
   1348. D(H  19,C   8,C   4,H  14)    -62.1169         0.025508   
   1349. D(H  20,C   8,C   4,C   3)    -60.1062         0.025508   
   1350. D(H  19,C   8,C   4,C   3)     59.9676         0.025508   
   1351. D(H  22,C   9,N   1,C   7)   -179.1573         0.038629   
   1352. D(H  23,C   9,N   1,C   5)    121.0035         0.038629   
   1353. D(H  22,C   9,N   1,C   5)      1.3399         0.038629   
   1354. D(S  30,O  25,N   0,C   2)      8.1274         0.001500   
   1355. D(S  30,O  25,C   7,N   1)     30.1899         0.001500   
   1356. D(S  30,O  25,C   7,C   6)    -21.2914         0.001500   
   1357. D(S  30,O  25,C   8,C   4)    -66.3782         0.001500   
   1358. D(S  30,O  25,C   5,N   0)   -128.3111         0.001500   
   1359. D(S  30,O  25,C   9,H  22)     27.0805         0.001500   
   1360. D(S  30,O  25,C   6,N   0)     22.2444         0.001500   
   1361. D(S  30,O  25,N   1,C   7)   -149.7640         0.001500   
   1362. D(S  30,O  25,C   3,C   2)    -63.9516         0.001500   
   1363. D(S  30,O  25,C   8,H  19)   -169.6169         0.001500   
   1364. D(S  30,O  25,C   4,C   3)    -89.9797         0.001500   
   1365. D(S  30,O  25,N   0,C   5)     51.6442         0.001500   
   1366. D(S  30,O  25,C   3,C   4)     89.8694         0.001500   
   1367. D(S  30,O  25,C   5,N   1)   -167.0207         0.001500   
   1368. D(S  30,O  25,C   2,C   3)    115.9254         0.001500   
   1369. D(S  30,O  25,C   4,C   8)    113.5070         0.001500   
   1370. D(S  30,O  25,C   2,N   0)   -171.8599         0.001500   
   1371. D(S  30,O  25,C   9,N   1)    -92.2639         0.001500   
   1372. D(S  30,O  25,N   1,C   5)     12.9576         0.001500   
   1373. D(S  30,O  25,C   6,C   7)    158.6983         0.001500   
   1374. D(C  31,F  26,C   6,N   0)     32.6509         0.001500   
   1375. D(C  31,F  26,C   4,C   8)    126.0511         0.001500   
   1376. D(C  31,F  26,C   4,C   3)    -76.0253         0.001500   
   1377. D(C  31,F  26,C   5,N   0)   -120.4733         0.001500   
   1378. D(C  31,F  26,C   3,C   2)    -52.7611         0.001500   
   1379. D(C  31,F  26,C   5,N   1)   -153.3449         0.001500   
   1380. D(C  31,F  26,C   2,C   3)    126.0966         0.001500   
   1381. D(C  31,F  26,C   3,C   4)    102.4974         0.001500   
   1382. D(C  31,F  26,N   1,C   7)   -140.1447         0.001500   
   1383. D(C  31,F  26,C   2,N   0)   -156.2131         0.001500   
   1384. D(C  31,F  26,N   0,C   2)     23.4090         0.001500   
   1385. D(C  31,F  26,N   1,C   5)     26.1685         0.001500   
   1386. D(C  31,F  26,N   0,C   5)     59.0543         0.001500   
   1387. D(C  31,F  26,C   8,C   4)    -52.8457         0.001500   
   1388. D(C  31,F  26,C   8,H  19)   -155.9503         0.001500   
   1389. D(C  31,F  26,C   7,C   6)     -1.4988         0.001500   
   1390. D(C  31,F  26,C   7,N   1)     39.0888         0.001500   
   1391. D(C  31,F  26,C   9,N   1)    -79.6197         0.001500   
   1392. D(C  31,F  26,C   9,H  22)     37.6928         0.001500   
   1393. D(C  31,F  26,C   6,C   7)    178.4907         0.001500   
   1394. D(S  35,O  27,C   6,C   7)   -165.1579         0.001500   
   1395. D(S  35,O  27,C   7,N   1)     64.7404         0.001500   
   1396. D(S  35,O  27,C   6,N   0)     57.1237         0.001500   
   1397. D(S  35,O  27,C   9,H  22)     61.3004         0.001500   
   1398. D(S  35,O  27,C   5,N   0)    -95.0829         0.001500   
   1399. D(S  35,O  27,C   7,C   6)     14.8757         0.001500   
   1400. D(S  35,O  27,C   8,C   4)    -33.5111         0.001500   
   1401. D(S  35,O  27,C   8,H  19)   -136.8938         0.001500   
   1402. D(S  35,O  27,C   9,N   1)    -58.8129         0.001500   
   1403. D(S  35,O  27,C   4,C   3)    -56.6805         0.001500   
   1404. D(S  35,O  27,C   2,C   3)    150.0413         0.001500   
   1405. D(S  35,O  27,C   2,N   0)   -136.7738         0.001500   
   1406. D(S  35,O  27,N   1,C   7)   -115.6167         0.001500   
   1407. D(S  35,O  27,C   3,C   2)    -30.1583         0.001500   
   1408. D(S  35,O  27,N   1,C   5)     47.8988         0.001500   
   1409. D(S  35,O  27,C   3,C   4)    123.7241         0.001500   
   1410. D(S  35,O  27,N   0,C   5)     85.0903         0.001500   
   1411. D(S  35,O  27,C   4,C   8)    146.7395         0.001500   
   1412. D(S  35,O  27,C   5,N   1)   -132.3405         0.001500   
   1413. D(S  35,O  27,N   0,C   2)     43.4042         0.001500   
   1414. D(C  33,F  28,C   8,H  19)   -114.8154         0.001500   
   1415. D(C  33,F  28,C   7,C   6)     28.1106         0.001500   
   1416. D(C  33,F  28,C   6,N   0)     72.0400         0.001500   
   1417. D(C  33,F  28,C   7,N   1)     78.8996         0.001500   
   1418. D(C  33,F  28,C   5,N   1)   -113.3629         0.001500   
   1419. D(C  33,F  28,C   9,H  22)     78.5267         0.001500   
   1420. D(C  33,F  28,C   3,C   4)    142.5486         0.001500   
   1421. D(C  33,F  28,C   9,N   1)    -47.7215         0.001500   
   1422. D(C  33,F  28,N   1,C   7)    -99.1159         0.001500   
   1423. D(C  33,F  28,C   2,N   0)   -117.3832         0.001500   
   1424. D(C  33,F  28,N   0,C   5)    100.1329         0.001500   
   1425. D(C  33,F  28,N   0,C   2)     61.3777         0.001500   
   1426. D(C  33,F  28,N   1,C   5)     65.1022         0.001500   
   1427. D(C  33,F  28,C   5,N   0)    -78.8966         0.001500   
   1428. D(C  33,F  28,C   4,C   8)    169.3184         0.001500   
   1429. D(C  33,F  28,C   8,C   4)    -10.3186         0.001500   
   1430. D(C  33,F  28,C   4,C   3)    -36.0418         0.001500   
   1431. D(C  33,F  28,C   2,C   3)    170.0827         0.001500   
   1432. D(C  33,F  28,C   3,C   2)     -9.5482         0.001500   
   1433. D(C  33,F  28,C   6,C   7)   -151.6009         0.001500   
   1434. D(C  31,F  29,N   1,C   7)    160.1903         0.001500   
   1435. D(C  31,F  29,C   6,C   7)    122.6650         0.001500   
   1436. D(C  31,F  29,C   4,C   3)   -139.6172         0.001500   
   1437. D(C  31,F  29,C   4,C   8)     62.6033         0.001500   
   1438. D(C  31,F  29,C   5,N   0)    178.5468         0.001500   
   1439. D(C  31,F  29,C   3,C   4)     41.4719         0.001500   
   1440. D(C  31,F  29,C   5,N   1)    148.4990         0.001500   
   1441. D(C  31,F  29,C   3,C   2)   -113.6677         0.001500   
   1442. D(C  31,F  29,C   6,N   0)    -25.7352         0.001500   
   1443. D(C  31,F  29,C   2,C   3)     67.8154         0.001500   
   1444. D(C  31,F  29,C   7,N   1)    -20.3333         0.001500   
   1445. D(C  31,F  29,C   7,C   6)    -57.7586         0.001500   
   1446. D(C   8,F  29,C   6,N   0)    -54.2685         0.001500   
   1447. D(C  31,F  29,N   1,C   5)    -32.1810         0.001500   
   1448. D(C  31,F  29,C   2,N   0)    146.9356         0.001500   
   1449. D(C  31,F  29,N   0,C   5)     -1.4692         0.001500   
   1450. D(C  31,F  29,N   0,C   2)    -33.6562         0.001500   
   1451. D(C  31,F  29,C   9,H  22)    -22.0770         0.001500   
   1452. D(C  31,F  29,C   9,N   1)   -141.4483         0.001500   
   1453. D(C   6,F  29,C   8,C   4)     35.3646         0.001500   
   1454. D(C  31,F  29,C   8,H  19)    137.8129         0.001500   
   1455. D(C  31,F  29,C   8,C   4)   -118.7390         0.001500   
   1456. D(C   8,F  29,C   7,N   1)    -43.9131         0.001500   
   1457. D(O  34,S  30,O  25,C   8)    -99.7975         0.125383   
   1458. D(C  33,S  30,O  25,C   3)    143.2383         0.125383   
   1459. D(C  33,S  30,O  25,C   8)    145.9294         0.125383   
   1460. D(C  33,S  30,C   9,N   1)    -34.9193         0.001500   
   1461. D(O  25,S  30,C   9,H  22)   -153.0607         0.001500   
   1462. D(O  25,S  30,C   9,N   1)     81.4995         0.001500   
   1463. D(C  33,S  30,C   8,C   4)     -4.1226         0.001500   
   1464. D(O  25,S  30,C   4,C   3)     89.2963         0.001500   
   1465. D(O  25,S  30,C   7,C   6)    156.8180         0.001500   
   1466. D(C  33,S  30,C   5,N   0)    -68.0315         0.001500   
   1467. D(O  25,S  30,C   6,N   0)   -157.7009         0.001500   
   1468. D(O  25,S  30,C   6,C   7)    -23.1885         0.001500   
   1469. D(O  25,S  30,C   5,N   1)     13.2570         0.001500   
   1470. D(C  33,S  30,C   6,N   0)     87.2479         0.001500   
   1471. D(O  25,S  30,C   5,N   0)     49.2839         0.001500   
   1472. D(O  25,S  30,C   7,N   1)   -150.1906         0.001500   
   1473. D(C  33,S  30,C   4,C   3)    -29.3219         0.001500   
   1474. D(O  25,S  30,C   8,C   4)    114.6933         0.001500   
   1475. D(O  25,S  30,C   8,H  19)     10.2957         0.001500   
   1476. D(C  33,S  30,C   7,N   1)     95.0348         0.001500   
   1477. D(C  33,S  30,C   3,C   2)     -0.5679         0.001500   
   1478. D(O  25,S  30,C   3,C   4)    -90.8144         0.001500   
   1479. D(O  25,S  30,C   3,C   2)    117.0865         0.001500   
   1480. D(O  25,S  30,C   4,C   8)    -65.3894         0.001500   
   1481. D(C  33,S  30,C   2,N   0)   -109.0767         0.001500   
   1482. D(O  25,S  30,C   2,N   0)      8.4713         0.001500   
   1483. D(O  25,S  30,N   1,C   5)   -166.7588         0.001500   
   1484. D(O  25,S  30,N   1,C   7)     29.8401         0.001500   
   1485. D(C  33,S  30,N   0,C   2)     71.7959         0.001500   
   1486. D(O  25,S  30,C   2,C   3)    -63.0054         0.001500   
   1487. D(O  25,S  30,N   0,C   5)   -130.7492         0.001500   
   1488. D(O  25,S  30,N   0,C   2)   -171.5381         0.001500   
   1489. D(C  33,S  30,N   1,C   5)     77.0505         0.001500   
   1490. D(S  35,C  31,F  29,C   8)    -13.7473         0.114717   
   1491. D(F  26,C  31,F  29,C   3)   -139.4162         0.114717   
   1492. D(F  26,C  31,F  29,C   8)   -136.0923         0.114717   
   1493. D(S  35,C  31,F  26,C   8)    -80.3719         0.124160   
   1494. D(F  29,C  31,C   9,N   1)     35.3070         0.001500   
   1495. D(F  26,C  31,C   9,H  22)   -142.4558         0.001500   
   1496. D(F  26,C  31,C   9,N   1)     94.8436         0.001500   
   1497. D(F  29,C  31,F  26,C   3)     36.9301         0.124160   
   1498. D(F  29,C  31,C   8,C   4)     61.8734         0.001500   
   1499. D(F  26,C  31,C   8,H  19)     23.9041         0.001500   
   1500. D(F  29,C  31,F  26,C   8)     40.5492         0.124160   
   1501. D(F  29,C  31,C   7,N   1)    159.8417         0.001500   
   1502. D(F  26,C  31,C   7,N   1)   -141.2697         0.001500   
   1503. D(F  26,C  31,C   5,N   1)     27.0072         0.001500   
   1504. D(F  26,C  31,C   6,N   0)   -147.3124         0.001500   
   1505. D(F  29,C  31,C   5,N   0)     -1.3963         0.001500   
   1506. D(F  29,C  31,C   6,N   0)    154.2382         0.001500   
   1507. D(F  26,C  31,C   5,N   0)     57.5044         0.001500   
   1508. D(F  29,C  31,C   4,C   3)     40.0183         0.001500   
   1509. D(F  26,C  31,C   4,C   8)    -53.3523         0.001500   
   1510. D(F  26,C  31,C   7,C   6)    178.4061         0.001500   
   1511. D(F  26,C  31,C   6,C   7)     -1.6041         0.001500   
   1512. D(F  26,C  31,C   4,C   3)    103.4278         0.001500   
   1513. D(F  26,C  31,C   8,C   4)    127.7306         0.001500   
   1514. D(F  29,C  31,C   3,C   2)     66.9500         0.001500   
   1515. D(F  26,C  31,C   3,C   4)    -78.0233         0.001500   
   1516. D(F  26,C  31,C   3,C   2)    127.8019         0.001500   
   1517. D(F  26,C  31,N   0,C   2)   -155.9915         0.001500   
   1518. D(F  29,C  31,N   1,C   5)    147.4174         0.001500   
   1519. D(F  26,C  31,N   1,C   5)   -153.4712         0.001500   
   1520. D(F  29,C  31,N   0,C   2)    145.5561         0.001500   
   1521. D(F  26,C  31,N   1,C   7)     39.4833         0.001500   
   1522. D(F  26,C  31,N   0,C   5)   -122.9600         0.001500   
   1523. D(F  26,C  31,C   2,C   3)    -53.3207         0.001500   
   1524. D(F  29,C  31,C   2,N   0)    -33.8435         0.001500   
   1525. D(F  26,C  31,C   2,N   0)     24.3801         0.001500   
   1526. D(C  33,F  32,C   9,H  22)    -40.7519         0.001500   
   1527. D(C  33,F  32,C   9,N   1)   -167.6746         0.001500   
   1528. D(C  33,F  32,C   8,H  19)    122.1176         0.001500   
   1529. D(C  33,F  32,C   7,C   6)    -82.3474         0.001500   
   1530. D(C  33,F  32,C   7,N   1)    -38.5375         0.001500   
   1531. D(C  33,F  32,C   6,C   7)     97.6747         0.001500   
   1532. D(C  33,F  32,C   6,N   0)    -44.7200         0.001500   
   1533. D(C  33,F  32,C   5,N   1)    128.0117         0.001500   
   1534. D(C  33,F  32,C   4,C   8)     46.5433         0.001500   
   1535. D(C  33,F  32,C   2,N   0)    125.0591         0.001500   
   1536. D(C  33,F  32,C   3,C   2)   -130.9197         0.001500   
   1537. D(C  33,F  32,C   2,C   3)     49.1100         0.001500   
   1538. D(C  33,F  32,C   3,C   4)     21.8854         0.001500   
   1539. D(C  33,F  32,N   1,C   7)    141.5038         0.001500   
   1540. D(C  33,F  32,C   4,C   3)   -158.1204         0.001500   
   1541. D(C  33,F  32,C   8,C   4)   -133.4487         0.001500   
   1542. D(C  33,F  32,C   5,N   0)    158.6174         0.001500   
   1543. D(C  33,F  32,N   1,C   5)    -52.0215         0.001500   
   1544. D(C  33,F  32,N   0,C   5)    -21.3908         0.001500   
   1545. D(C  33,F  32,N   0,C   2)    -54.9689         0.001500   
   1546. D(S  30,C  33,F  28,C   3)     -6.0063         0.115117   
   1547. D(S  30,C  33,F  28,C   8)     -3.9317         0.115117   
   1548. D(S  30,C  33,C   9,N   1)    141.8533         0.001500   
   1549. D(F  28,C  33,C   9,N   1)    129.9719         0.001500   
   1550. D(S  30,C  33,C   8,C   4)    175.9410         0.001500   
   1551. D(F  28,C  33,C   8,H  19)     64.9792         0.001500   
   1552. D(S  30,C  33,C   7,N   1)    -85.5877         0.001500   
   1553. D(F  28,C  33,C   7,C   6)   -150.6828         0.001500   
   1554. D(F  28,C  33,C   7,N   1)   -101.4382         0.001500   
   1555. D(S  30,C  33,C   6,N   0)    -92.6143         0.001500   
   1556. D(F  28,C  33,C   6,C   7)     29.6037         0.001500   
   1557. D(F  28,C  33,C   6,N   0)   -107.8899         0.001500   
   1558. D(S  30,C  33,C   5,N   0)    109.5292         0.001500   
   1559. D(F  28,C  33,C   5,N   1)     67.1647         0.001500   
   1560. D(F  28,C  33,C   5,N   0)     99.7150         0.001500   
   1561. D(S  30,C  33,C   4,C   3)    150.3831         0.001500   
   1562. D(F  28,C  33,C   4,C   8)    -10.5791         0.001500   
   1563. D(F  28,C  33,C   4,C   3)    143.7461         0.001500   
   1564. D(S  30,C  33,C   3,C   2)    179.4412         0.001500   
   1565. D(F  28,C  33,C   3,C   4)    -37.6526         0.001500   
   1566. D(F  28,C  33,C   3,C   2)    170.5367         0.001500   
   1567. D(S  30,C  33,C   2,N   0)     72.8544         0.001500   
   1568. D(F  28,C  33,C   2,C   3)     -9.8297         0.001500   
   1569. D(F  28,C  33,C   8,C   4)    169.7808         0.001500   
   1570. D(F  28,C  33,C   2,N   0)     63.5688         0.001500   
   1571. D(S  30,C  33,N   1,C   5)   -101.8914         0.001500   
   1572. D(F  28,C  33,N   1,C   7)     80.5327         0.001500   
   1573. D(F  28,C  33,C   9,H  22)   -101.6077         0.001500   
   1574. D(F  28,C  33,N   1,C   5)   -114.3599         0.001500   
   1575. D(S  30,C  33,N   0,C   2)   -106.2555         0.001500   
   1576. D(F  28,C  33,N   0,C   5)    -81.2490         0.001500   
   1577. D(F  32,C  33,F  28,C   8)    117.6966         0.115117   
   1578. D(F  28,C  33,N   0,C   2)   -117.6619         0.001500   
   1579. D(S  30,C  33,F  32,C   8)    -30.4251         0.120600   
   1580. D(F  28,C  33,F  32,C   3)   -152.1108         0.120600   
   1581. D(F  28,C  33,F  32,C   8)   -150.6276         0.120600   
   1582. D(F  32,C  33,S  30,O  25)    -58.3547         0.006423   
   1583. D(F  28,C  33,S  30,O  34)    -64.0037         0.006423   
   1584. D(F  28,C  33,S  30,O  25)     60.8579         0.006423   
   1585. D(C   3,O  34,S  30,O  25)     99.8238         0.123942   
   1586. D(C   8,O  34,S  30,O  25)     98.0149         0.123942   
   1587. D(S  30,O  34,C   9,H  22)    147.1441         0.001500   
   1588. D(S  30,O  34,C   9,N   1)     19.5117         0.001500   
   1589. D(S  30,O  34,C   8,C   4)     55.2741         0.001500   
   1590. D(S  30,O  34,C   7,C   6)     91.7125         0.001500   
   1591. D(S  30,O  34,C   7,N   1)    150.1711         0.001500   
   1592. D(S  30,O  34,C   6,C   7)    -88.2038         0.001500   
   1593. D(S  30,O  34,C   6,N   0)    142.2828         0.001500   
   1594. D(S  30,O  34,C   5,N   1)    -47.4584         0.001500   
   1595. D(S  30,O  34,C   5,N   0)     -9.9903         0.001500   
   1596. D(S  30,O  34,C   4,C   8)   -124.5642         0.001500   
   1597. D(S  30,O  34,C   4,C   3)     28.7974         0.001500   
   1598. D(S  30,O  34,C   3,C   4)   -151.0787         0.001500   
   1599. D(S  30,O  34,C   3,C   2)     58.1120         0.001500   
   1600. D(S  30,O  34,C   2,C   3)   -121.6819         0.001500   
   1601. D(S  30,O  34,C   8,H  19)    -49.7403         0.001500   
   1602. D(S  30,O  34,C   2,N   0)    -53.0791         0.001500   
   1603. D(S  30,O  34,N   1,C   7)    -29.6971         0.001500   
   1604. D(S  30,O  34,N   1,C   5)    132.3962         0.001500   
   1605. D(C   8,O  34,S  30,C  33)   -147.1537         0.123942   
   1606. D(S  30,O  34,N   0,C   5)    169.9883         0.001500   
   1607. D(S  30,O  34,N   0,C   2)    126.7923         0.001500   
   1608. D(N  36,S  35,C  31,F  26)    -65.0564         0.006309   
   1609. D(O  27,S  35,C  31,F  26)     56.6891         0.006309   
   1610. D(N  36,S  35,O  27,C   8)   -139.7764         0.124858   
   1611. D(C  31,S  35,O  27,C   3)    104.0922         0.124858   
   1612. D(C  31,S  35,C   9,N   1)     15.4677         0.001500   
   1613. D(O  27,S  35,C   9,H  22)   -118.9809         0.001500   
   1614. D(O  27,S  35,C   9,N   1)    115.2025         0.001500   
   1615. D(O  27,S  35,C   8,H  19)     42.7725         0.001500   
   1616. D(O  27,S  35,C   8,C   4)    147.1032         0.001500   
   1617. D(C  31,S  35,C   7,N   1)    144.0167         0.001500   
   1618. D(O  27,S  35,C   7,C   6)   -163.7451         0.001500   
   1619. D(O  27,S  35,C   7,N   1)   -115.9568         0.001500   
   1620. D(C  31,S  35,C   6,N   0)    137.1469         0.001500   
   1621. D(O  27,S  35,C   6,C   7)     16.2185         0.001500   
   1622. D(O  27,S  35,C   6,N   0)   -122.7606         0.001500   
   1623. D(C  31,S  35,C   5,N   0)    -18.1500         0.001500   
   1624. D(O  27,S  35,C   5,N   1)     48.5720         0.001500   
   1625. D(O  27,S  35,C   5,N   0)     81.6824         0.001500   
   1626. D(C  31,S  35,C   4,C   3)     23.8886         0.001500   
   1627. D(O  27,S  35,C   4,C   8)    -32.6257         0.001500   
   1628. D(O  27,S  35,C   4,C   3)    122.6784         0.001500   
   1629. D(C  31,S  35,C   3,C   2)     50.9701         0.001500   
   1630. D(O  27,S  35,C   3,C   4)    -56.8817         0.001500   
   1631. D(O  27,S  35,C   3,C   2)    150.4047         0.001500   
   1632. D(C  31,S  35,C   2,N   0)    -55.1487         0.001500   
   1633. D(C  31,S  35,C   8,C   4)     48.9539         0.001500   
   1634. D(O  27,S  35,C   2,C   3)    -29.3770         0.001500   
   1635. D(O  27,S  35,C   2,N   0)     44.8345         0.001500   
   1636. D(C  31,S  35,N   1,C   5)    128.9828         0.001500   
   1637. D(C  31,S  35,O  27,C   8)    106.2666         0.124858   
   1638. D(O  27,S  35,N   1,C   7)     63.6569         0.001500   
   1639. D(O  27,S  35,N   1,C   5)   -131.1683         0.001500   
   1640. D(C  31,S  35,N   0,C   2)    125.0629         0.001500   
   1641. D(O  27,S  35,C  31,F  29)    -63.1426         0.006309   
   1642. D(O  27,S  35,N   0,C   5)    -98.1289         0.001500   
   1643. D(O  27,S  35,N   0,C   2)   -134.9708         0.001500   
   1644. D(C   8,N  36,S  35,O  27)     89.7893         0.043057   
   1645. D(S  30,N  36,S  35,C  31)     84.8512         0.043057   
   1646. D(S  30,N  36,S  35,O  27)    -28.8704         0.043057   
   1647. D(C   8,N  36,S  30,O  25)    -64.0328         0.041047   
   1648. D(S  35,N  36,S  30,C  33)   -127.1545         0.041047   
   1649. D(S  35,N  36,C   9,N   1)     41.0137         0.001500   
   1650. D(S  30,N  36,C   9,H  22)   -102.1896         0.001500   
   1651. D(S  30,N  36,C   9,N   1)    129.0388         0.001500   
   1652. D(S  30,N  36,C   8,H  19)     63.4243         0.001500   
   1653. D(S  30,N  36,C   8,C   4)    168.3146         0.001500   
   1654. D(S  35,N  36,C   7,N   1)    172.4143         0.001500   
   1655. D(S  30,N  36,C   7,N   1)   -101.2942         0.001500   
   1656. D(S  35,N  36,C   6,N   0)    166.0424         0.001500   
   1657. D(S  30,N  36,C   6,C   7)     28.2343         0.001500   
   1658. D(S  30,N  36,C   6,N   0)   -107.9567         0.001500   
   1659. D(S  35,N  36,C   5,N   0)     11.0569         0.001500   
   1660. D(S  30,N  36,C   5,N   1)     65.9806         0.001500   
   1661. D(S  30,N  36,C   5,N   0)     98.9946         0.001500   
   1662. D(S  35,N  36,C   4,C   3)     49.8842         0.001500   
   1663. D(S  30,N  36,C   4,C   8)    -11.9783         0.001500   
   1664. D(S  30,N  36,C   4,C   3)    142.1841         0.001500   
   1665. D(S  30,N  36,C   7,C   6)   -151.9602         0.001500   
   1666. D(S  35,N  36,C   3,C   2)     79.9103         0.001500   
   1667. D(S  30,N  36,C   3,C   4)    -38.8495         0.001500   
   1668. D(S  30,N  36,C   3,C   2)    169.5231         0.001500   
   1669. D(S  35,N  36,C   8,C   4)     73.9189         0.001500   
   1670. D(S  35,N  36,C   2,N   0)    -25.3478         0.001500   
   1671. D(S  30,N  36,C   2,C   3)    -10.7633         0.001500   
   1672. D(S  30,N  36,C   2,N   0)     62.0553         0.001500   
   1673. D(S  35,N  36,S  30,O  25)    -16.0328         0.041047   
   1674. D(S  35,N  36,N   1,C   5)    157.4674         0.001500   
   1675. D(S  30,N  36,N   1,C   7)     80.1082         0.001500   
   1676. D(S  30,N  36,N   1,C   5)   -115.0908         0.001500   
   1677. D(S  35,N  36,N   0,C   2)    154.1214         0.001500   
   1678. D(S  30,N  36,N   0,C   5)    -81.6978         0.001500   
   1679. D(S  30,N  36,N   0,C   2)   -118.8052         0.001500   
   1680. D(C   8,F  37,C  31,F  29)    -45.3625         0.118394   
   1681. D(C   8,F  37,C  31,F  26)   -161.6520         0.118394   
   1682. D(C  31,F  37,C   9,H  22)   -113.1458         0.001500   
   1683. D(C  31,F  37,C   8,H  19)     48.0246         0.001500   
   1684. D(C  31,F  37,C   8,C   4)    152.5849         0.001500   
   1685. D(C  31,F  37,C   7,C   6)   -147.9515         0.001500   
   1686. D(C  31,F  37,C   7,N   1)   -110.7787         0.001500   
   1687. D(C  31,F  37,C   6,C   7)     31.9646         0.001500   
   1688. D(C  31,F  37,C   6,N   0)   -116.1286         0.001500   
   1689. D(C  31,F  37,C   5,N   1)     56.9831         0.001500   
   1690. D(C  31,F  37,C   5,N   0)     83.4813         0.001500   
   1691. D(C  31,F  37,C   4,C   8)    -27.1091         0.001500   
   1692. D(C  31,F  37,C   4,C   3)    128.6594         0.001500   
   1693. D(C  31,F  37,C   3,C   4)    -50.8219         0.001500   
   1694. D(C  31,F  37,C   3,C   2)    155.9305         0.001500   
   1695. D(C  31,F  37,C   2,C   3)    -23.8254         0.001500   
   1696. D(C  31,F  37,C   2,N   0)     55.1397         0.001500   
   1697. D(C  31,F  37,C   9,N   1)    117.9357         0.001500   
   1698. D(C  31,F  37,N   1,C   7)     68.7105         0.001500   
   1699. D(C  31,F  37,N   1,C   5)   -122.6363         0.001500   
   1700. D(C  31,F  37,N   0,C   5)    -96.2869         0.001500   
   1701. D(C   3,F  37,C  31,F  26)   -159.6784         0.118394   
   1702. D(C  31,F  37,N   0,C   2)   -124.5592         0.001500   
   1703. D(C   3,F  38,C  33,F  28)    155.8824         0.120952   
   1704. D(C   8,F  38,C  33,S  30)     32.9219         0.120952   
   1705. D(C   8,F  38,C  33,F  28)    153.3108         0.120952   
   1706. D(C  33,F  38,C   9,N   1)     77.1135         0.001500   
   1707. D(C  33,F  38,C   8,H  19)     14.3165         0.001500   
   1708. D(C  33,F  38,C   8,C   4)    120.0781         0.001500   
   1709. D(C  33,F  38,C   7,N   1)   -146.2733         0.001500   
   1710. D(C  33,F  38,C   6,C   7)    -16.5831         0.001500   
   1711. D(C  33,F  38,C   6,N   0)   -152.5628         0.001500   
   1712. D(C  33,F  38,C   5,N   1)     19.5339         0.001500   
   1713. D(C  33,F  38,C   5,N   0)     49.5423         0.001500   
   1714. D(C  33,F  38,C   4,C   8)    -59.8368         0.001500   
   1715. D(C  33,F  38,C   4,C   3)     92.9078         0.001500   
   1716. D(C  33,F  38,C   3,C   4)    -86.9930         0.001500   
   1717. D(C  33,F  38,C   7,C   6)    163.4084         0.001500   
   1718. D(C  33,F  38,C   3,C   2)    122.6796         0.001500   
   1719. D(C  33,F  38,C   2,C   3)    -57.2522         0.001500   
   1720. D(C  33,F  38,C   2,N   0)     15.8938         0.001500   
   1721. D(C  33,F  38,C   9,H  22)   -148.6133         0.001500   
   1722. D(C  33,F  38,N   1,C   7)     33.6683         0.001500   
   1723. D(C  33,F  38,N   1,C   5)   -160.4434         0.001500   
   1724. D(C  33,F  38,N   0,C   5)   -130.4282         0.001500   
   1725. D(C  33,F  38,N   0,C   2)   -164.0930         0.001500   
   1726. D(C   8,O  39,S  35,C  31)   -105.2909         0.124913   
   1727. D(C   8,O  39,S  35,O  27)      9.0172         0.124913   
   1728. D(S  35,O  39,C   9,H  22)   -131.7622         0.001500   
   1729. D(C   6,O  39,C   8,C   4)     36.5400         0.001500   
   1730. D(S  35,O  39,C   8,H  19)     34.1704         0.001500   
   1731. D(S  35,O  39,C   8,C   4)    139.2946         0.001500   
   1732. D(S  35,O  39,C   7,C   6)   -177.7615         0.001500   
   1733. D(S  35,O  39,C   7,N   1)   -130.6082         0.001500   
   1734. D(C   8,O  39,C   6,N   0)    -55.5397         0.001500   
   1735. D(S  35,O  39,C   6,C   7)      2.2501         0.001500   
   1736. D(S  35,O  39,C   6,N   0)   -136.8120         0.001500   
   1737. D(S  35,O  39,C   5,N   1)     37.0384         0.001500   
   1738. D(S  35,O  39,C   5,N   0)     67.2072         0.001500   
   1739. D(S  35,O  39,C   4,C   8)    -41.4795         0.001500   
   1740. D(S  35,O  39,C   4,C   3)    112.6389         0.001500   
   1741. D(S  35,O  39,C   3,C   4)    -68.5863         0.001500   
   1742. D(S  35,O  39,C   3,C   2)    139.8117         0.001500   
   1743. D(S  35,O  39,C   2,C   3)    -40.9974         0.001500   
   1744. D(S  35,O  39,C   2,N   0)     33.6595         0.001500   
   1745. D(S  35,O  39,C   9,N   1)     97.0415         0.001500   
   1746. D(S  35,O  39,N   1,C   7)     50.2231         0.001500   
   1747. D(S  35,O  39,N   1,C   5)   -143.5097         0.001500   
   1748. D(S  35,O  39,N   0,C   5)   -113.2864         0.001500   
   1749. D(C   3,O  39,S  35,O  27)     12.1420         0.124913   
   1750. D(S  35,O  39,N   0,C   2)   -146.7600         0.001500   
    -----------------------------------------------------------------

Number of atoms                         .... 40
Number of degrees of freedom            .... 1750


         *************************************************************
         *                GEOMETRY OPTIMIZATION CYCLE   1            *
         *************************************************************
---------------------------------
CARTESIAN COORDINATES (ANGSTROEM)
---------------------------------
  N    -33.963333  -22.379147   -8.057120
  N    -35.738730  -23.592969   -7.775833
  C    -32.688060  -21.872846   -8.600677
  C    -31.488708  -22.315712   -7.768751
  C    -31.293595  -23.829452   -7.707224
  C    -34.686195  -23.374715   -8.565326
  C    -34.570166  -21.948324   -6.898611
  C    -35.683420  -22.705778   -6.722874
  C    -30.042318  -24.224056   -6.925978
  C    -36.782411  -24.596895   -7.993840
  H    -32.615444  -22.242472   -9.623462
  H    -32.767333  -20.786823   -8.642657
  H    -31.571259  -21.903818   -6.758235
  H    -30.608750  -21.844955   -8.215534
  H    -32.168244  -24.298445   -7.243409
  H    -31.230240  -24.226654   -8.726427
  H    -34.457937  -23.915409   -9.467215
  H    -34.168562  -21.145928   -6.306178
  H    -36.433468  -22.684907   -5.952307
  H    -30.090652  -23.864859   -5.895727
  H    -29.144283  -23.804785   -7.383809
  H    -29.925303  -25.307569   -6.895499
  H    -36.550881  -25.157723   -8.895434
  H    -36.816000  -25.275591   -7.143769
  H    -37.744643  -24.102070   -8.111649
  O     12.689654    5.414214    2.124697
  F     10.226554    7.239214    1.918497
  O      9.901954    4.309514    1.371597
  F     14.809554    7.126014    0.884297
  F      8.247154    6.822114    1.136097
  S     12.892754    5.320514    0.702597
  C      9.557454    6.851014    0.828397
  F     12.843354    7.987114    0.569297
  C     13.642354    6.964714    0.233997
  O     13.846354    4.366714    0.198797
  S     10.104054    5.165014    0.232497
  N     11.601954    5.370814   -0.210103
  F      9.732454    7.783214   -0.121603
  F     13.892654    7.046714   -1.079703
  O      9.300254    4.967714   -0.944403

----------------------------
CARTESIAN COORDINATES (A.U.)
----------------------------
  NO LB      ZA    FRAG     MASS         X           Y           Z
   0 N     7.0000    0    14.007  -64.181398  -42.290459  -15.225751
   1 N     7.0000    0    14.007  -67.536411  -44.584251  -14.694195
   2 C     6.0000    0    12.011  -61.771481  -41.333689  -16.252925
   3 C     6.0000    0    12.011  -59.505035  -42.170585  -14.680812
   4 C     6.0000    0    12.011  -59.136325  -45.031138  -14.564543
   5 C     6.0000    0    12.011  -65.547410  -44.171809  -16.186120
   6 C     6.0000    0    12.011  -65.328147  -41.476321  -13.036486
   7 C     6.0000    0    12.011  -67.431892  -42.907702  -12.704391
   8 C     6.0000    0    12.011  -56.771753  -45.776832  -13.088201
   9 C     6.0000    0    12.011  -69.508684  -46.481395  -15.106168
  10 H     1.0000    0     1.008  -61.634257  -42.032181  -18.185708
  11 H     1.0000    0     1.008  -61.921285  -39.281403  -16.332255
  12 H     1.0000    0     1.008  -59.661033  -41.392217  -12.771212
  13 H     1.0000    0     1.008  -57.842155  -41.280982  -15.525109
  14 H     1.0000    0     1.008  -60.789172  -45.917407  -13.688060
  15 H     1.0000    0     1.008  -59.016600  -45.781742  -16.490556
  16 H     1.0000    0     1.008  -65.116063  -45.193573  -17.890444
  17 H     1.0000    0     1.008  -64.569224  -39.960012  -11.916950
  18 H     1.0000    0     1.008  -68.849277  -42.868261  -11.248230
  19 H     1.0000    0     1.008  -56.863092  -45.098048  -11.141309
  20 H     1.0000    0     1.008  -55.074714  -44.984525  -13.953377
  21 H     1.0000    0     1.008  -56.550627  -47.824374  -13.030604
  22 H     1.0000    0     1.008  -69.071155  -47.541207  -16.809935
  23 H     1.0000    0     1.008  -69.572157  -47.763944  -13.499767
  24 H     1.0000    0     1.008  -71.327038  -45.546312  -15.328796
  25 O     8.0000    0    15.999   23.979971   10.231382    4.015096
  26 F     9.0000    0    18.998   19.325386   13.680132    3.625435
  27 O     8.0000    0    15.999   18.711981    8.143801    2.591944
  28 F     9.0000    0    18.998   27.986001   13.466215    1.671080
  29 F     9.0000    0    18.998   15.584862   12.891927    2.146913
  30 S    16.0000    0    32.060   24.363774   10.054315    1.327717
  31 C     6.0000    0    12.011   18.060970   12.946540    1.565444
  32 F     9.0000    0    18.998   24.270421   15.093458    1.075816
  33 C     6.0000    0    12.011   25.780313   13.161402    0.442191
  34 O     8.0000    0    15.999   26.165817    8.251894    0.375673
  35 S    16.0000    0    32.060   19.093895    9.760462    0.439357
  36 N     7.0000    0    14.007   21.924515   10.149368   -0.397036
  37 F     9.0000    0    18.998   18.391672   14.708143   -0.229795
  38 F     9.0000    0    18.998   26.253311   13.316360   -2.040342
  39 O     8.0000    0    15.999   17.574933    9.387619   -1.784662

--------------------------------
INTERNAL COORDINATES (ANGSTROEM)
--------------------------------
 N      0   0   0     0.000000000000     0.00000000     0.00000000
 N      1   0   0     2.168990529781     0.00000000     0.00000000
 C      1   2   0     1.475844098407   161.27003766     0.00000000
 C      3   1   2     1.525344930445   112.26858272   260.01821400
 C      4   3   1     1.527501503250   114.21269948    61.72230197
 C      1   2   3     1.331148784272    35.55794597     7.23592879
 C      1   2   6     1.376952764458    72.85742808   180.27485012
 C      7   1   2     1.357922653417   107.19712171   359.87799469
 C      5   4   3     1.527008463515   112.41823717   177.02125670
 C      2   1   3     1.464467425927   161.38341464   351.28940947
 H      3   1   2     1.089947169005   106.66874400    22.00726027
 H      3   1   2     1.089721742796   107.05100486   137.26381270
 H      4   3   1     1.094356005204   109.57429601   297.53639078
 H      4   3   1     1.093413553583   106.55432027   183.25264210
 H      5   4   3     1.095486263593   109.83590227   298.68000575
 H      5   4   3     1.095699270558   109.21800348    55.19138984
 H      6   1   2     1.076037768081   125.49330153   179.99008104
 H      7   1   2     1.075222057483   122.17179947   180.23117839
 H      8   7   1     1.075537736936   130.81469554   180.62633145
 H      9   5   4     1.092142835360   111.18431301    59.96764983
 H      9   5   4     1.091725327774   111.11560844   299.89376231
 H      9   5   4     1.090238750567   111.04337109   179.95854288
 H     10   2   1     1.086741482921   108.99233216     2.39657537
 H     10   2   1     1.088290926498   109.46507032   122.06014328
 H     10   2   1     1.088402532816   109.54253472   242.65686063
 O     21   9   5    51.906068212875   143.35307995   125.03365331
 F     26  21   9     3.072459120965    71.09277097   284.68985563
 O     27  26  21     2.997933765112    61.22155958   355.63362296
 F     26  21   9     2.993798157859   144.75218850   201.46448020
 F     27  26  21     2.168904453866   129.91172837   345.32247262
 S     26  21   9     1.439582477665    84.03646108   187.41602241
 C     27  26  21     1.336679490379   106.47022032   313.49573185
 F     29  26  21     2.169483959378    69.22857384    63.11849985
 C     33  29  26     1.340197317562    36.21680254   290.83652974
 O     31  26  21     1.439757562925   118.83137895   260.29416265
 S     28  27  26     1.438844491250    63.13899050   264.40917651
 N     36  28  27     1.575421470591   115.69833348    91.18132210
 F     32  27  26     1.342431316679   108.07126547   252.93641203
 F     34  33  29     1.339843938673   108.05867276   243.86450186
 O     36  28  27     1.438789539856   119.18111547   223.60300356

---------------------------
INTERNAL COORDINATES (A.U.)
---------------------------
 N      0   0   0     0.000000000000     0.00000000     0.00000000
 N      1   0   0     4.098798088354     0.00000000     0.00000000
 C      1   2   0     2.788941162353   161.27003766     0.00000000
 C      3   1   2     2.882484178305   112.26858272   260.01821400
 C      4   3   1     2.886559510296   114.21269948    61.72230197
 C      1   2   3     2.515506645776    35.55794597     7.23592879
 C      1   2   6     2.602063624171    72.85742808   180.27485012
 C      7   1   2     2.566101926005   107.19712171   359.87799469
 C      5   4   3     2.885627800222   112.41823717   177.02125670
 C      2   1   3     2.767442367051   161.38341464   351.28940947
 H      3   1   2     2.059701649862   106.66874400    22.00726027
 H      3   1   2     2.059275656064   107.05100486   137.26381270
 H      4   3   1     2.068033142847   109.57429601   297.53639078
 H      4   3   1     2.066252167390   106.55432027   183.25264210
 H      5   4   3     2.070169021664   109.83590227   298.68000575
 H      5   4   3     2.070571546492   109.21800348    55.19138984
 H      6   1   2     2.033416691428   125.49330153   179.99008104
 H      7   1   2     2.031875221795   122.17179947   180.23117839
 H      8   7   1     2.032471769506   130.81469554   180.62633145
 H      9   5   4     2.063850857954   111.18431301    59.96764983
 H      9   5   4     2.063061882959   111.11560844   299.89376231
 H      9   5   4     2.060252659160   111.04337109   179.95854288
 H     10   2   1     2.053643781092   108.99233216     2.39657537
 H     10   2   1     2.056571805113   109.46507032   122.06014328
 H     10   2   1     2.056782710488   109.54253472   242.65686063
 O     21   9   5    98.088253610968   143.35307995   125.03365331
 F     26  21   9     5.806106296292    71.09277097   284.68985563
 O     27  26  21     5.665273783698    61.22155958   355.63362296
 F     26  21   9     5.657458618591   144.75218850   201.46448020
 F     27  26  21     4.098635428449   129.91172837   345.32247262
 S     26  21   9     2.720416629979    84.03646108   187.41602241
 C     27  26  21     2.525958165646   106.47022032   313.49573185
 F     29  26  21     4.099730535160    69.22857384    63.11849985
 C     33  29  26     2.532605895608    36.21680254   290.83652974
 O     31  26  21     2.720747493170   118.83137895   260.29416265
 S     28  27  26     2.719022037763    63.13899050   264.40917651
 N     36  28  27     2.977115124917   115.69833348    91.18132210
 F     32  27  26     2.536827542122   108.07126547   252.93641203
 F     34  33  29     2.531938106287   108.05867276   243.86450186
 O     36  28  27     2.718918194679   119.18111547   223.60300356

---------------------
BASIS SET INFORMATION
---------------------
There are 6 groups of distinct atoms

 Group   1 Type N   : 11s6p2d1f contracted to 5s3p2d1f pattern {62111/411/11/1}
 Group   2 Type C   : 11s6p2d1f contracted to 5s3p2d1f pattern {62111/411/11/1}
 Group   3 Type H   : 5s1p contracted to 3s1p pattern {311/1}
 Group   4 Type O   : 11s6p2d1f contracted to 5s3p2d1f pattern {62111/411/11/1}
 Group   5 Type F   : 11s6p2d1f contracted to 5s3p2d1f pattern {62111/411/11/1}
 Group   6 Type S   : 14s9p3d1f contracted to 5s5p2d1f pattern {73211/51111/21/1}

Atom   0N    basis set group =>   1
Atom   1N    basis set group =>   1
Atom   2C    basis set group =>   2
Atom   3C    basis set group =>   2
Atom   4C    basis set group =>   2
Atom   5C    basis set group =>   2
Atom   6C    basis set group =>   2
Atom   7C    basis set group =>   2
Atom   8C    basis set group =>   2
Atom   9C    basis set group =>   2
Atom  10H    basis set group =>   3
Atom  11H    basis set group =>   3
Atom  12H    basis set group =>   3
Atom  13H    basis set group =>   3
Atom  14H    basis set group =>   3
Atom  15H    basis set group =>   3
Atom  16H    basis set group =>   3
Atom  17H    basis set group =>   3
Atom  18H    basis set group =>   3
Atom  19H    basis set group =>   3
Atom  20H    basis set group =>   3
Atom  21H    basis set group =>   3
Atom  22H    basis set group =>   3
Atom  23H    basis set group =>   3
Atom  24H    basis set group =>   3
Atom  25O    basis set group =>   4
Atom  26F    basis set group =>   5
Atom  27O    basis set group =>   4
Atom  28F    basis set group =>   5
Atom  29F    basis set group =>   5
Atom  30S    basis set group =>   6
Atom  31C    basis set group =>   2
Atom  32F    basis set group =>   5
Atom  33C    basis set group =>   2
Atom  34O    basis set group =>   4
Atom  35S    basis set group =>   6
Atom  36N    basis set group =>   1
Atom  37F    basis set group =>   5
Atom  38F    basis set group =>   5
Atom  39O    basis set group =>   4
---------------------------------
AUXILIARY/J BASIS SET INFORMATION
---------------------------------
There are 6 groups of distinct atoms

 Group   1 Type N   : 12s5p4d2f1g contracted to 6s4p3d1f1g pattern {711111/2111/211/2/1}
 Group   2 Type C   : 12s5p4d2f1g contracted to 6s4p3d1f1g pattern {711111/2111/211/2/1}
 Group   3 Type H   : 5s2p1d contracted to 3s1p1d pattern {311/2/1}
 Group   4 Type O   : 12s5p4d2f1g contracted to 6s4p3d1f1g pattern {711111/2111/211/2/1}
 Group   5 Type F   : 12s5p4d2f1g contracted to 6s4p3d1f1g pattern {711111/2111/211/2/1}
 Group   6 Type S   : 14s5p5d2f1g contracted to 8s4p3d1f1g pattern {71111111/2111/311/2/1}

Atom   0N    basis set group =>   1
Atom   1N    basis set group =>   1
Atom   2C    basis set group =>   2
Atom   3C    basis set group =>   2
Atom   4C    basis set group =>   2
Atom   5C    basis set group =>   2
Atom   6C    basis set group =>   2
Atom   7C    basis set group =>   2
Atom   8C    basis set group =>   2
Atom   9C    basis set group =>   2
Atom  10H    basis set group =>   3
Atom  11H    basis set group =>   3
Atom  12H    basis set group =>   3
Atom  13H    basis set group =>   3
Atom  14H    basis set group =>   3
Atom  15H    basis set group =>   3
Atom  16H    basis set group =>   3
Atom  17H    basis set group =>   3
Atom  18H    basis set group =>   3
Atom  19H    basis set group =>   3
Atom  20H    basis set group =>   3
Atom  21H    basis set group =>   3
Atom  22H    basis set group =>   3
Atom  23H    basis set group =>   3
Atom  24H    basis set group =>   3
Atom  25O    basis set group =>   4
Atom  26F    basis set group =>   5
Atom  27O    basis set group =>   4
Atom  28F    basis set group =>   5
Atom  29F    basis set group =>   5
Atom  30S    basis set group =>   6
Atom  31C    basis set group =>   2
Atom  32F    basis set group =>   5
Atom  33C    basis set group =>   2
Atom  34O    basis set group =>   4
Atom  35S    basis set group =>   6
Atom  36N    basis set group =>   1
Atom  37F    basis set group =>   5
Atom  38F    basis set group =>   5
Atom  39O    basis set group =>   4


           ************************************************************
           *        Program running with 30 parallel MPI-processes    *
           *              working on a common directory               *
           ************************************************************
------------------------------------------------------------------------------
                             ORCA STARTUP CALCULATIONS
                           -- RI-GTO INTEGRALS CHOSEN --
------------------------------------------------------------------------------
------------------------------------------------------------------------------
                   ___                                                        
                  /   \      - P O W E R E D   B Y -                         
                 /     \                                                     
                 |  |  |   _    _      __       _____    __    __             
                 |  |  |  | |  | |    /  \     |  _  \  |  |  /  |          
                  \  \/   | |  | |   /    \    | | | |  |  | /  /          
                 / \  \   | |__| |  /  /\  \   | |_| |  |  |/  /          
                |  |  |   |  __  | /  /__\  \  |    /   |      \           
                |  |  |   | |  | | |   __   |  |    \   |  |\   \          
                \     /   | |  | | |  |  |  |  | |\  \  |  | \   \       
                 \___/    |_|  |_| |__|  |__|  |_| \__\ |__|  \__/        
                                                                              
                      - O R C A' S   B I G   F R I E N D -                    
                                      &                                       
                       - I N T E G R A L  F E E D E R -                       
                                                                              
 v1 FN, 2020, v2 2021, v3 2022-2024                                           
------------------------------------------------------------------------------


----------------------
SHARK INTEGRAL PACKAGE
----------------------

Number of atoms                             ...     40
Number of basis functions                   ...    877
Number of shells                            ...    339
Maximum angular momentum                    ...      3
Integral batch strategy                     ... SHARK/LIBINT Hybrid
RI-J (if used) integral strategy            ... SPLIT-RIJ (Revised 2003 algorithm where possible)
Printlevel                                  ...      1
Contraction scheme used                     ... SEGMENTED contraction
Prescreening option                         ... SCHWARTZ
   Thresh                                   ... 2.500e-11
   Tcut                                     ... 2.500e-12
   Tpresel                                  ... 2.500e-12 
Coulomb Range Separation                    ... NOT USED
Exchange Range Separation                   ... NOT USED
Multipole approximations                    ... NOT USED
Finite Nucleus Model                        ... NOT USED
CABS basis                                  ... NOT available
Auxiliary Coulomb fitting basis             ... AVAILABLE
   # of basis functions in Aux-J            ...   1394
   # of shells in Aux-J                     ...    454
   Maximum angular momentum in Aux-J        ...      4
Auxiliary J/K fitting basis                 ... NOT available
Auxiliary Correlation fitting basis         ... NOT available
Auxiliary 'external' fitting basis          ... NOT available

Checking pre-screening integrals            ... done (  0.0 sec) Dimension = 339
Check shell pair data                       ... done (  0.0 sec)
Shell pair information
Shell pair cut-off parameter TPreSel        ...   2.5e-12
Total number of shell pairs                 ...     57630
Shell pairs after pre-screening             ...     23189
Total number of primitive shell pairs       ...    183333
Primitive shell pairs kept                  ...     51023
          la=0 lb=0:   5703 shell pairs
          la=1 lb=0:   6571 shell pairs
          la=1 lb=1:   1991 shell pairs
          la=2 lb=0:   3212 shell pairs
          la=2 lb=1:   2009 shell pairs
          la=2 lb=2:    541 shell pairs
          la=3 lb=0:   1541 shell pairs
          la=3 lb=1:    981 shell pairs
          la=3 lb=2:    505 shell pairs
          la=3 lb=3:    135 shell pairs

Calculating one electron integrals          ... done (  0.1 sec)
Calculating RI/J V-Matrix + Cholesky decomp.... done (  0.1 sec)
Calculating Nuclear repulsion               ... done (  0.0 sec) ENN=   2254.878983065753 Eh

Diagonalization of the overlap matrix:
Smallest eigenvalue                        ... 8.166e-05
Time for diagonalization                   ...    0.096 sec
Threshold for overlap eigenvalues          ... 1.000e-07
Number of eigenvalues below threshold      ... 0
Time for construction of square roots      ...    0.053 sec
Total time needed                          ...    0.155 sec

-------------------
DFT GRID GENERATION
-------------------

General Integration Accuracy     IntAcc      ... 4.388
Radial Grid Type                 RadialGrid  ... OptM3 with GC (2021)
Angular Grid (max. ang.)         AngularGrid ... 4 (Lebedev-302)
Angular grid pruning method      GridPruning ... 4 (adaptive)
Weight generation scheme         WeightScheme... mBecke (2022)
Basis function cutoff            BFCut       ... 1.0000e-11
Integration weight cutoff        WCut        ... 1.0000e-14
Partially contracted basis set               ... off
Rotationally invariant grid construction     ... off
Angular grids for H and He will be reduced by one unit

Total number of grid points                  ...   201660
Total number of batches                      ...     3173
Average number of points per batch           ...       63
Average number of grid points per atom       ...     5042

--------------------
COSX GRID GENERATION
--------------------

GRIDX 1
-------
General Integration Accuracy     IntAcc      ... 3.816
Radial Grid Type                 RadialGrid  ... OptM3 with GC (2021)
Angular Grid (max. ang.)         AngularGrid ... 1 (Lebedev-50)
Angular grid pruning method      GridPruning ... 4 (adaptive)
Weight generation scheme         WeightScheme... mBecke (2022)
Basis function cutoff            BFCut       ... 1.0000e-11
Integration weight cutoff        WCut        ... 1.0000e-14
Partially contracted basis set               ... on
Rotationally invariant grid construction     ... off
Angular grids for H and He will be reduced by one unit

Total number of grid points                  ...    27645
Total number of batches                      ...      238
Average number of points per batch           ...      116
Average number of grid points per atom       ...      691
UseSFitting                                  ... on

GRIDX 2
-------
General Integration Accuracy     IntAcc      ... 4.020
Radial Grid Type                 RadialGrid  ... OptM3 with GC (2021)
Angular Grid (max. ang.)         AngularGrid ... 2 (Lebedev-110)
Angular grid pruning method      GridPruning ... 4 (adaptive)
Weight generation scheme         WeightScheme... mBecke (2022)
Basis function cutoff            BFCut       ... 1.0000e-11
Integration weight cutoff        WCut        ... 1.0000e-14
Partially contracted basis set               ... on
Rotationally invariant grid construction     ... off
Angular grids for H and He will be reduced by one unit

Total number of grid points                  ...    56709
Total number of batches                      ...      466
Average number of points per batch           ...      121
Average number of grid points per atom       ...     1418
UseSFitting                                  ... on

GRIDX 3
-------
General Integration Accuracy     IntAcc      ... 4.338
Radial Grid Type                 RadialGrid  ... OptM3 with GC (2021)
Angular Grid (max. ang.)         AngularGrid ... 3 (Lebedev-194)
Angular grid pruning method      GridPruning ... 4 (adaptive)
Weight generation scheme         WeightScheme... mBecke (2022)
Basis function cutoff            BFCut       ... 1.0000e-11
Integration weight cutoff        WCut        ... 1.0000e-14
Partially contracted basis set               ... on
Rotationally invariant grid construction     ... off
Angular grids for H and He will be reduced by one unit

Total number of grid points                  ...   125754
Total number of batches                      ...     1001
Average number of points per batch           ...      125
Average number of grid points per atom       ...     3144
UseSFitting                                  ... on
Initializing property integral containers    ... done (  0.0 sec)

SHARK setup successfully completed in   2.4 seconds

Maximum memory used throughout the entire STARTUP-calculation: 68.7 MB


           ************************************************************
           *        Program running with 30 parallel MPI-processes    *
           *              working on a common directory               *
           ************************************************************
-------------------------------------------------------------------------------
                                 ORCA GUESS
                   Start orbitals & Density for SCF / CASSCF
-------------------------------------------------------------------------------

------------
SCF SETTINGS
------------
Hamiltonian:
 Density Functional     Method          .... DFT(GTOs)
 Exchange Functional    Exchange        .... B88
   X-Alpha parameter    XAlpha          ....  0.666667
   Becke's b parameter  XBeta           ....  0.004200
 Correlation Functional Correlation     .... LYP
 LDA part of GGA corr.  LDAOpt          .... VWN-5
 Gradients option       PostSCFGGA      .... off
 Hybrid DFT is turned on
   Fraction HF Exchange ScalHFX         ....  0.200000
   Scaling of DF-GGA-X  ScalDFX         ....  0.720000
   Scaling of DF-GGA-C  ScalDFC         ....  0.810000
   Scaling of DF-LDA-C  ScalLDAC        ....  1.000000
   Perturbative correction              ....  0.000000
   NL short-range parameter             ....  4.800000
 RI-approximation to the Coulomb term is turned on
   Number of AuxJ basis functions       .... 1394
   RIJ-COSX (HFX calculated with COS-X)).... on


General Settings:
 Integral files         IntName         .... complex
 Hartree-Fock type      HFTyp           .... RHF
 Total Charge           Charge          ....    0
 Multiplicity           Mult            ....    1
 Number of Electrons    NEL             ....  214
 Basis Dimension        Dim             ....  877
 Nuclear Repulsion      ENuc            ....   2254.8789830658 Eh

Convergence Acceleration:
 AO-DIIS                CNVDIIS         .... on
   Start iteration      DIISMaxIt       ....    12
   Startup error        DIISStart       ....  0.200000
   # of expansion vecs  DIISMaxEq       ....     5
   Bias factor          DIISBfac        ....   1.050
   Max. coefficient     DIISMaxC        ....  10.000
 MO-DIIS                CNVKDIIS        .... off
 Trust-Rad. Augm. Hess. CNVTRAH         .... auto
   Auto Start mean grad. ratio tolernc. ....  1.125000
   Auto Start start iteration           ....    50
   Auto Start num. interpolation iter.  ....    10
   Max. Number of Micro iterations      ....    24
   Max. Number of Macro iterations      .... Maxiter - #DIIS iter
   Number of Davidson start vectors     ....     2
   Converg. threshold    (grad. norm)   ....   1.000e-05
   Grad. Scal. Fac. for Micro threshold ....   0.100
   Minimum threshold for Micro iter.    ....   1.000e-02
   NR start threshold (gradient norm)   ....   1.000e-04
   Initial trust radius                 ....   0.400
   Minimum AH scaling param. (alpha)    ....   1.000
   Maximum AH scaling param. (alpha)    .... 1000.000
   Quad. conv. algorithm                .... NR
   White noise on init. David. guess    .... on
   Maximum white noise                  ....   0.010
   Pseudo random numbers                .... off
   Inactive MOs                         .... canonical
   Orbital update algorithm             .... Taylor
   Preconditioner                       .... Diag
   Full preconditioner red. dimension   ....   250
 SOSCF                  CNVSOSCF        .... on
   Start iteration      SOSCFMaxIt      ....   150
   Startup grad/error   SOSCFStart      ....  0.003300
   Hessian update       SOSCFHessUp     .... L-BFGS
 Level Shifting         CNVShift        .... on
   Level shift para.    LevelShift      ....    0.2500
   Turn off err/grad.   ShiftErr        ....    0.0010
 Zerner damping         CNVZerner       .... off
 Static damping         CNVDamp         .... on
   Fraction old density DampFac         ....    0.7000
   Max. Damping (<1)    DampMax         ....    0.9800
   Min. Damping (>=0)   DampMin         ....    0.0000
   Turn off err/grad.   DampErr         ....    0.1000

SCF Procedure:
 Maximum # iterations   MaxIter         ....   125
 SCF integral mode      SCFMode         .... Direct
   Integral package                     .... SHARK and LIBINT hybrid scheme
 Reset frequency        DirectResetFreq ....    20
 Integral Threshold     Thresh          ....  2.500e-11 Eh
 Primitive CutOff       TCut            ....  2.500e-12 Eh

Convergence Tolerance:
 Convergence Check Mode ConvCheckMode   .... Total+1el-Energy
 Convergence forced     ConvForced      .... 0
 Energy Change          TolE            ....  1.000e-08 Eh
 1-El. energy change                    ....  1.000e-05 Eh
 Orbital Gradient       TolG            ....  1.000e-05
 Orbital Rotation angle TolX            ....  1.000e-05
 DIIS Error             TolErr          ....  5.000e-07

------------------------------
INITIAL GUESS: MODEL POTENTIAL
------------------------------
Loading Hartree-Fock densities                     ... done
Calculating cut-offs                               ... done
Initializing the effective Hamiltonian             ... done
Setting up the integral package (SHARK)            ... done
Starting the Coulomb interaction                   ... done (   0.1 sec)
Making the grid                                    ... done (   0.2 sec)
Mapping shells                                     ... done
Starting the XC term evaluation                    ... done (   0.1 sec)
  promolecular density results
     # of electrons  =    213.996017904
     EX              =   -219.113077910
     EC              =     -7.846462689
     EX+EC           =   -226.959540599
Transforming the Hamiltonian                       ... done (   0.0 sec)
Diagonalizing the Hamiltonian                      ... done (   0.1 sec)
Back transforming the eigenvectors                 ... done (   0.0 sec)
Now organizing SCF variables                       ... done
                      ------------------
                      INITIAL GUESS DONE (   0.6 sec)
                      ------------------
             **** ENERGY FILE WAS UPDATED (complex.en.tmp) ****
Finished Guess after   1.5 sec
Maximum memory used throughout the entire GUESS-calculation: 49.2 MB


           ************************************************************
           *        Program running with 30 parallel MPI-processes    *
           *              working on a common directory               *
           ************************************************************

-------------------------------------------------------------------------------------------
                                      ORCA LEAN-SCF
                              memory conserving SCF solver
-------------------------------------------------------------------------------------------

----------------------------------------D-I-I-S--------------------------------------------
Iteration    Energy (Eh)           Delta-E    RMSDP     MaxDP     DIISErr   Damp  Time(sec)
-------------------------------------------------------------------------------------------
               ***  Starting incremental Fock matrix formation  ***
    1    -2249.3974106053547075     0.00e+00  9.95e-04  1.22e-01  3.24e-01  0.700   2.0
Warning: op=0 Small HOMO/LUMO gap (  -0.064) - skipping pre-diagonalization
         Will do a full diagonalization
    2    -2249.8910538544760129    -4.94e-01  5.63e-04  4.26e-02  1.28e-01  0.700   1.8
                               ***Turning on AO-DIIS***
    3    -2250.0510923337760687    -1.60e-01  2.22e-04  1.38e-02  3.98e-02  0.700   1.4
    4    -2250.1537696218247220    -1.03e-01  3.47e-04  2.57e-02  1.35e-02  0.000   1.4
    5    -2250.3904552942058217    -2.37e-01  1.01e-04  6.41e-03  6.80e-03  0.000   1.4
    6    -2250.3913774642005592    -9.22e-04  3.87e-05  2.71e-03  4.31e-03  0.000   1.3
    7    -2250.3914385532953020    -6.11e-05  1.50e-05  1.14e-03  3.39e-03  0.000   1.3
                              *** Initializing SOSCF ***
---------------------------------------S-O-S-C-F--------------------------------------
Iteration    Energy (Eh)           Delta-E    RMSDP     MaxDP     MaxGrad    Time(sec)
--------------------------------------------------------------------------------------
    8    -2250.3914714325946989    -3.29e-05  6.71e-06  4.55e-04  3.52e-04     1.5
               *** Restarting incremental Fock matrix formation ***
    9    -2250.3914700948271275     1.34e-06  4.68e-06  3.21e-04  1.39e-04     2.0
   10    -2250.3914694987988696     5.96e-07  2.06e-06  2.42e-04  1.25e-04     1.4
   11    -2250.3914710163171549    -1.52e-06  6.79e-07  4.50e-05  1.39e-05     1.3
   12    -2250.3914710121362077     4.18e-09  3.10e-07  3.18e-05  3.07e-05     1.3
                 **** Energy Check signals convergence ****

               *****************************************************
               *                     SUCCESS                       *
               *           SCF CONVERGED AFTER  12 CYCLES          *
               *****************************************************

Recomputing exchange energy using gridx3       ... done (    2.271 sec)
Old exchange energy                            :    -44.134535913 Eh
New exchange energy                            :    -44.134528956 Eh
Exchange energy change after final integration :      0.000006958 Eh
Total energy after final integration           :  -2250.391464055 Eh
             **** ENERGY FILE WAS UPDATED (complex.en.tmp) ****

----------------
TOTAL SCF ENERGY
----------------

Total Energy       :      -2250.39146405462088 Eh          -61236.26493 eV

Components:
Nuclear Repulsion  :       2254.87898306575335 Eh           61358.37653 eV
Electronic Energy  :      -4505.27045407788864 Eh         -122594.64165 eV
One Electron Energy:      -7592.22771601453405 Eh         -206595.01924 eV
Two Electron Energy:       3086.95726193664495 Eh           84000.37759 eV

Virial components:
Potential Energy   :      -4494.02319508622168 Eh         -122288.58817 eV
Kinetic Energy     :       2243.63173103160034 Eh           61052.32324 eV
Virial Ratio       :          2.00301285319223

DFT components:
N(Alpha)           :      107.000056241241 electrons
N(Beta)            :      107.000056241241 electrons
N(Total)           :      214.000112482482 electrons
E(X)               :     -175.611489053605 Eh       
E(C)               :       -9.203000078170 Eh       
E(XC)              :     -184.814489131775 Eh       

---------------
SCF CONVERGENCE
---------------

  Last Energy change         ...   -4.1809e-09  Tolerance :   1.0000e-08
  Last MAX-Density change    ...    3.1768e-05  Tolerance :   1.0000e-07
  Last RMS-Density change    ...    3.1029e-07  Tolerance :   5.0000e-09
  Last DIIS Error            ...    3.5152e-04  Tolerance :   5.0000e-07
  Last Orbital Gradient      ...    3.0711e-05  Tolerance :   1.0000e-05
  Last Orbital Rotation      ...    4.3788e-05  Tolerance :   1.0000e-05


----------------
ORBITAL ENERGIES
----------------

  NO   OCC          E(Eh)            E(eV) 
   0   2.0000     -88.940766     -2420.2013 
   1   2.0000     -88.939275     -2420.1607 
   2   2.0000     -24.619134      -669.9207 
   3   2.0000     -24.619077      -669.9191 
   4   2.0000     -24.618497      -669.9034 
   5   2.0000     -24.616241      -669.8420 
   6   2.0000     -24.615725      -669.8279 
   7   2.0000     -24.614789      -669.8024 
   8   2.0000     -19.002320      -517.0794 
   9   2.0000     -19.001251      -517.0503 
  10   2.0000     -19.000594      -517.0325 
  11   2.0000     -18.999110      -516.9921 
  12   2.0000     -14.562448      -396.2644 
  13   2.0000     -14.557096      -396.1187 
  14   2.0000     -14.197453      -386.3323 
  15   2.0000     -10.422023      -283.5977 
  16   2.0000     -10.374638      -282.3082 
  17   2.0000     -10.373697      -282.2826 
  18   2.0000     -10.365941      -282.0716 
  19   2.0000     -10.361636      -281.9545 
  20   2.0000     -10.323401      -280.9140 
  21   2.0000     -10.320389      -280.8321 
  22   2.0000     -10.297185      -280.2006 
  23   2.0000     -10.281020      -279.7608 
  24   2.0000     -10.252780      -278.9923 
  25   2.0000      -7.985219      -217.2889 
  26   2.0000      -7.983476      -217.2414 
  27   2.0000      -5.949025      -161.8812 
  28   2.0000      -5.948025      -161.8540 
  29   2.0000      -5.947580      -161.8419 
  30   2.0000      -5.946428      -161.8105 
  31   2.0000      -5.946154      -161.8031 
  32   2.0000      -5.944612      -161.7611 
  33   2.0000      -1.227940       -33.4139 
  34   2.0000      -1.220375       -33.2081 
  35   2.0000      -1.217142       -33.1201 
  36   2.0000      -1.133211       -30.8362 
  37   2.0000      -1.132266       -30.8105 
  38   2.0000      -1.129758       -30.7423 
  39   2.0000      -1.129219       -30.7276 
  40   2.0000      -1.109615       -30.1942 
  41   2.0000      -1.011515       -27.5247 
  42   2.0000      -0.995164       -27.0798 
  43   2.0000      -0.959215       -26.1016 
  44   2.0000      -0.932390       -25.3716 
  45   2.0000      -0.897196       -24.4140 
  46   2.0000      -0.892827       -24.2951 
  47   2.0000      -0.890102       -24.2209 
  48   2.0000      -0.855947       -23.2915 
  49   2.0000      -0.802932       -21.8489 
  50   2.0000      -0.797813       -21.7096 
  51   2.0000      -0.778412       -21.1817 
  52   2.0000      -0.762351       -20.7446 
  53   2.0000      -0.715148       -19.4602 
  54   2.0000      -0.692990       -18.8572 
  55   2.0000      -0.657395       -17.8886 
  56   2.0000      -0.643963       -17.5231 
  57   2.0000      -0.636357       -17.3161 
  58   2.0000      -0.627793       -17.0831 
  59   2.0000      -0.623713       -16.9721 
  60   2.0000      -0.617542       -16.8042 
  61   2.0000      -0.605924       -16.4880 
  62   2.0000      -0.592826       -16.1316 
  63   2.0000      -0.582388       -15.8476 
  64   2.0000      -0.577044       -15.7022 
  65   2.0000      -0.560614       -15.2551 
  66   2.0000      -0.553252       -15.0548 
  67   2.0000      -0.546158       -14.8617 
  68   2.0000      -0.527353       -14.3500 
  69   2.0000      -0.505237       -13.7482 
  70   2.0000      -0.502827       -13.6826 
  71   2.0000      -0.499635       -13.5958 
  72   2.0000      -0.497412       -13.5353 
  73   2.0000      -0.495802       -13.4914 
  74   2.0000      -0.489260       -13.3134 
  75   2.0000      -0.485992       -13.2245 
  76   2.0000      -0.474039       -12.8993 
  77   2.0000      -0.453008       -12.3270 
  78   2.0000      -0.443311       -12.0631 
  79   2.0000      -0.441814       -12.0224 
  80   2.0000      -0.420999       -11.4560 
  81   2.0000      -0.412427       -11.2227 
  82   2.0000      -0.388514       -10.5720 
  83   2.0000      -0.379865       -10.3367 
  84   2.0000      -0.377512       -10.2726 
  85   2.0000      -0.375649       -10.2219 
  86   2.0000      -0.371865       -10.1190 
  87   2.0000      -0.354642        -9.6503 
  88   2.0000      -0.353850        -9.6287 
  89   2.0000      -0.343588        -9.3495 
  90   2.0000      -0.341830        -9.3017 
  91   2.0000      -0.340117        -9.2551 
  92   2.0000      -0.335712        -9.1352 
  93   2.0000      -0.334968        -9.1149 
  94   2.0000      -0.328887        -8.9495 
  95   2.0000      -0.319493        -8.6939 
  96   2.0000      -0.315625        -8.5886 
  97   2.0000      -0.279704        -7.6111 
  98   2.0000      -0.241856        -6.5812 
  99   2.0000      -0.234825        -6.3899 
 100   2.0000      -0.219605        -5.9758 
 101   2.0000      -0.212360        -5.7786 
 102   2.0000      -0.206115        -5.6087 
 103   2.0000      -0.203644        -5.5414 
 104   2.0000      -0.192056        -5.2261 
 105   2.0000      -0.171420        -4.6646 
 106   2.0000      -0.159296        -4.3347 
 107   0.0000      -0.172514        -4.6943 
 108   0.0000      -0.142575        -3.8797 
 109   0.0000      -0.096750        -2.6327 
 110   0.0000      -0.083665        -2.2767 
 111   0.0000      -0.076060        -2.0697 
 112   0.0000      -0.067016        -1.8236 
 113   0.0000      -0.053710        -1.4615 
 114   0.0000      -0.051438        -1.3997 
 115   0.0000      -0.043406        -1.1811 
 116   0.0000      -0.029405        -0.8002 
 117   0.0000      -0.021355        -0.5811 
*Only the first 10 virtual orbitals were printed.

                    ********************************
                    * MULLIKEN POPULATION ANALYSIS *
                    ********************************

-----------------------
MULLIKEN ATOMIC CHARGES
-----------------------
   0 N :   -0.002273
   1 N :   -0.031015
   2 C :   -0.172221
   3 C :   -0.186121
   4 C :   -0.187032
   5 C :    0.051830
   6 C :   -0.078904
   7 C :   -0.051664
   8 C :   -0.333510
   9 C :   -0.268523
  10 H :    0.155221
  11 H :    0.169409
  12 H :    0.117934
  13 H :    0.135930
  14 H :    0.089031
  15 H :    0.101947
  16 H :    0.212949
  17 H :    0.196422
  18 H :    0.198491
  19 H :    0.115716
  20 H :    0.124606
  21 H :    0.133606
  22 H :    0.156214
  23 H :    0.175599
  24 H :    0.176356
  25 O :   -0.452497
  26 F :   -0.166416
  27 O :   -0.454884
  28 F :   -0.182857
  29 F :   -0.184568
  30 S :    0.767946
  31 C :    0.402122
  32 F :   -0.174890
  33 C :    0.411021
  34 O :   -0.472610
  35 S :    0.767732
  36 N :   -0.430300
  37 F :   -0.180131
  38 F :   -0.174396
  39 O :   -0.475273
Sum of atomic charges:   -0.0000000

--------------------------------
MULLIKEN REDUCED ORBITAL CHARGES
--------------------------------
  0 N s       :     3.466248  s :     3.466248
      pz      :     1.129341  p :     3.433975
      px      :     1.124145
      py      :     1.180489
      dz2     :     0.022285  d :     0.096536
      dxz     :     0.021257
      dyz     :     0.013492
      dx2y2   :     0.022103
      dxy     :     0.017400
      f0      :     0.000696  f :     0.005514
      f+1     :     0.000837
      f-1     :     0.000721
      f+2     :     0.000825
      f-2     :     0.000781
      f+3     :     0.000718
      f-3     :     0.000936

  1 N s       :     3.464448  s :     3.464448
      pz      :     1.143918  p :     3.466060
      px      :     1.128481
      py      :     1.193660
      dz2     :     0.022406  d :     0.094965
      dxz     :     0.016566
      dyz     :     0.016996
      dx2y2   :     0.019487
      dxy     :     0.019511
      f0      :     0.000665  f :     0.005542
      f+1     :     0.000848
      f-1     :     0.000605
      f+2     :     0.000664
      f-2     :     0.001134
      f+3     :     0.000805
      f-3     :     0.000819

  2 C s       :     3.297146  s :     3.297146
      pz      :     0.978678  p :     2.763826
      px      :     0.744110
      py      :     1.041038
      dz2     :     0.026971  d :     0.103409
      dxz     :     0.015861
      dyz     :     0.008872
      dx2y2   :     0.032044
      dxy     :     0.019660
      f0      :     0.000760  f :     0.007840
      f+1     :     0.001488
      f-1     :     0.000636
      f+2     :     0.001127
      f-2     :     0.001076
      f+3     :     0.001295
      f-3     :     0.001459

  3 C s       :     3.229528  s :     3.229528
      pz      :     0.986228  p :     2.866046
      px      :     0.942001
      py      :     0.937817
      dz2     :     0.014519  d :     0.084811
      dxz     :     0.008838
      dyz     :     0.022213
      dx2y2   :     0.014589
      dxy     :     0.024652
      f0      :     0.000808  f :     0.005737
      f+1     :     0.000727
      f-1     :     0.000483
      f+2     :     0.001161
      f-2     :     0.000333
      f+3     :     0.001168
      f-3     :     0.001058

  4 C s       :     3.230294  s :     3.230294
      pz      :     0.996315  p :     2.861897
      px      :     0.977859
      py      :     0.887722
      dz2     :     0.018837  d :     0.089061
      dxz     :     0.007836
      dyz     :     0.018696
      dx2y2   :     0.019197
      dxy     :     0.024494
      f0      :     0.000798  f :     0.005780
      f+1     :     0.000756
      f-1     :     0.000502
      f+2     :     0.001105
      f-2     :     0.000361
      f+3     :     0.001171
      f-3     :     0.001087

  5 C s       :     3.150450  s :     3.150450
      pz      :     0.960249  p :     2.653931
      px      :     0.812984
      py      :     0.880698
      dz2     :     0.022158  d :     0.128010
      dxz     :     0.022706
      dyz     :     0.020064
      dx2y2   :     0.038836
      dxy     :     0.024246
      f0      :     0.001251  f :     0.015780
      f+1     :     0.002777
      f-1     :     0.002114
      f+2     :     0.002496
      f-2     :     0.002940
      f+3     :     0.001727
      f-3     :     0.002474

  6 C s       :     3.198005  s :     3.198005
      pz      :     0.839555  p :     2.778135
      px      :     0.929425
      py      :     1.009155
      dz2     :     0.021944  d :     0.091243
      dxz     :     0.020073
      dyz     :     0.016325
      dx2y2   :     0.016365
      dxy     :     0.016536
      f0      :     0.002438  f :     0.011521
      f+1     :     0.001394
      f-1     :     0.001433
      f+2     :     0.001235
      f-2     :     0.002355
      f+3     :     0.001951
      f-3     :     0.000715

  7 C s       :     3.185552  s :     3.185552
      pz      :     0.891570  p :     2.765831
      px      :     0.992984
      py      :     0.881278
      dz2     :     0.016269  d :     0.088832
      dxz     :     0.022932
      dyz     :     0.015165
      dx2y2   :     0.024621
      dxy     :     0.009845
      f0      :     0.001854  f :     0.011448
      f+1     :     0.001261
      f-1     :     0.001743
      f+2     :     0.001918
      f-2     :     0.002196
      f+3     :     0.001830
      f-3     :     0.000646

  8 C s       :     3.302711  s :     3.302711
      pz      :     0.997290  p :     2.981395
      px      :     0.930422
      py      :     1.053683
      dz2     :     0.014476  d :     0.045765
      dxz     :     0.006879
      dyz     :     0.003913
      dx2y2   :     0.011982
      dxy     :     0.008515
      f0      :     0.000522  f :     0.003638
      f+1     :     0.000698
      f-1     :     0.000386
      f+2     :     0.000562
      f-2     :     0.000287
      f+3     :     0.000360
      f-3     :     0.000823

  9 C s       :     3.322321  s :     3.322321
      pz      :     1.087012  p :     2.882620
      px      :     0.893653
      py      :     0.901955
      dz2     :     0.006830  d :     0.057945
      dxz     :     0.008275
      dyz     :     0.011587
      dx2y2   :     0.019721
      dxy     :     0.011532
      f0      :     0.000392  f :     0.005637
      f+1     :     0.000310
      f-1     :     0.001363
      f+2     :     0.000015
      f-2     :     0.000920
      f+3     :     0.001141
      f-3     :     0.001497

 10 H s       :     0.822866  s :     0.822866
      pz      :     0.013277  p :     0.021913
      px      :     0.003726
      py      :     0.004910

 11 H s       :     0.808620  s :     0.808620
      pz      :     0.004277  p :     0.021971
      px      :     0.003495
      py      :     0.014199

 12 H s       :     0.860289  s :     0.860289
      pz      :     0.011951  p :     0.021777
      px      :     0.004155
      py      :     0.005671

 13 H s       :     0.841938  s :     0.841938
      pz      :     0.005422  p :     0.022132
      px      :     0.010621
      py      :     0.006090

 14 H s       :     0.889199  s :     0.889199
      pz      :     0.005802  p :     0.021770
      px      :     0.009716
      py      :     0.006253

 15 H s       :     0.876473  s :     0.876473
      pz      :     0.011572  p :     0.021581
      px      :     0.004361
      py      :     0.005647

 16 H s       :     0.764906  s :     0.764906
      pz      :     0.012278  p :     0.022145
      px      :     0.003401
      py      :     0.006466

 17 H s       :     0.780814  s :     0.780814
      pz      :     0.007157  p :     0.022763
      px      :     0.004939
      py      :     0.010667

 18 H s       :     0.778801  s :     0.778801
      pz      :     0.009854  p :     0.022708
      px      :     0.009294
      py      :     0.003561

 19 H s       :     0.862827  s :     0.862827
      pz      :     0.012061  p :     0.021457
      px      :     0.004245
      py      :     0.005151

 20 H s       :     0.853877  s :     0.853877
      pz      :     0.005518  p :     0.021517
      px      :     0.010561
      py      :     0.005438

 21 H s       :     0.844582  s :     0.844582
      pz      :     0.004462  p :     0.021812
      px      :     0.004533
      py      :     0.012817

 22 H s       :     0.821833  s :     0.821833
      pz      :     0.010862  p :     0.021953
      px      :     0.003850
      py      :     0.007241

 23 H s       :     0.802770  s :     0.802770
      pz      :     0.009675  p :     0.021631
      px      :     0.003745
      py      :     0.008211

 24 H s       :     0.801997  s :     0.801997
      pz      :     0.004531  p :     0.021647
      px      :     0.012089
      py      :     0.005027

 25 O s       :     3.826418  s :     3.826418
      pz      :     1.295742  p :     4.589333
      px      :     1.657740
      py      :     1.635850
      dz2     :     0.012851  d :     0.034697
      dxz     :     0.010315
      dyz     :     0.010424
      dx2y2   :     0.000583
      dxy     :     0.000523
      f0      :     0.000721  f :     0.002049
      f+1     :     0.000609
      f-1     :     0.000596
      f+2     :     0.000061
      f-2     :     0.000059
      f+3     :     0.000002
      f-3     :     0.000002

 26 F s       :     3.909282  s :     3.909282
      pz      :     1.600029  p :     5.239723
      px      :     1.785702
      py      :     1.853991
      dz2     :     0.004448  d :     0.016654
      dxz     :     0.005497
      dyz     :     0.003676
      dx2y2   :     0.001586
      dxy     :     0.001445
      f0      :     0.000116  f :     0.000757
      f+1     :     0.000229
      f-1     :     0.000119
      f+2     :     0.000119
      f-2     :     0.000129
      f+3     :     0.000021
      f-3     :     0.000024

 27 O s       :     3.821001  s :     3.821001
      pz      :     1.420250  p :     4.597246
      px      :     1.655718
      py      :     1.521277
      dz2     :     0.009829  d :     0.034586
      dxz     :     0.006711
      dyz     :     0.009615
      dx2y2   :     0.004298
      dxy     :     0.004132
      f0      :     0.000405  f :     0.002052
      f+1     :     0.000208
      f-1     :     0.000517
      f+2     :     0.000366
      f-2     :     0.000366
      f+3     :     0.000094
      f-3     :     0.000097

 28 F s       :     3.906412  s :     3.906412
      pz      :     1.801693  p :     5.259671
      px      :     1.566739
      py      :     1.891238
      dz2     :     0.002171  d :     0.016039
      dxz     :     0.005603
      dyz     :     0.000903
      dx2y2   :     0.004295
      dxy     :     0.003067
      f0      :     0.000085  f :     0.000735
      f+1     :     0.000135
      f-1     :     0.000006
      f+2     :     0.000201
      f-2     :     0.000078
      f+3     :     0.000125
      f-3     :     0.000105

 29 F s       :     3.905950  s :     3.905950
      pz      :     1.877253  p :     5.261864
      px      :     1.484976
      py      :     1.899635
      dz2     :     0.002080  d :     0.016021
      dxz     :     0.003879
      dyz     :     0.000388
      dx2y2   :     0.006165
      dxy     :     0.003509
      f0      :     0.000071  f :     0.000733
      f+1     :     0.000129
      f-1     :     0.000007
      f+2     :     0.000135
      f-2     :     0.000031
      f+3     :     0.000219
      f-3     :     0.000142

 30 S s       :     5.383214  s :     5.383214
      pz      :     2.803550  p :     8.638326
      px      :     2.897462
      py      :     2.937314
      dz2     :     0.226424  d :     1.108738
      dxz     :     0.261259
      dyz     :     0.215496
      dx2y2   :     0.211685
      dxy     :     0.193874
      f0      :     0.011626  f :     0.101776
      f+1     :     0.026175
      f-1     :     0.019388
      f+2     :     0.011791
      f-2     :     0.013407
      f+3     :     0.009876
      f-3     :     0.009513

 31 C s       :     3.093200  s :     3.093200
      pz      :     0.653778  p :     2.134739
      px      :     0.637987
      py      :     0.842975
      dz2     :     0.071887  d :     0.331674
      dxz     :     0.071042
      dyz     :     0.059899
      dx2y2   :     0.061892
      dxy     :     0.066955
      f0      :     0.007018  f :     0.038265
      f+1     :     0.004995
      f-1     :     0.004875
      f+2     :     0.007037
      f-2     :     0.005662
      f+3     :     0.003335
      f-3     :     0.005343

 32 F s       :     3.910225  s :     3.910225
      pz      :     1.871841  p :     5.247572
      px      :     1.743122
      py      :     1.632608
      dz2     :     0.002241  d :     0.016346
      dxz     :     0.001868
      dyz     :     0.002526
      dx2y2   :     0.003793
      dxy     :     0.005918
      f0      :     0.000073  f :     0.000747
      f+1     :     0.000058
      f-1     :     0.000086
      f+2     :     0.000030
      f-2     :     0.000139
      f+3     :     0.000198
      f-3     :     0.000162

 33 C s       :     3.082617  s :     3.082617
      pz      :     0.637995  p :     2.140361
      px      :     0.666650
      py      :     0.835715
      dz2     :     0.064877  d :     0.327841
      dxz     :     0.071472
      dyz     :     0.067364
      dx2y2   :     0.063578
      dxy     :     0.060550
      f0      :     0.004879  f :     0.038160
      f+1     :     0.009015
      f-1     :     0.006248
      f+2     :     0.003055
      f-2     :     0.005047
      f+3     :     0.003979
      f-3     :     0.005937

 34 O s       :     3.820983  s :     3.820983
      pz      :     1.623062  p :     4.615040
      px      :     1.495099
      py      :     1.496880
      dz2     :     0.004747  d :     0.034532
      dxz     :     0.005739
      dyz     :     0.005916
      dx2y2   :     0.009334
      dxy     :     0.008797
      f0      :     0.000176  f :     0.002055
      f+1     :     0.000235
      f-1     :     0.000233
      f+2     :     0.000183
      f-2     :     0.000389
      f+3     :     0.000414
      f-3     :     0.000425

 35 S s       :     5.384249  s :     5.384249
      pz      :     2.785743  p :     8.630888
      px      :     2.893523
      py      :     2.951623
      dz2     :     0.256740  d :     1.115049
      dxz     :     0.234844
      dyz     :     0.222262
      dx2y2   :     0.222642
      dxy     :     0.178561
      f0      :     0.024651  f :     0.102082
      f+1     :     0.015503
      f-1     :     0.010291
      f+2     :     0.014282
      f-2     :     0.018660
      f+3     :     0.008325
      f-3     :     0.010370

 36 N s       :     3.532090  s :     3.532090
      pz      :     1.394010  p :     3.842246
      px      :     0.923589
      py      :     1.524648
      dz2     :     0.011160  d :     0.051691
      dxz     :     0.016720
      dyz     :     0.007839
      dx2y2   :     0.007961
      dxy     :     0.008012
      f0      :     0.000328  f :     0.004272
      f+1     :     0.000630
      f-1     :     0.000046
      f+2     :     0.000911
      f-2     :     0.000309
      f+3     :     0.000941
      f-3     :     0.001108

 37 F s       :     3.906420  s :     3.906420
      pz      :     1.686165  p :     5.256744
      px      :     1.893358
      py      :     1.677221
      dz2     :     0.003373  d :     0.016224
      dxz     :     0.001951
      dyz     :     0.006525
      dx2y2   :     0.002677
      dxy     :     0.001697
      f0      :     0.000087  f :     0.000744
      f+1     :     0.000035
      f-1     :     0.000232
      f+2     :     0.000186
      f-2     :     0.000112
      f+3     :     0.000038
      f-3     :     0.000053

 38 F s       :     3.905357  s :     3.905357
      pz      :     1.475399  p :     5.251929
      px      :     1.881270
      py      :     1.895260
      dz2     :     0.008389  d :     0.016357
      dxz     :     0.003806
      dyz     :     0.003622
      dx2y2   :     0.000217
      dxy     :     0.000323
      f0      :     0.000356  f :     0.000752
      f+1     :     0.000196
      f-1     :     0.000155
      f+2     :     0.000017
      f-2     :     0.000026
      f+3     :     0.000001
      f-3     :     0.000001

 39 O s       :     3.817997  s :     3.817997
      pz      :     1.431235  p :     4.620722
      px      :     1.547149
      py      :     1.642337
      dz2     :     0.009967  d :     0.034492
      dxz     :     0.009929
      dyz     :     0.007393
      dx2y2   :     0.003549
      dxy     :     0.003654
      f0      :     0.000443  f :     0.002062
      f+1     :     0.000520
      f-1     :     0.000245
      f+2     :     0.000361
      f-2     :     0.000355
      f+3     :     0.000068
      f-3     :     0.000071



                     *******************************
                     * LOEWDIN POPULATION ANALYSIS *
                     *******************************

----------------------
LOEWDIN ATOMIC CHARGES
----------------------
   0 N :    0.288366
   1 N :    0.261766
   2 C :   -0.202059
   3 C :   -0.252553
   4 C :   -0.289793
   5 C :   -0.154681
   6 C :   -0.135575
   7 C :   -0.138209
   8 C :   -0.292793
   9 C :   -0.213459
  10 H :    0.149922
  11 H :    0.151554
  12 H :    0.142176
  13 H :    0.155366
  14 H :    0.129214
  15 H :    0.135666
  16 H :    0.159862
  17 H :    0.159349
  18 H :    0.158716
  19 H :    0.122675
  20 H :    0.125067
  21 H :    0.126311
  22 H :    0.136991
  23 H :    0.137961
  24 H :    0.138159
  25 O :   -0.287368
  26 F :    0.192447
  27 O :   -0.289163
  28 F :    0.171227
  29 F :    0.169553
  30 S :    0.550830
  31 C :   -0.799060
  32 F :    0.184158
  33 C :   -0.793250
  34 O :   -0.292363
  35 S :    0.544976
  36 N :   -0.419813
  37 F :    0.177352
  38 F :    0.182836
  39 O :   -0.292364

-------------------------------
LOEWDIN REDUCED ORBITAL CHARGES
-------------------------------
  0 N s       :     2.861503  s :     2.861503
      pz      :     1.166350  p :     3.494225
      px      :     1.147384
      py      :     1.180491
      dz2     :     0.074283  d :     0.331718
      dxz     :     0.076458
      dyz     :     0.053788
      dx2y2   :     0.065877
      dxy     :     0.061313
      f0      :     0.002989  f :     0.024188
      f+1     :     0.004464
      f-1     :     0.003328
      f+2     :     0.003789
      f-2     :     0.002334
      f+3     :     0.003393
      f-3     :     0.003890

  1 N s       :     2.863162  s :     2.863162
      pz      :     1.175093  p :     3.514751
      px      :     1.169476
      py      :     1.170182
      dz2     :     0.076413  d :     0.335993
      dxz     :     0.070592
      dyz     :     0.062865
      dx2y2   :     0.062127
      dxy     :     0.063996
      f0      :     0.002999  f :     0.024328
      f+1     :     0.004201
      f-1     :     0.002518
      f+2     :     0.003260
      f-2     :     0.004550
      f+3     :     0.003286
      f-3     :     0.003514

  2 C s       :     2.787388  s :     2.787388
      pz      :     1.022888  p :     2.936291
      px      :     0.883691
      py      :     1.029712
      dz2     :     0.104527  d :     0.428044
      dxz     :     0.082956
      dyz     :     0.036456
      dx2y2   :     0.130427
      dxy     :     0.073678
      f0      :     0.004409  f :     0.050336
      f+1     :     0.008477
      f-1     :     0.004902
      f+2     :     0.006620
      f-2     :     0.009086
      f+3     :     0.007813
      f-3     :     0.009029

  3 C s       :     2.781017  s :     2.781017
      pz      :     1.019170  p :     3.042774
      px      :     0.995665
      py      :     1.027938
      dz2     :     0.070272  d :     0.390297
      dxz     :     0.057037
      dyz     :     0.087116
      dx2y2   :     0.075863
      dxy     :     0.100010
      f0      :     0.004600  f :     0.038464
      f+1     :     0.004196
      f-1     :     0.004344
      f+2     :     0.006902
      f-2     :     0.004905
      f+3     :     0.007033
      f-3     :     0.006484

  4 C s       :     2.782669  s :     2.782669
      pz      :     1.030683  p :     3.064422
      px      :     1.031260
      py      :     1.002479
      dz2     :     0.081898  d :     0.403265
      dxz     :     0.054405
      dyz     :     0.078518
      dx2y2   :     0.091632
      dxy     :     0.096812
      f0      :     0.004679  f :     0.039437
      f+1     :     0.004411
      f-1     :     0.004568
      f+2     :     0.006449
      f-2     :     0.004919
      f+3     :     0.007365
      f-3     :     0.007045

  5 C s       :     2.763358  s :     2.763358
      pz      :     0.962499  p :     2.780860
      px      :     0.896253
      py      :     0.922108
      dz2     :     0.087270  d :     0.520398
      dxz     :     0.103337
      dyz     :     0.098725
      dx2y2   :     0.129407
      dxy     :     0.101658
      f0      :     0.007001  f :     0.090065
      f+1     :     0.018484
      f-1     :     0.010422
      f+2     :     0.015694
      f-2     :     0.013649
      f+3     :     0.009067
      f-3     :     0.015747

  6 C s       :     2.770057  s :     2.770057
      pz      :     0.895834  p :     2.875550
      px      :     0.992407
      py      :     0.987308
      dz2     :     0.090424  d :     0.422773
      dxz     :     0.097567
      dyz     :     0.088051
      dx2y2   :     0.070071
      dxy     :     0.076660
      f0      :     0.014831  f :     0.067195
      f+1     :     0.009354
      f-1     :     0.009901
      f+2     :     0.006973
      f-2     :     0.009545
      f+3     :     0.010105
      f-3     :     0.006486

  7 C s       :     2.771299  s :     2.771299
      pz      :     0.915198  p :     2.878284
      px      :     1.027752
      py      :     0.935334
      dz2     :     0.075673  d :     0.421571
      dxz     :     0.106658
      dyz     :     0.077969
      dx2y2   :     0.095289
      dxy     :     0.065982
      f0      :     0.012163  f :     0.067055
      f+1     :     0.006736
      f-1     :     0.011682
      f+2     :     0.009337
      f-2     :     0.010767
      f+3     :     0.010196
      f-3     :     0.006174

  8 C s       :     2.832468  s :     2.832468
      pz      :     1.062867  p :     3.176899
      px      :     1.043352
      py      :     1.070680
      dz2     :     0.071194  d :     0.258100
      dxz     :     0.049440
      dyz     :     0.023027
      dx2y2   :     0.070883
      dxy     :     0.043555
      f0      :     0.002656  f :     0.025326
      f+1     :     0.003959
      f-1     :     0.003453
      f+2     :     0.003319
      f-2     :     0.004506
      f+3     :     0.002525
      f-3     :     0.004909

  9 C s       :     2.838303  s :     2.838303
      pz      :     1.100450  p :     3.054294
      px      :     0.973103
      py      :     0.980740
      dz2     :     0.040667  d :     0.283395
      dxz     :     0.027477
      dyz     :     0.069567
      dx2y2   :     0.072567
      dxy     :     0.073117
      f0      :     0.003138  f :     0.037467
      f+1     :     0.004863
      f-1     :     0.004795
      f+2     :     0.002770
      f-2     :     0.005362
      f+3     :     0.007365
      f-3     :     0.009175

 10 H s       :     0.790377  s :     0.790377
      pz      :     0.033991  p :     0.059701
      px      :     0.010244
      py      :     0.015467

 11 H s       :     0.788185  s :     0.788185
      pz      :     0.012791  p :     0.060261
      px      :     0.009996
      py      :     0.037474

 12 H s       :     0.798800  s :     0.798800
      pz      :     0.030898  p :     0.059023
      px      :     0.012541
      py      :     0.015584

 13 H s       :     0.785347  s :     0.785347
      pz      :     0.016260  p :     0.059286
      px      :     0.026541
      py      :     0.016485

 14 H s       :     0.812347  s :     0.812347
      pz      :     0.017164  p :     0.058439
      px      :     0.025032
      py      :     0.016243

 15 H s       :     0.806008  s :     0.806008
      pz      :     0.030122  p :     0.058326
      px      :     0.013180
      py      :     0.015024

 16 H s       :     0.775205  s :     0.775205
      pz      :     0.034666  p :     0.064933
      px      :     0.010925
      py      :     0.019343

 17 H s       :     0.776809  s :     0.776809
      pz      :     0.020356  p :     0.063841
      px      :     0.014362
      py      :     0.029124

 18 H s       :     0.777331  s :     0.777331
      pz      :     0.027327  p :     0.063953
      px      :     0.025562
      py      :     0.011064

 19 H s       :     0.816443  s :     0.816443
      pz      :     0.032422  p :     0.060882
      px      :     0.012715
      py      :     0.015745

 20 H s       :     0.813901  s :     0.813901
      pz      :     0.016889  p :     0.061032
      px      :     0.027586
      py      :     0.016557

 21 H s       :     0.812414  s :     0.812414
      pz      :     0.013114  p :     0.061275
      px      :     0.012928
      py      :     0.035234

 22 H s       :     0.800470  s :     0.800470
      pz      :     0.031375  p :     0.062539
      px      :     0.012027
      py      :     0.019136

 23 H s       :     0.799133  s :     0.799133
      pz      :     0.029144  p :     0.062906
      px      :     0.011185
      py      :     0.022577

 24 H s       :     0.798909  s :     0.798909
      pz      :     0.013911  p :     0.062933
      px      :     0.032921
      py      :     0.016101

 25 O s       :     3.559445  s :     3.559445
      pz      :     1.479275  p :     4.655197
      px      :     1.601540
      py      :     1.574382
      dz2     :     0.037879  d :     0.068074
      dxz     :     0.014883
      dyz     :     0.013635
      dx2y2   :     0.000835
      dxy     :     0.000842
      f0      :     0.002279  f :     0.004652
      f+1     :     0.001143
      f-1     :     0.000970
      f+2     :     0.000116
      f-2     :     0.000133
      f+3     :     0.000004
      f-3     :     0.000005

 26 F s       :     3.606110  s :     3.606110
      pz      :     1.629591  p :     5.168079
      px      :     1.748969
      py      :     1.789519
      dz2     :     0.008019  d :     0.031702
      dxz     :     0.010301
      dyz     :     0.007849
      dx2y2   :     0.002860
      dxy     :     0.002673
      f0      :     0.000249  f :     0.001662
      f+1     :     0.000464
      f-1     :     0.000285
      f+2     :     0.000277
      f-2     :     0.000289
      f+3     :     0.000050
      f-3     :     0.000048

 27 O s       :     3.559137  s :     3.559137
      pz      :     1.521715  p :     4.657997
      px      :     1.600388
      py      :     1.535893
      dz2     :     0.016778  d :     0.067397
      dxz     :     0.009626
      dyz     :     0.027541
      dx2y2   :     0.007779
      dxy     :     0.005673
      f0      :     0.000641  f :     0.004632
      f+1     :     0.000380
      f-1     :     0.001596
      f+2     :     0.000953
      f-2     :     0.000678
      f+3     :     0.000167
      f-3     :     0.000217

 28 F s       :     3.611568  s :     3.611568
      pz      :     1.761022  p :     5.184979
      px      :     1.607092
      py      :     1.816866
      dz2     :     0.003897  d :     0.030628
      dxz     :     0.010464
      dyz     :     0.001677
      dx2y2   :     0.008273
      dxy     :     0.006317
      f0      :     0.000170  f :     0.001597
      f+1     :     0.000309
      f-1     :     0.000009
      f+2     :     0.000401
      f-2     :     0.000190
      f+3     :     0.000245
      f-3     :     0.000274

 29 F s       :     3.612037  s :     3.612037
      pz      :     1.809291  p :     5.186255
      px      :     1.554233
      py      :     1.822731
      dz2     :     0.003782  d :     0.030561
      dxz     :     0.006998
      dyz     :     0.000648
      dx2y2   :     0.012218
      dxy     :     0.006916
      f0      :     0.000157  f :     0.001593
      f+1     :     0.000255
      f-1     :     0.000015
      f+2     :     0.000288
      f-2     :     0.000077
      f+3     :     0.000441
      f-3     :     0.000359

 30 S s       :     4.745674  s :     4.745674
      pz      :     2.868303  p :     8.623019
      px      :     2.871775
      py      :     2.882941
      dz2     :     0.398020  d :     1.771888
      dxz     :     0.420342
      dyz     :     0.320618
      dx2y2   :     0.315254
      dxy     :     0.317653
      f0      :     0.042234  f :     0.308590
      f+1     :     0.076129
      f-1     :     0.054025
      f+2     :     0.034018
      f-2     :     0.041497
      f+3     :     0.030207
      f-3     :     0.030479

 31 C s       :     2.855112  s :     2.855112
      pz      :     0.810352  p :     2.594110
      px      :     0.804839
      py      :     0.978919
      dz2     :     0.223176  d :     1.105975
      dxz     :     0.236259
      dyz     :     0.228561
      dx2y2   :     0.239352
      dxy     :     0.178627
      f0      :     0.040119  f :     0.243863
      f+1     :     0.037927
      f-1     :     0.032813
      f+2     :     0.042885
      f-2     :     0.034858
      f+3     :     0.025300
      f-3     :     0.029962

 32 F s       :     3.608127  s :     3.608127
      pz      :     1.804371  p :     5.174836
      px      :     1.723296
      py      :     1.647169
      dz2     :     0.004329  d :     0.031242
      dxz     :     0.003191
      dyz     :     0.004281
      dx2y2   :     0.007796
      dxy     :     0.011646
      f0      :     0.000141  f :     0.001636
      f+1     :     0.000126
      f-1     :     0.000203
      f+2     :     0.000062
      f-2     :     0.000289
      f+3     :     0.000436
      f-3     :     0.000378

 33 C s       :     2.851641  s :     2.851641
      pz      :     0.798381  p :     2.593944
      px      :     0.824937
      py      :     0.970626
      dz2     :     0.261830  d :     1.103980
      dxz     :     0.236313
      dyz     :     0.178489
      dx2y2   :     0.203063
      dxy     :     0.224286
      f0      :     0.038531  f :     0.243685
      f+1     :     0.049921
      f-1     :     0.035959
      f+2     :     0.027193
      f-2     :     0.031948
      f+3     :     0.028212
      f-3     :     0.031920

 34 O s       :     3.558032  s :     3.558032
      pz      :     1.593009  p :     4.663437
      px      :     1.542359
      py      :     1.528070
      dz2     :     0.008418  d :     0.066295
      dxz     :     0.011006
      dyz     :     0.010891
      dx2y2   :     0.012440
      dxy     :     0.023539
      f0      :     0.000518  f :     0.004598
      f+1     :     0.000406
      f-1     :     0.000425
      f+2     :     0.000276
      f-2     :     0.001087
      f+3     :     0.000935
      f-3     :     0.000951

 35 S s       :     4.744788  s :     4.744788
      pz      :     2.867853  p :     8.617767
      px      :     2.864522
      py      :     2.885392
      dz2     :     0.400443  d :     1.783805
      dxz     :     0.390985
      dyz     :     0.367311
      dx2y2   :     0.359219
      dxy     :     0.265847
      f0      :     0.068921  f :     0.308663
      f+1     :     0.050677
      f-1     :     0.036137
      f+2     :     0.045912
      f-2     :     0.053283
      f+3     :     0.024405
      f-3     :     0.029327

 36 N s       :     3.224490  s :     3.224490
      pz      :     1.424643  p :     4.016219
      px      :     1.171443
      py      :     1.420133
      dz2     :     0.022253  d :     0.166157
      dxz     :     0.065310
      dyz     :     0.009612
      dx2y2   :     0.043579
      dxy     :     0.025402
      f0      :     0.001315  f :     0.012948
      f+1     :     0.002442
      f-1     :     0.000133
      f+2     :     0.002946
      f-2     :     0.001138
      f+3     :     0.003038
      f-3     :     0.001936

 37 F s       :     3.609515  s :     3.609515
      pz      :     1.686375  p :     5.180551
      px      :     1.817634
      py      :     1.676541
      dz2     :     0.006085  d :     0.030962
      dxz     :     0.003251
      dyz     :     0.013213
      dx2y2   :     0.005710
      dxy     :     0.002703
      f0      :     0.000218  f :     0.001619
      f+1     :     0.000073
      f-1     :     0.000471
      f+2     :     0.000410
      f-2     :     0.000238
      f+3     :     0.000073
      f-3     :     0.000137

 38 F s       :     3.607932  s :     3.607932
      pz      :     1.549805  p :     5.176451
      px      :     1.809185
      py      :     1.817461
      dz2     :     0.016320  d :     0.031145
      dxz     :     0.006824
      dyz     :     0.007194
      dx2y2   :     0.000271
      dxy     :     0.000535
      f0      :     0.000710  f :     0.001636
      f+1     :     0.000436
      f-1     :     0.000394
      f+2     :     0.000026
      f-2     :     0.000065
      f+3     :     0.000002
      f-3     :     0.000002

 39 O s       :     3.556053  s :     3.556053
      pz      :     1.528557  p :     4.665785
      px      :     1.560082
      py      :     1.577146
      dz2     :     0.018450  d :     0.065926
      dxz     :     0.026114
      dyz     :     0.010555
      dx2y2   :     0.005995
      dxy     :     0.004812
      f0      :     0.000692  f :     0.004600
      f+1     :     0.001686
      f-1     :     0.000490
      f+2     :     0.000844
      f-2     :     0.000615
      f+3     :     0.000147
      f-3     :     0.000125



                      *****************************
                      * MAYER POPULATION ANALYSIS *
                      *****************************

  NA   - Mulliken gross atomic population
  ZA   - Total nuclear charge
  QA   - Mulliken gross atomic charge
  VA   - Mayer's total valence
  BVA  - Mayer's bonded valence
  FA   - Mayer's free valence

  ATOM       NA         ZA         QA         VA         BVA        FA
  0 N      7.0023     7.0000    -0.0023     3.4301     3.4301    -0.0000
  1 N      7.0310     7.0000    -0.0310     3.4509     3.4509    -0.0000
  2 C      6.1722     6.0000    -0.1722     3.7948     3.7948    -0.0000
  3 C      6.1861     6.0000    -0.1861     3.7825     3.7825    -0.0000
  4 C      6.1870     6.0000    -0.1870     3.8554     3.8554     0.0000
  5 C      5.9482     6.0000     0.0518     3.8890     3.8890    -0.0000
  6 C      6.0789     6.0000    -0.0789     3.9302     3.9302    -0.0000
  7 C      6.0517     6.0000    -0.0517     3.8850     3.8850     0.0000
  8 C      6.3335     6.0000    -0.3335     3.9192     3.9192     0.0000
  9 C      6.2685     6.0000    -0.2685     3.7876     3.7876     0.0000
 10 H      0.8448     1.0000     0.1552     0.9638     0.9638    -0.0000
 11 H      0.8306     1.0000     0.1694     0.9591     0.9591    -0.0000
 12 H      0.8821     1.0000     0.1179     0.9741     0.9741    -0.0000
 13 H      0.8641     1.0000     0.1359     0.9740     0.9740    -0.0000
 14 H      0.9110     1.0000     0.0890     0.9569     0.9569    -0.0000
 15 H      0.8981     1.0000     0.1019     0.9615     0.9615    -0.0000
 16 H      0.7871     1.0000     0.2129     0.9543     0.9543     0.0000
 17 H      0.8036     1.0000     0.1964     0.9635     0.9635     0.0000
 18 H      0.8015     1.0000     0.1985     0.9627     0.9627     0.0000
 19 H      0.8843     1.0000     0.1157     0.9682     0.9682     0.0000
 20 H      0.8754     1.0000     0.1246     0.9691     0.9691    -0.0000
 21 H      0.8664     1.0000     0.1336     0.9679     0.9679     0.0000
 22 H      0.8438     1.0000     0.1562     0.9648     0.9648    -0.0000
 23 H      0.8244     1.0000     0.1756     0.9527     0.9527     0.0000
 24 H      0.8236     1.0000     0.1764     0.9523     0.9523    -0.0000
 25 O      8.4525     8.0000    -0.4525     2.0149     2.0149     0.0000
 26 F      9.1664     9.0000    -0.1664     1.1302     1.1302    -0.0000
 27 O      8.4549     8.0000    -0.4549     2.0221     2.0221     0.0000
 28 F      9.1829     9.0000    -0.1829     1.1076     1.1076    -0.0000
 29 F      9.1846     9.0000    -0.1846     1.1071     1.1071    -0.0000
 30 S     15.2321    16.0000     0.7679     5.9780     5.9780     0.0000
 31 C      5.5979     6.0000     0.4021     4.3591     4.3591    -0.0000
 32 F      9.1749     9.0000    -0.1749     1.1204     1.1204    -0.0000
 33 C      5.5890     6.0000     0.4110     4.3802     4.3802     0.0000
 34 O      8.4726     8.0000    -0.4726     2.0140     2.0140    -0.0000
 35 S     15.2323    16.0000     0.7677     6.0094     6.0094     0.0000
 36 N      7.4303     7.0000    -0.4303     2.6781     2.6781    -0.0000
 37 F      9.1801     9.0000    -0.1801     1.1087     1.1087    -0.0000
 38 F      9.1744     9.0000    -0.1744     1.1202     1.1202     0.0000
 39 O      8.4753     8.0000    -0.4753     2.0189     2.0189    -0.0000

  Mayer bond orders larger than 0.100000
B(  0-N ,  2-C ) :   0.8428 B(  0-N ,  5-C ) :   1.3701 B(  0-N ,  6-C ) :   1.1606 
B(  1-N ,  5-C ) :   1.3578 B(  1-N ,  7-C ) :   1.1580 B(  1-N ,  9-C ) :   0.8751 
B(  2-C ,  3-C ) :   0.9490 B(  2-C , 10-H ) :   0.9662 B(  2-C , 11-H ) :   0.9661 
B(  3-C ,  4-C ) :   0.9570 B(  3-C , 12-H ) :   0.9624 B(  3-C , 13-H ) :   0.9585 
B(  4-C ,  8-C ) :   0.9881 B(  4-C , 14-H ) :   0.9556 B(  4-C , 15-H ) :   0.9609 
B(  5-C , 16-H ) :   0.9273 B(  6-C ,  7-C ) :   1.6645 B(  6-C , 17-H ) :   0.9410 
B(  7-C , 18-H ) :   0.9365 B(  8-C , 19-H ) :   0.9720 B(  8-C , 20-H ) :   0.9750 
B(  8-C , 21-H ) :   0.9759 B(  9-C , 22-H ) :   0.9595 B(  9-C , 23-H ) :   0.9554 
B(  9-C , 24-H ) :   0.9537 B( 25-O , 30-S ) :   1.8622 B( 26-F , 31-C ) :   1.1176 
B( 27-O , 35-S ) :   1.8810 B( 28-F , 33-C ) :   1.1060 B( 29-F , 31-C ) :   1.1032 
B( 30-S , 33-C ) :   0.8370 B( 30-S , 34-O ) :   1.8754 B( 30-S , 36-N ) :   1.2526 
B( 31-C , 35-S ) :   0.8300 B( 31-C , 37-F ) :   1.0987 B( 32-F , 33-C ) :   1.1106 
B( 33-C , 38-F ) :   1.1190 B( 35-S , 36-N ) :   1.2719 B( 35-S , 39-O ) :   1.8828 


-------
TIMINGS
-------

Total SCF time: 0 days 0 hours 0 min 21 sec 

Total time                  ....      21.893 sec
Sum of individual times     ....      22.026 sec  (100.6%)

SCF preparation             ....       0.871 sec  (  4.0%)
Fock matrix formation       ....      15.860 sec  ( 72.4%)
  Startup                   ....       0.147 sec  (  0.9% of F)
  Split-RI-J                ....       2.509 sec  ( 15.8% of F)
  Chain of spheres X        ....      10.666 sec  ( 67.3% of F)
  XC integration            ....       2.074 sec  ( 13.1% of F)
    XC Preparation          ....       0.000 sec  (  0.0% of XC)
    Basis function eval.    ....       0.461 sec  ( 22.2% of XC)
    Density eval.           ....       0.509 sec  ( 24.5% of XC)
    XC-Functional eval.     ....       0.049 sec  (  2.4% of XC)
    XC-Potential eval.      ....       0.646 sec  ( 31.1% of XC)
Diagonalization             ....       0.000 sec  (  0.0%)
Density matrix formation    ....       0.500 sec  (  2.3%)
Total Energy calculation    ....       0.202 sec  (  0.9%)
Population analysis         ....       0.189 sec  (  0.9%)
Orbital Transformation      ....       0.593 sec  (  2.7%)
Orbital Orthonormalization  ....       0.000 sec  (  0.0%)
DIIS solution               ....       2.831 sec  ( 12.9%)
SOSCF solution              ....       0.980 sec  (  4.5%)
Finished LeanSCF after  22.0 sec

Maximum memory used throughout the entire LEANSCF-calculation: 97.7 MB


-------------------------------------------------------------------------------
                          DFT DISPERSION CORRECTION                            
                                                                               
                                DFTD4 V3.4.0                                   
-------------------------------------------------------------------------------
The B3LYP functional is recognized
Active option DFTDOPT                   ...         5   

-------------------------   ----------------
Dispersion correction           -0.073105483
-------------------------   ----------------


-------------------------   --------------------
FINAL SINGLE POINT ENERGY     -2250.464569537566
-------------------------   --------------------



           ************************************************************
           *        Program running with 30 parallel MPI-processes    *
           *              working on a common directory               *
           ************************************************************
------------------------------------------------------------------------------
                         ORCA SCF GRADIENT CALCULATION
------------------------------------------------------------------------------

Nuc. rep. gradient        (SHARK) ... done (  0.0 sec)
HCore & Overlap gradient  (SHARK) ... done (  0.1 sec)
Split-RIJ-J gradient      (SHARK) ... done (  0.7 sec)
COSX-gradient                     ... done (  6.0 sec)
XC gradient                       ... done (  0.9 sec)
Dispersion correction             ... done (  0.0 sec)

-------------------
DISPERSION GRADIENT
-------------------

   1   N   :   -0.000253378    0.000339609   -0.000124285
   2   N   :   -0.000402836   -0.000133518    0.000021253
   3   C   :    0.000316226    0.000506071   -0.000424654
   4   C   :    0.000591730    0.000290798   -0.000058186
   5   C   :    0.000657207   -0.000398949    0.000048580
   6   C   :   -0.000457059   -0.000044268   -0.000218295
   7   C   :   -0.000424448    0.000380254    0.000340835
   8   C   :   -0.000348065    0.000142721    0.000329917
   9   C   :    0.000411506   -0.000307766    0.000201399
  10   C   :   -0.000537077   -0.000492052   -0.000099158
  11   H   :    0.000056771    0.000103594   -0.000177117
  12   H   :    0.000064964    0.000185445   -0.000096652
  13   H   :    0.000149151    0.000098900    0.000065988
  14   H   :    0.000123438    0.000099029   -0.000047542
  15   H   :    0.000226771   -0.000184093    0.000079758
  16   H   :    0.000179418   -0.000133983   -0.000044754
  17   H   :   -0.000077884   -0.000110652   -0.000228266
  18   H   :   -0.000079008    0.000180870    0.000180892
  19   H   :   -0.000103129    0.000052304    0.000164598
  20   H   :    0.000102216   -0.000081595    0.000077679
  21   H   :    0.000106309   -0.000073456    0.000038687
  22   H   :    0.000073133   -0.000072346    0.000040627
  23   H   :   -0.000115435   -0.000122275   -0.000042901
  24   H   :   -0.000114191   -0.000135897    0.000004615
  25   H   :   -0.000146139   -0.000088618   -0.000032980
  26   O   :    0.000487351   -0.000313404    0.000818506
  27   F   :   -0.000464489    0.000534867    0.000470248
  28   O   :   -0.000501370   -0.000701102    0.000299964
  29   F   :    0.000401552    0.000315336    0.000046714
  30   F   :   -0.000402831    0.000288022    0.000157834
  31   S   :    0.001385782   -0.000351749    0.000124400
  32   C   :   -0.000720456    0.000294697    0.000059684
  33   F   :    0.000444849    0.000670909   -0.000023463
  34   C   :    0.000628290    0.000276274   -0.000076013
  35   O   :    0.000526141   -0.000592356   -0.000087790
  36   S   :   -0.001307731   -0.000403304   -0.000214959
  37   N   :    0.000033753   -0.000556824   -0.000556640
  38   F   :   -0.000427261    0.000567073   -0.000124794
  39   F   :    0.000345484    0.000330202   -0.000351553
  40   O   :   -0.000429257   -0.000358768   -0.000542175

Difference to translation invariance:
           :   -0.0000000000   -0.0000000000    0.0000000000

Difference to rotation invariance:
           :    0.0000000000   -0.0000000000   -0.0000000000

Norm of the Dispersion gradient    ...    0.0039887700
RMS gradient                       ...    0.0003641232
MAX gradient                       ...    0.0013857816

------------------
CARTESIAN GRADIENT
------------------

   1   N   :    0.000062660    0.000039184   -0.000018432
   2   N   :    0.000032741    0.000005599   -0.000022000
   3   C   :   -0.000042464   -0.000002326    0.000001675
   4   C   :    0.000019578    0.000017961    0.000007508
   5   C   :   -0.000002023   -0.000018378   -0.000001179
   6   C   :   -0.000068012   -0.000032885   -0.000001310
   7   C   :   -0.000029267    0.000020230    0.000050208
   8   C   :    0.000009344    0.000024892    0.000017225
   9   C   :    0.000009145   -0.000017703    0.000005108
  10   C   :   -0.000066612   -0.000063027   -0.000022834
  11   H   :   -0.000002875    0.000005086    0.000000167
  12   H   :    0.000000453    0.000011860   -0.000000580
  13   H   :   -0.000006984   -0.000006466   -0.000002000
  14   H   :    0.000007292    0.000007834   -0.000005435
  15   H   :    0.000028253    0.000009128   -0.000011223
  16   H   :    0.000004652   -0.000002908    0.000011476
  17   H   :   -0.000008608   -0.000002467   -0.000017334
  18   H   :   -0.000015731   -0.000006057    0.000000978
  19   H   :   -0.000013116   -0.000003557    0.000008388
  20   H   :   -0.000001182   -0.000008246    0.000013799
  21   H   :    0.000017395    0.000001169   -0.000009273
  22   H   :    0.000003192   -0.000015077    0.000001009
  23   H   :   -0.000002897   -0.000006179   -0.000016881
  24   H   :   -0.000002587   -0.000009756    0.000001988
  25   H   :   -0.000011343    0.000003217   -0.000005569
  26   O   :    0.000068305    0.000042612   -0.000010736
  27   F   :    0.000044263    0.000023507    0.000022157
  28   O   :    0.000064175    0.000057041   -0.000002663
  29   F   :    0.000068579    0.000055480    0.000037072
  30   F   :    0.000096658   -0.000007942   -0.000043432
  31   S   :   -0.000316045   -0.000084068   -0.000062134
  32   C   :   -0.000126233   -0.000026623   -0.000043728
  33   F   :    0.000034700    0.000011046    0.000002009
  34   C   :   -0.000138154   -0.000067046   -0.000047404
  35   O   :    0.000077177    0.000048422    0.000048592
  36   S   :   -0.000161900   -0.000074184   -0.000044323
  37   N   :    0.000202422    0.000045425    0.000035723
  38   F   :    0.000024149   -0.000014322   -0.000005039
  39   F   :    0.000021832    0.000000476    0.000046203
  40   O   :    0.000119067    0.000039049    0.000082223

Difference to translation invariance:
           :    0.0000000003    0.0000000002    0.0000000000

Difference to rotation invariance:
           :   -0.0000531868   -0.0007771037    0.0002787316

Norm of the Cartesian gradient     ...    0.0005853677
RMS gradient                       ...    0.0000534365
MAX gradient                       ...    0.0003160446

-------
TIMINGS
-------

Total SCF gradient time     ....        7.841 sec

Densities                   ....       0.023 sec  (  0.3%)
One electron gradient       ....       0.131 sec  (  1.7%)
RI-J Coulomb gradient       ....       0.741 sec  (  9.5%)
COSX gradient               ....       5.998 sec  ( 76.5%)
XC gradient                 ....       0.919 sec  ( 11.7%)

Maximum memory used throughout the entire SCFGRAD-calculation: 117.2 MB
------------------------------------------------------------------------------
                         ORCA GEOMETRY RELAXATION STEP
------------------------------------------------------------------------------

Reading the OPT-File                    .... done
Getting information on internals        .... done
Copying old internal coords+grads       .... done
Making the new internal coordinates     .... (2022 redundants) done
Validating the new internal coordinates .... (2022 redundants) done
Calculating the B-matrix                .... done
Calculating the G,G- and P matrices     .... done
Transforming gradient to internals      .... done
Projecting the internal gradient        .... done
Number of atoms                         ....  40
Number of internal coordinates          .... 1750
Current Energy                          .... -2250.464569538 Eh
Current gradient norm                   ....     0.000585368 Eh/bohr
Maximum allowed component of the step   ....  0.300
Current trust radius                    ....  0.300
Evaluating the initial hessian          ....  (Almloef) done
Projecting the Hessian                  .... done
Forming the augmented Hessian           .... done
Diagonalizing the augmented Hessian     .... done
Last element of RFO vector              ....  0.740868860
Lowest eigenvalues of augmented Hessian:
 -0.000005342  0.000004420  0.001341400  0.001365837  0.001593133
Length of the computed step             ....  0.906570308
Warning: the length of the step is outside the trust region - taking restricted step instead
The input lambda is                     ....    -0.001000
The lambda equations have not converged!
Evaluating lambda by bisection method.
   iter   5 best     0.000657 lambda    -0.156250
   iter  10 best     0.005648 lambda    -0.004883
   iter  15 best     0.035921 lambda    -0.000153
   iter  20 best     0.204546 lambda    -0.000024
   iter  25 best     0.253367 lambda    -0.000019
   iter  30 best     0.255275 lambda    -0.000019
   iter  35 best     0.255335 lambda    -0.000019
   iter  40 best     0.255337 lambda    -0.000019
   iter  45 best     0.255337 lambda    -0.000019
The output lambda is                    ....    -0.000019
The ideal lambda was not found, but a reduced step is possible.
The final length of the internal step   ....  0.255336811
Converting the step to Cartesian space:
 Initial RMS(Int)=    0.0061037172
Transforming coordinates:
 Iter   0:  RMS(Cart)=    0.0038779009 RMS(Int)=    0.0061036941
done
Storing new coordinates                 .... done

                                .--------------------.
          ----------------------|Geometry convergence|-------------------------
          Item                value                   Tolerance       Converged
          ---------------------------------------------------------------------
          RMS gradient        0.0000048185            0.0000300000      YES
          MAX gradient        0.0000510313            0.0001000000      YES
          RMS step            0.0061037172            0.0006000000      NO
          MAX step            0.0140118880            0.0010000000      NO
          ........................................................
          Max(Bonds)      0.0074      Max(Angles)    0.02
          Max(Dihed)        0.09      Max(Improp)    0.00
          ---------------------------------------------------------------------

The optimization has not yet converged - more geometry cycles are needed


    ---------------------------------------------------------------------------
                         Redundant Internal Coordinates
                            (Angstroem and degrees)

        Definition                    Value    dE/dq     Step     New-Value
    ----------------------------------------------------------------------------
     1. B(C   2,N   0)                1.4758 -0.000002 -0.0001    1.4758   
     2. B(C   3,C   2)                1.5253  0.000024 -0.0001    1.5252   
     3. B(C   4,C   3)                1.5275  0.000051 -0.0001    1.5274   
     4. B(C   5,N   0)                1.3311  0.000005 -0.0001    1.3311   
     5. B(C   5,N   1)                1.3337 -0.000003 -0.0000    1.3337   
     6. B(C   6,N   0)                1.3770  0.000026 -0.0000    1.3769   
     7. B(C   7,N   1)                1.3780  0.000022 -0.0001    1.3779   
     8. B(C   7,C   6)                1.3579 -0.000004 -0.0000    1.3579   
     9. B(C   8,C   4)                1.5270  0.000020 -0.0001    1.5269   
    10. B(C   9,N   1)                1.4645  0.000004 -0.0001    1.4643   
    11. B(H  10,C   2)                1.0899 -0.000004  0.0000    1.0900   
    12. B(H  10,N   0)                2.0710 -0.000001 -0.0001    2.0709   
    13. B(H  11,C   2)                1.0897  0.000010 -0.0000    1.0897   
    14. B(H  11,N   0)                2.0758 -0.000004  0.0000    2.0758   
    15. B(H  12,C   3)                1.0944 -0.000004  0.0000    1.0944   
    16. B(H  13,C   3)                1.0934 -0.000002 -0.0000    1.0934   
    17. B(H  14,C   4)                1.0955 -0.000010  0.0001    1.0955   
    18. B(H  15,C   4)                1.0957 -0.000008  0.0000    1.0957   
    19. B(H  16,C   5)                1.0760  0.000004 -0.0000    1.0760   
    20. B(H  16,N   1)                2.1460  0.000004 -0.0000    2.1459   
    21. B(H  17,C   6)                1.0752 -0.000004  0.0000    1.0752   
    22. B(H  17,N   0)                2.1515  0.000018 -0.0000    2.1514   
    23. B(H  18,N   1)                2.1523  0.000020 -0.0001    2.1523   
    24. B(H  18,C   7)                1.0755 -0.000001 -0.0000    1.0755   
    25. B(H  19,C   8)                1.0921  0.000006 -0.0000    1.0921   
    26. B(H  20,C   8)                1.0917  0.000003 -0.0000    1.0917   
    27. B(H  21,C   8)                1.0902  0.000009 -0.0000    1.0902   
    28. B(H  22,C   9)                1.0867  0.000010 -0.0000    1.0867   
    29. B(H  23,C   9)                1.0883  0.000004 -0.0000    1.0883   
    30. B(H  24,C   9)                1.0884  0.000001 -0.0000    1.0884   
    31. B(O  25,N   1)               57.3127  0.000002 -0.0070   57.3057   
    32. B(O  25,C   5)               56.4584  0.000004 -0.0070   56.4514   
    33. B(O  25,C   7)               56.6478 -0.000002 -0.0069   56.6408   
    34. B(O  25,H  13)               52.1990  0.000000 -0.0068   52.1922   
    35. B(O  25,H  10)               54.3642  0.000002 -0.0069   54.3573   
    36. B(O  25,C   9)               58.7413  0.000005 -0.0071   58.7341   
    37. B(O  25,C   3)               53.0901 -0.000003 -0.0067   53.0833   
    38. B(O  25,H  11)               53.5609 -0.000001 -0.0068   53.5541   
    39. B(O  25,H  23)               58.9795  0.000003 -0.0071   58.9724   
    40. B(O  25,N   0)               55.2507 -0.000002 -0.0069   55.2438   
    41. B(O  25,H  22)               58.9976  0.000003 -0.0072   58.9904   
    42. B(O  25,H  20)               51.9061 -0.000000 -0.0067   51.8994   
    43. B(O  25,H  15)               54.0859  0.000000 -0.0068   54.0791   
    44. B(O  25,C   2)               54.0255  0.000003 -0.0068   54.0187   
    45. B(O  25,C   6)               55.3500  0.000001 -0.0069   55.3431   
    46. B(O  25,H  24)               59.3263  0.000002 -0.0071   59.3192   
    47. B(O  25,H  18)               57.1654  0.000001 -0.0069   57.1585   
    48. B(O  25,H  20)               51.9061 -0.000000 -0.0067   51.8994   
    49. B(O  25,H  12)               52.7656  0.000001 -0.0067   52.7589   
    50. B(O  25,C   4)               53.7251  0.000005 -0.0067   53.7184   
    51. B(O  25,H  16)               56.7230  0.000003 -0.0070   56.7159   
    52. B(O  25,H  19)               52.4571  0.000001 -0.0067   52.4504   
    53. B(O  25,H  17)               54.5180  0.000002 -0.0069   54.5111   
    54. B(O  25,H  14)               54.6153 -0.000001 -0.0067   54.6087   
    55. B(O  25,H  21)               53.3032  0.000003 -0.0068   53.2964   
    56. B(O  25,C   8)               52.7860  0.000000 -0.0067   52.7793   
    57. B(F  26,H  13)               51.1479 -0.000001 -0.0068   51.1411   
    58. B(F  26,H  19)               51.5170  0.000002 -0.0069   51.5101   
    59. B(F  26,C   2)               52.9134  0.000004 -0.0069   52.9065   
    60. B(F  26,C   6)               54.1886  0.000002 -0.0071   54.1815   
    61. B(F  26,N   0)               54.1249 -0.000001 -0.0070   54.1179   
    62. B(F  26,H  24)               58.1732  0.000004 -0.0072   58.1659   
    63. B(F  26,C   8)               51.8627  0.000000 -0.0069   51.8559   
    64. B(F  26,N   1)               56.1908  0.000003 -0.0071   56.1837   
    65. B(F  26,H  15)               53.1233  0.000001 -0.0068   53.1165   
    66. B(F  26,H  12)               51.6881  0.000002 -0.0069   51.6812   
    67. B(F  26,H  21)               52.4323  0.000002 -0.0069   52.4254   
    68. B(F  26,H  14)               53.6273  0.000001 -0.0068   53.6204   
    69. B(F  26,H  10)               53.2712  0.000000 -0.0069   53.2644   
    70. B(F  26,C   9)               57.6336  0.000006 -0.0072   57.6264   
    71. B(F  26,H  16)               55.6502  0.000002 -0.0071   55.6432   
    72. B(F  26,H  22)               57.9192  0.000003 -0.0072   57.9119   
    73. B(F  26,C   7)               55.4897 -0.000000 -0.0071   55.4826   
    74. B(F  26,H  18)               55.9871  0.000004 -0.0071   55.9800   
    75. B(F  26,H  11)               52.3972  0.000001 -0.0068   52.3904   
    76. B(F  26,H  20)               50.9934 -0.000000 -0.0068   50.9866   
    77. B(F  26,C   5)               55.3559  0.000005 -0.0071   55.3488   
    78. B(F  26,H  23)               57.8994  0.000004 -0.0073   57.8921   
    79. B(F  26,C   4)               52.7431  0.000006 -0.0068   52.7363   
    80. B(F  26,C   3)               52.0336 -0.000003 -0.0069   52.0268   
    81. B(F  26,H  17)               53.3319  0.000005 -0.0071   53.3248   
    82. B(O  27,C   8)               49.7851  0.000001 -0.0069   49.7782   
    83. B(O  27,C   3)               50.0563 -0.000002 -0.0070   50.0494   
    84. B(O  27,H  14)               51.5998  0.000000 -0.0069   51.5929   
    85. B(O  27,H  12)               49.7319  0.000003 -0.0070   49.7249   
    86. B(O  27,C   9)               55.7021  0.000007 -0.0073   55.6947   
    87. B(O  27,H  17)               51.4698  0.000005 -0.0071   51.4626   
    88. B(O  27,H  24)               56.2792  0.000004 -0.0073   56.2719   
    89. B(O  27,H  19)               49.4572  0.000002 -0.0069   49.4503   
    90. B(O  27,N   0)               52.2049  0.000000 -0.0071   52.1978   
    91. B(O  27,C   4)               50.7080  0.000006 -0.0069   50.7010   
    92. B(O  27,H  10)               51.3189  0.000003 -0.0071   51.3118   
    93. B(O  27,C   5)               53.4159  0.000006 -0.0072   53.4087   
    94. B(O  27,H  18)               54.1231  0.000003 -0.0072   54.1159   
    95. B(O  27,C   2)               50.9791  0.000005 -0.0070   50.9721   
    96. B(O  27,C   7)               53.6039  0.000000 -0.0072   53.5967   
    97. B(O  27,C   6)               52.3033  0.000003 -0.0071   52.2962   
    98. B(O  27,H  22)               55.9607  0.000005 -0.0074   55.9533   
    99. B(O  27,H  16)               53.6836  0.000005 -0.0072   53.6763   
   100. B(O  27,H  23)               55.9496  0.000004 -0.0074   55.9422   
   101. B(O  27,H  15)               51.0700  0.000002 -0.0069   51.0630   
   102. B(O  27,N   1)               54.2706  0.000003 -0.0072   54.2634   
   103. B(O  27,H  20)               48.9048  0.000000 -0.0069   48.8979   
   104. B(O  27,H  21)               50.3163  0.000003 -0.0070   50.3093   
   105. B(O  27,H  11)               50.5052  0.000002 -0.0070   50.4983   
   106. B(O  27,H  13)               49.1639  0.000002 -0.0070   49.1569   
   107. B(F  28,H  18)               59.6764  0.000002 -0.0070   59.6695   
   108. B(F  28,N   1)               59.7811  0.000003 -0.0070   59.7741   
   109. B(F  28,H  22)               61.4474  0.000005 -0.0072   61.4402   
   110. B(F  28,H  20)               54.3784  0.000002 -0.0066   54.3718   
   111. B(F  28,H  14)               57.1005  0.000001 -0.0066   57.0939   
   112. B(F  28,H  12)               55.2478  0.000003 -0.0068   55.2410   
   113. B(F  28,C   9)               61.2119  0.000007 -0.0072   61.2047   
   114. B(F  28,C   7)               59.1384 -0.000000 -0.0070   59.1314   
   115. B(F  28,H  15)               56.5245  0.000004 -0.0067   56.5178   
   116. B(F  28,C   6)               57.8295  0.000002 -0.0070   57.8225   
   117. B(F  28,H  17)               57.0076  0.000004 -0.0070   57.0006   
   118. B(F  28,H  16)               59.1440  0.000006 -0.0071   59.1369   
   119. B(F  28,H  10)               56.7631  0.000005 -0.0069   56.7562   
   120. B(F  28,C   3)               55.5448 -0.000001 -0.0068   55.5380   
   121. B(F  28,C   5)               58.9018  0.000007 -0.0071   58.8947   
   122. B(F  28,C   2)               56.4528  0.000006 -0.0069   56.4459   
   123. B(F  28,H  13)               54.6347  0.000003 -0.0068   54.6279   
   124. B(F  28,C   4)               56.1921  0.000007 -0.0067   56.1854   
   125. B(F  28,H  24)               61.7905  0.000004 -0.0072   61.7833   
   126. B(F  28,H  11)               55.9772  0.000002 -0.0069   55.9704   
   127. B(F  28,H  21)               55.8003  0.000005 -0.0067   55.7936   
   128. B(F  28,N   0)               57.7001  0.000000 -0.0070   57.6931   
   129. B(F  28,C   8)               55.2767  0.000003 -0.0067   55.2701   
   130. B(F  28,H  23)               61.4777  0.000004 -0.0072   61.4706   
   131. B(F  28,H  19)               54.9766  0.000003 -0.0066   54.9700   
   132. B(F  29,C   3)               50.0724 -0.000002 -0.0069   50.0656   
   133. B(F  29,H  13)               49.1837 -0.000000 -0.0068   49.1769   
   134. B(F  29,H  19)               49.6077  0.000004 -0.0069   49.6008   
   135. B(F  29,N   0)               52.1436  0.000001 -0.0070   52.1366   
   136. B(F  29,C   8)               49.9494  0.000002 -0.0068   49.9426   
   137. B(F  29,H  14)               51.6925  0.000003 -0.0068   51.6856   
   138. B(F  29,N   1)               54.2149  0.000005 -0.0071   54.2078   
   139. B(F  29,H  18)               54.0117  0.000007 -0.0072   54.0046   
   140. B(F  29,H  16)               53.6745  0.000002 -0.0071   53.6674   
   141. B(F  29,C   7)               53.5122  0.000003 -0.0071   53.5051   
   142. B(F  29,H  17)               51.3487  0.000008 -0.0071   51.3416   
   143. B(F  29,C   5)               53.3783  0.000006 -0.0071   53.3712   
   144. B(F  29,H  10)               51.2862  0.000000 -0.0068   51.2793   
   145. B(F  29,H  12)               49.7293  0.000004 -0.0069   49.7224   
   146. B(F  29,H  15)               51.1836  0.000002 -0.0067   51.1768   
   147. B(F  29,H  20)               49.0787  0.000001 -0.0068   49.0719   
   148. B(F  29,C   4)               50.8054  0.000007 -0.0068   50.7986   
   149. B(F  29,C   2)               50.9303  0.000005 -0.0069   50.9234   
   150. B(F  29,H  24)               56.1878  0.000007 -0.0073   56.1806   
   151. B(F  29,H  22)               55.9482  0.000004 -0.0072   55.9410   
   152. B(F  29,H  23)               55.9420  0.000006 -0.0073   55.9347   
   153. B(F  29,C   9)               55.6612  0.000008 -0.0073   55.6540   
   154. B(F  29,H  21)               50.5367  0.000003 -0.0069   50.5298   
   155. B(F  29,C   6)               52.2074  0.000005 -0.0071   52.2004   
   156. B(F  29,H  11)               50.3991  0.000002 -0.0068   50.3922   
   157. B(S  30,H  14)               54.5061 -0.000012 -0.0066   54.4995   
   158. B(S  30,H  17)               54.4460 -0.000008 -0.0069   54.4390   
   159. B(S  30,H  20)               51.7763 -0.000011 -0.0066   51.7697   
   160. B(S  30,H  10)               54.1972 -0.000008 -0.0069   54.1903   
   161. B(S  30,N   1)               57.2092 -0.000009 -0.0070   57.2022   
   162. B(S  30,H  15)               53.9331 -0.000009 -0.0067   53.9264   
   163. B(S  30,O  25)                1.4396 -0.000024  0.0000    1.4396   
   164. B(S  30,C   2)               53.8854 -0.000007 -0.0069   53.8786   
   165. B(S  30,H  21)               53.1902 -0.000008 -0.0066   53.1835   
   166. B(S  30,H  24)               59.2244 -0.000008 -0.0072   59.2172   
   167. B(S  30,H  22)               58.8704 -0.000007 -0.0072   58.8632   
   168. B(S  30,C   9)               58.6370 -0.000006 -0.0072   58.6299   
   169. B(S  30,H  23)               58.8952 -0.000008 -0.0071   58.8881   
   170. B(S  30,H  16)               56.5708 -0.000007 -0.0071   56.5637   
   171. B(S  30,H  18)               57.1110 -0.000010 -0.0069   57.1041   
   172. B(S  30,C   3)               52.9645 -0.000013 -0.0068   52.9578   
   173. B(S  30,C   7)               56.5708 -0.000012 -0.0070   56.5638   
   174. B(S  30,C   5)               56.3300 -0.000006 -0.0070   56.3230   
   175. B(S  30,C   8)               52.6735 -0.000010 -0.0066   52.6669   
   176. B(S  30,H  12)               52.6676 -0.000010 -0.0067   52.6609   
   177. B(S  30,H  19)               52.3727 -0.000010 -0.0066   52.3661   
   178. B(S  30,C   6)               55.2639 -0.000010 -0.0069   55.2569   
   179. B(S  30,N   0)               55.1316 -0.000012 -0.0069   55.1247   
   180. B(S  30,C   4)               53.5992 -0.000006 -0.0067   53.5926   
   181. B(S  30,H  11)               53.4207 -0.000010 -0.0068   53.4139   
   182. B(S  30,H  13)               52.0565 -0.000010 -0.0068   52.0497   
   183. B(C  31,H  16)               54.6802 -0.000007 -0.0070   54.6732   
   184. B(C  31,H  20)               50.0504 -0.000008 -0.0067   50.0437   
   185. B(C  31,C   7)               54.5652 -0.000008 -0.0071   54.5581   
   186. B(C  31,C   4)               51.7973 -0.000002 -0.0068   51.7905   
   187. B(C  31,C   5)               54.3998 -0.000004 -0.0070   54.3927   
   188. B(C  31,F  29)                1.3463 -0.000031  0.0001    1.3463   
   189. B(C  31,F  26)                1.3367  0.000013 -0.0000    1.3366   
   190. B(C  31,H  21)               51.5046 -0.000006 -0.0068   51.4978   
   191. B(C  31,H  11)               51.4290 -0.000007 -0.0068   51.4221   
   192. B(C  31,C   2)               51.9485 -0.000005 -0.0069   51.9417   
   193. B(C  31,C   6)               53.2574 -0.000005 -0.0070   53.2504   
   194. B(C  31,H  24)               57.2320 -0.000004 -0.0072   57.2248   
   195. B(C  31,N   0)               53.1734 -0.000009 -0.0070   53.1665   
   196. B(C  31,C   8)               50.9307 -0.000007 -0.0068   50.9239   
   197. B(C  31,H  22)               56.9657 -0.000005 -0.0072   56.9585   
   198. B(C  31,H  12)               50.7540 -0.000006 -0.0069   50.7471   
   199. B(C  31,C   9)               56.6938 -0.000002 -0.0072   56.6866   
   200. B(C  31,H  14)               52.6923 -0.000007 -0.0067   52.6855   
   201. B(C  31,H  19)               50.6029 -0.000005 -0.0068   50.5961   
   202. B(C  31,H  17)               52.4089 -0.000003 -0.0071   52.4019   
   203. B(C  31,H  23)               56.9752 -0.000004 -0.0072   56.9679   
   204. B(C  31,H  10)               52.2898 -0.000008 -0.0068   52.2830   
   205. B(C  31,N   1)               55.2505 -0.000006 -0.0071   55.2434   
   206. B(C  31,H  15)               52.1608 -0.000007 -0.0067   52.1541   
   207. B(C  31,H  18)               55.0773 -0.000004 -0.0071   55.0702   
   208. B(C  31,H  13)               50.1854 -0.000009 -0.0068   50.1787   
   209. B(C  31,C   3)               51.0823 -0.000011 -0.0068   51.0754   
   210. B(F  32,H  21)               54.7121  0.000004 -0.0066   54.7055   
   211. B(F  32,H  11)               54.7095 -0.000002 -0.0068   54.7028   
   212. B(F  32,C   3)               54.3426 -0.000003 -0.0067   54.3359   
   213. B(F  32,C   8)               54.1564  0.000002 -0.0066   54.1498   
   214. B(F  32,H  12)               54.0353  0.000000 -0.0067   54.0286   
   215. B(F  32,H  19)               53.8486  0.000003 -0.0066   53.8420   
   216. B(F  32,N   1)               58.5420 -0.000000 -0.0070   58.5350   
   217. B(F  32,H  24)               60.5328  0.000000 -0.0071   60.5257   
   218. B(F  32,H  23)               60.2657  0.000001 -0.0071   60.2585   
   219. B(F  32,H  22)               60.2325  0.000002 -0.0071   60.2253   
   220. B(F  32,C   9)               59.9813  0.000003 -0.0071   59.9742   
   221. B(F  32,H  13)               53.4342 -0.000000 -0.0067   53.4275   
   222. B(F  32,H  18)               58.4081 -0.000001 -0.0069   58.4012   
   223. B(F  32,H  16)               57.9303  0.000002 -0.0070   57.9232   
   224. B(F  32,C   7)               57.8799 -0.000004 -0.0069   57.8729   
   225. B(F  32,C   5)               57.6720  0.000003 -0.0070   57.6650   
   226. B(F  32,C   6)               56.5680 -0.000001 -0.0069   56.5611   
   227. B(F  32,N   0)               56.4570 -0.000003 -0.0069   56.4501   
   228. B(F  32,H  20)               53.2629  0.000002 -0.0066   53.2563   
   229. B(F  32,H  14)               55.9414  0.000000 -0.0066   55.9348   
   230. B(F  32,H  17)               55.7326  0.000000 -0.0069   55.7257   
   231. B(F  32,H  10)               55.5358  0.000000 -0.0068   55.5289   
   232. B(F  32,H  15)               55.3771  0.000003 -0.0066   55.3704   
   233. B(F  32,C   2)               55.2161  0.000002 -0.0068   55.2092   
   234. B(F  32,C   4)               55.0351  0.000006 -0.0067   55.0285   
   235. B(C  33,H  21)               54.6852 -0.000003 -0.0066   54.6786   
   236. B(C  33,F  32)                1.3402 -0.000012  0.0000    1.3402   
   237. B(C  33,S  30)                1.8668  0.000000  0.0001    1.8668   
   238. B(C  33,C   3)               54.3893 -0.000009 -0.0067   54.3826   
   239. B(C  33,F  28)                1.3458  0.000011 -0.0001    1.3458   
   240. B(C  33,C   8)               54.1512 -0.000005 -0.0066   54.1447   
   241. B(C  33,H  12)               54.0976 -0.000006 -0.0067   54.0910   
   242. B(C  33,H  19)               53.8573 -0.000004 -0.0065   53.8508   
   243. B(C  33,H  24)               60.6252 -0.000005 -0.0071   60.6181   
   244. B(C  33,C   9)               60.0541 -0.000002 -0.0071   60.0470   
   245. B(C  33,H  13)               53.4748 -0.000006 -0.0067   53.4681   
   246. B(C  33,N   1)               58.6210 -0.000006 -0.0070   58.6140   
   247. B(C  33,H  18)               58.5231 -0.000007 -0.0069   58.5162   
   248. B(C  33,C   7)               57.9808 -0.000009 -0.0069   57.9738   
   249. B(C  33,H  16)               57.9770 -0.000003 -0.0070   57.9700   
   250. B(C  33,C   5)               57.7370 -0.000002 -0.0070   57.7300   
   251. B(C  33,H  20)               53.2493 -0.000005 -0.0065   53.2428   
   252. B(C  33,H  23)               60.3317 -0.000004 -0.0071   60.3246   
   253. B(C  33,C   6)               56.6682 -0.000006 -0.0069   56.6613   
   254. B(C  33,N   0)               56.5341 -0.000008 -0.0069   56.5272   
   255. B(C  33,H  14)               55.9634 -0.000007 -0.0066   55.9569   
   256. B(C  33,H  17)               55.8468 -0.000005 -0.0069   55.8399   
   257. B(C  33,H  10)               55.5879 -0.000004 -0.0068   55.5810   
   258. B(C  33,H  15)               55.3782 -0.000004 -0.0066   55.3715   
   259. B(C  33,C   2)               55.2826 -0.000003 -0.0068   55.2758   
   260. B(C  33,C   4)               55.0507 -0.000000 -0.0066   55.0441   
   261. B(C  33,H  22)               60.2873 -0.000004 -0.0071   60.2802   
   262. B(C  33,H  11)               54.7978 -0.000007 -0.0068   54.7910   
   263. B(O  34,H  17)               54.7599  0.000003 -0.0071   54.7527   
   264. B(O  34,H  14)               54.7213 -0.000002 -0.0068   54.7145   
   265. B(O  34,H  20)               51.9550 -0.000001 -0.0068   51.9482   
   266. B(O  34,H  10)               54.4355  0.000005 -0.0072   54.4283   
   267. B(O  34,C   2)               54.1424  0.000005 -0.0071   54.1353   
   268. B(O  34,H  15)               54.1215  0.000001 -0.0069   54.1146   
   269. B(O  34,C   4)               53.8065  0.000005 -0.0069   53.7997   
   270. B(O  34,H  24)               59.5077  0.000003 -0.0074   59.5003   
   271. B(O  34,H  23)               59.1545  0.000004 -0.0073   59.1471   
   272. B(O  34,H  22)               59.1124  0.000004 -0.0074   59.1050   
   273. B(O  34,C   9)               58.9006  0.000006 -0.0074   58.8932   
   274. B(O  34,H  21)               53.3559  0.000001 -0.0068   53.3491   
   275. B(O  34,H  11)               53.7002  0.000002 -0.0071   53.6931   
   276. B(O  34,N   1)               57.4806  0.000003 -0.0072   57.4733   
   277. B(O  34,C   3)               53.2043 -0.000002 -0.0070   53.1974   
   278. B(O  34,H  18)               57.4255  0.000002 -0.0071   57.4183   
   279. B(O  34,C   7)               56.8685 -0.000000 -0.0072   56.8613   
   280. B(O  34,H  16)               56.8033  0.000006 -0.0073   56.7960   
   281. B(O  34,H  12)               52.9273  0.000001 -0.0069   52.9204   
   282. B(O  34,C   5)               56.5845  0.000006 -0.0073   56.5772   
   283. B(O  34,C   8)               52.8622 -0.000000 -0.0068   52.8554   
   284. B(O  34,H  19)               52.5797 -0.000000 -0.0067   52.5730   
   285. B(O  34,C   6)               55.5609  0.000002 -0.0072   55.5537   
   286. B(O  34,N   0)               55.4010 -0.000000 -0.0072   55.3938   
   287. B(O  34,H  13)               52.2887  0.000002 -0.0070   52.2817   
   288. B(O  34,S  30)                1.4398 -0.000008 -0.0000    1.4398   
   289. B(S  35,N   1)               54.7057 -0.000005 -0.0072   54.6986   
   290. B(S  35,H  17)               51.9142 -0.000004 -0.0071   51.9071   
   291. B(S  35,H  18)               54.5858 -0.000005 -0.0071   54.5787   
   292. B(S  35,H  19)               49.9590 -0.000006 -0.0068   49.9522   
   293. B(S  35,H  10)               51.7036 -0.000005 -0.0070   51.6967   
   294. B(S  35,H  16)               54.0881 -0.000004 -0.0071   54.0810   
   295. B(S  35,C   7)               54.0523 -0.000008 -0.0071   54.0452   
   296. B(S  35,H  15)               51.5039 -0.000006 -0.0068   51.4972   
   297. B(S  35,C   5)               53.8339 -0.000002 -0.0071   53.8267   
   298. B(S  35,H  13)               49.5827 -0.000007 -0.0068   49.5758   
   299. B(S  35,C   2)               51.3832 -0.000003 -0.0070   51.3762   
   300. B(S  35,H  20)               49.3730 -0.000007 -0.0067   49.3662   
   301. B(S  35,C   4)               51.1613 -0.000002 -0.0068   51.1545   
   302. B(S  35,H  11)               50.8942 -0.000006 -0.0069   50.8873   
   303. B(S  35,H  24)               56.7070 -0.000004 -0.0073   56.6997   
   304. B(S  35,H  21)               50.8108 -0.000005 -0.0068   50.8040   
   305. B(S  35,H  23)               56.4139 -0.000005 -0.0073   56.4066   
   306. B(S  35,H  22)               56.3868 -0.000004 -0.0073   56.3795   
   307. B(S  35,C   9)               56.1408 -0.000002 -0.0073   56.1335   
   308. B(S  35,C   6)               52.7425 -0.000005 -0.0071   52.7354   
   309. B(S  35,N   0)               52.6245 -0.000008 -0.0071   52.6174   
   310. B(S  35,C   3)               50.4893 -0.000010 -0.0069   50.4824   
   311. B(S  35,C  31)                1.8699 -0.000050  0.0001    1.8700   
   312. B(S  35,C   8)               50.2662 -0.000007 -0.0068   50.2595   
   313. B(S  35,O  27)                1.4388 -0.000024  0.0000    1.4389   
   314. B(S  35,H  14)               52.0666 -0.000008 -0.0068   52.0599   
   315. B(S  35,H  12)               50.1839 -0.000006 -0.0069   50.1770   
   316. B(N  36,C   3)               51.7734  0.000002 -0.0069   51.7665   
   317. B(N  36,C   8)               51.5287  0.000005 -0.0068   51.5219   
   318. B(N  36,C   6)               54.0642  0.000007 -0.0072   54.0570   
   319. B(N  36,N   0)               53.9243  0.000004 -0.0071   53.9172   
   320. B(N  36,H  12)               51.4850  0.000006 -0.0069   51.4781   
   321. B(N  36,H  19)               51.2379  0.000005 -0.0067   51.2312   
   322. B(N  36,H  14)               53.3438  0.000004 -0.0068   53.3370   
   323. B(N  36,H  24)               58.0187  0.000008 -0.0074   58.0114   
   324. B(N  36,H  23)               57.7198  0.000007 -0.0073   57.7125   
   325. B(N  36,H  22)               57.6725  0.000008 -0.0073   57.6652   
   326. B(N  36,H  17)               53.2470  0.000008 -0.0072   53.2398   
   327. B(N  36,C   9)               57.4430  0.000010 -0.0073   57.4356   
   328. B(N  36,H  10)               52.9744  0.000008 -0.0071   52.9673   
   329. B(N  36,H  13)               50.8579  0.000006 -0.0069   50.8510   
   330. B(N  36,H  15)               52.7554  0.000007 -0.0068   52.7486   
   331. B(N  36,N   1)               56.0114  0.000007 -0.0072   56.0042   
   332. B(N  36,H  20)               50.6254  0.000004 -0.0067   50.6187   
   333. B(N  36,C   2)               52.6709  0.000009 -0.0071   52.6639   
   334. B(N  36,H  18)               55.9240  0.000006 -0.0072   55.9169   
   335. B(N  36,C   4)               52.4299  0.000010 -0.0068   52.4230   
   336. B(N  36,S  35)                1.5754  0.000000  0.0000    1.5754   
   337. B(N  36,C   7)               55.3771  0.000004 -0.0072   55.3699   
   338. B(N  36,H  16)               55.3615  0.000009 -0.0072   55.3542   
   339. B(N  36,S  30)                1.5817 -0.000037  0.0001    1.5818   
   340. B(N  36,H  11)               52.1916  0.000007 -0.0070   52.1846   
   341. B(N  36,C   5)               55.1245  0.000010 -0.0072   55.1173   
   342. B(N  36,H  21)               52.0612  0.000006 -0.0067   52.0545   
   343. B(F  37,H  11)               51.9142 -0.000002 -0.0068   51.9074   
   344. B(F  37,C   3)               51.6102 -0.000005 -0.0068   51.6034   
   345. B(F  37,C   8)               51.5053 -0.000001 -0.0067   51.4986   
   346. B(F  37,C   6)               53.7830  0.000000 -0.0071   53.7760   
   347. B(F  37,N   0)               53.6848 -0.000004 -0.0070   53.6779   
   348. B(F  37,H  12)               51.2968 -0.000000 -0.0069   51.2899   
   349. B(F  37,H  19)               51.1940  0.000001 -0.0068   51.1872   
   350. B(F  37,H  24)               57.7459  0.000001 -0.0072   57.7386   
   351. B(F  37,H  14)               53.2506 -0.000001 -0.0067   53.2438   
   352. B(F  37,H  23)               57.5235  0.000001 -0.0073   57.5163   
   353. B(F  37,H  22)               57.4825 -0.000000 -0.0072   57.4753   
   354. B(F  37,C   9)               57.2195  0.000003 -0.0072   57.2123   
   355. B(F  37,H  17)               52.9381  0.000003 -0.0071   52.9310   
   356. B(F  37,H  10)               52.7747 -0.000003 -0.0068   52.7679   
   357. B(F  37,H  13)               50.7026 -0.000004 -0.0067   50.6959   
   358. B(F  37,H  15)               52.6936 -0.000001 -0.0066   52.6870   
   359. B(F  37,H  20)               50.6156 -0.000002 -0.0066   50.6090   
   360. B(F  37,N   1)               55.7735 -0.000000 -0.0071   55.7664   
   361. B(F  37,C  31)                1.3424 -0.000002  0.0000    1.3424   
   362. B(F  37,C   2)               52.4488  0.000001 -0.0069   52.4419   
   363. B(F  37,H  18)               55.6201  0.000002 -0.0072   55.6130   
   364. B(F  37,C   4)               52.3454  0.000004 -0.0067   52.3387   
   365. B(F  37,H  16)               55.1809 -0.000002 -0.0070   55.1739   
   366. B(F  37,C   7)               55.0977 -0.000002 -0.0071   55.0906   
   367. B(F  37,H  21)               52.0924  0.000000 -0.0067   52.0858   
   368. B(F  37,C   5)               54.9102  0.000001 -0.0071   54.9031   
   369. B(F  38,C   3)               54.4643 -0.000004 -0.0067   54.4576   
   370. B(F  38,C   8)               54.2432  0.000000 -0.0065   54.2367   
   371. B(F  38,H  12)               54.1973 -0.000001 -0.0067   54.1906   
   372. B(F  38,H  19)               53.9745 -0.000000 -0.0065   53.9680   
   373. B(F  38,H  24)               60.7133 -0.000000 -0.0072   60.7062   
   374. B(F  38,H  23)               60.4390 -0.000000 -0.0071   60.4319   
   375. B(F  38,H  22)               60.3553  0.000002 -0.0072   60.3481   
   376. B(F  38,C   9)               60.1422  0.000003 -0.0071   60.1351   
   377. B(F  38,H  13)               53.5353 -0.000000 -0.0067   53.5286   
   378. B(F  38,N   1)               58.7103 -0.000001 -0.0070   58.7033   
   379. B(F  38,H  18)               58.6552 -0.000003 -0.0070   58.6482   
   380. B(F  38,C   7)               58.0934 -0.000004 -0.0070   58.0864   
   381. B(F  38,H  16)               58.0240  0.000003 -0.0070   58.0169   
   382. B(F  38,H  20)               53.3267  0.000000 -0.0065   53.3202   
   383. B(F  38,C   5)               57.8049  0.000003 -0.0070   57.7979   
   384. B(F  38,C   6)               56.7734 -0.000001 -0.0069   56.7664   
   385. B(F  38,N   0)               56.6106 -0.000003 -0.0069   56.6037   
   386. B(F  38,H  14)               56.0546 -0.000002 -0.0065   56.0480   
   387. B(F  38,H  17)               55.9645 -0.000001 -0.0069   55.9575   
   388. B(F  38,C  33)                1.3398 -0.000040  0.0000    1.3399   
   389. B(F  38,H  10)               55.6224  0.000002 -0.0069   55.6156   
   390. B(F  38,H  15)               55.4308  0.000002 -0.0066   55.4242   
   391. B(F  38,C   2)               55.3414  0.000003 -0.0069   55.3345   
   392. B(F  38,C   4)               55.1277  0.000005 -0.0066   55.1211   
   393. B(F  38,H  11)               54.8549 -0.000001 -0.0068   54.8480   
   394. B(F  38,H  21)               54.7781  0.000002 -0.0065   54.7716   
   395. B(O  39,C   6)               51.8125  0.000006 -0.0072   51.8053   
   396. B(O  39,H  11)               49.9224  0.000007 -0.0070   49.9153   
   397. B(O  39,N   0)               51.6738  0.000004 -0.0072   51.6666   
   398. B(O  39,H  21)               49.9064  0.000005 -0.0067   49.8997   
   399. B(O  39,N   1)               53.7670  0.000006 -0.0073   53.7598   
   400. B(O  39,C   3)               49.5449  0.000002 -0.0069   49.5380   
   401. B(O  39,H  18)               53.6779  0.000005 -0.0072   53.6707   
   402. B(O  39,C   8)               49.3536  0.000004 -0.0068   49.3468   
   403. B(O  39,H  12)               49.2581  0.000005 -0.0070   49.2511   
   404. B(O  39,H  14)               51.1451  0.000003 -0.0068   51.1383   
   405. B(O  39,H  17)               50.9922  0.000007 -0.0072   50.9850   
   406. B(O  39,C   7)               53.1295  0.000003 -0.0072   53.1223   
   407. B(O  39,H  19)               49.0660  0.000004 -0.0068   49.0593   
   408. B(O  39,H  16)               53.1192  0.000008 -0.0072   53.1120   
   409. B(O  39,C   5)               52.8789  0.000010 -0.0072   52.8717   
   410. B(O  39,H  13)               48.6263  0.000005 -0.0069   48.6194   
   411. B(O  39,H  10)               50.7213  0.000008 -0.0071   50.7142   
   412. B(O  39,H  20)               48.4490  0.000004 -0.0067   48.4423   
   413. B(O  39,S  35)                1.4388 -0.000041  0.0001    1.4388   
   414. B(O  39,H  24)               55.7642  0.000007 -0.0074   55.7568   
   415. B(O  39,H  15)               50.5529  0.000007 -0.0068   50.5461   
   416. B(O  39,H  23)               55.4959  0.000006 -0.0074   55.4886   
   417. B(O  39,H  22)               55.4354  0.000007 -0.0074   55.4281   
   418. B(O  39,C   2)               50.4188  0.000009 -0.0071   50.4117   
   419. B(O  39,C   9)               55.2030  0.000009 -0.0074   55.1956   
   420. B(O  39,C   4)               50.2282  0.000010 -0.0068   50.2214   
   421. A(C   2,N   0,O  27)           33.39  0.000002   -0.00     33.39   
   422. A(C   6,N   0,S  35)           94.17  0.000000   -0.00     94.17   
   423. A(C   6,N   0,F  26)           91.92  0.000001   -0.00     91.92   
   424. A(C   2,N   0,S  30)           31.98  0.000003   -0.00     31.98   
   425. A(C   2,N   0,O  39)           31.32  0.000003    0.00     31.32   
   426. A(C   5,N   0,C  31)          156.84  0.000001   -0.00    156.84   
   427. A(C   5,N   0,C  33)          154.35  0.000002   -0.00    154.35   
   428. A(C   6,N   0,O  25)           93.42  0.000000    0.00     93.42   
   429. A(O  34,N   0,F  37)            5.33 -0.000001    0.00      5.33   
   430. A(C   6,N   0,F  28)           94.71 -0.000000   -0.00     94.71   
   431. A(C   6,N   0,F  37)           93.36  0.000001   -0.00     93.35   
   432. A(C   2,N   0,O  25)           33.45  0.000002   -0.00     33.45   
   433. A(C   6,N   0,C  33)           94.89 -0.000000   -0.00     94.89   
   434. A(C   5,N   0,S  30)          153.89  0.000002   -0.00    153.89   
   435. A(C   5,N   0,C   6)          108.41 -0.000001    0.00    108.42   
   436. A(C   6,N   0,F  38)           96.10 -0.000001   -0.00     96.10   
   437. A(C   5,N   0,F  29)          157.78  0.000000   -0.00    157.78   
   438. A(C   5,N   0,F  28)          154.24  0.000002   -0.00    154.24   
   439. A(C   5,N   0,F  38)          153.49  0.000002   -0.00    153.49   
   440. A(C   5,N   0,F  26)          157.37  0.000001   -0.00    157.37   
   441. A(C   2,N   0,F  26)           34.38  0.000002    0.00     34.38   
   442. A(C   2,N   0,F  28)           31.92  0.000003   -0.00     31.92   
   443. A(C   2,N   0,S  35)           32.31  0.000002    0.00     32.31   
   444. A(C   6,N   0,O  34)           95.96 -0.000000    0.00     95.96   
   445. A(C   2,N   0,N  36)           31.45  0.000003   -0.00     31.45   
   446. A(C   6,N   0,O  39)           95.02 -0.000000   -0.00     95.02   
   447. A(C   6,N   0,F  29)           91.90  0.000001   -0.00     91.90   
   448. A(C   2,N   0,O  34)           31.08  0.000003   -0.00     31.08   
   449. A(C   6,N   0,S  30)           94.80 -0.000000    0.00     94.80   
   450. A(C   2,N   0,F  37)           32.69  0.000002    0.00     32.69   
   451. A(C   6,N   0,O  27)           93.35  0.000000   -0.00     93.35   
   452. A(C   5,N   0,S  35)          155.00  0.000001   -0.00    155.00   
   453. A(C   5,N   0,O  25)          154.84  0.000001   -0.00    154.84   
   454. A(C   2,N   0,F  38)           30.30  0.000003   -0.00     30.30   
   455. A(C   6,N   0,C  31)           92.76  0.000001   -0.00     92.76   
   456. A(C   2,N   0,C  31)           33.46  0.000002    0.00     33.46   
   457. A(C   6,N   0,F  32)           93.93 -0.000000   -0.00     93.93   
   458. A(C   2,N   0,C  33)           31.61  0.000003   -0.00     31.60   
   459. A(C   2,N   0,C   5)          125.82 -0.000001   -0.00    125.82   
   460. A(C   5,N   0,F  37)          156.73  0.000001    0.00    156.73   
   461. A(C   5,N   0,O  27)          155.17  0.000001   -0.00    155.17   
   462. A(C   2,N   0,F  32)           32.37  0.000003   -0.00     32.37   
   463. A(C   5,N   0,F  32)          155.62  0.000002   -0.00    155.62   
   464. A(C   5,N   0,O  34)          152.45  0.000002   -0.00    152.44   
   465. A(C   6,N   0,N  36)           95.10 -0.000000   -0.00     95.10   
   466. A(C   2,N   0,C   6)          125.69  0.000003   -0.00    125.69   
   467. A(C   5,N   0,O  39)          154.56  0.000001   -0.00    154.56   
   468. A(C   5,N   0,N  36)          154.07  0.000001   -0.00    154.06   
   469. A(C   2,N   0,F  29)           34.24  0.000002    0.00     34.24   
   470. A(F  29,N   0,O  34)            5.61 -0.000001    0.00      5.61   
   471. A(C   5,N   1,O  27)           49.61  0.000000    0.00     49.61   
   472. A(C   5,N   1,C   9)          125.91 -0.000001   -0.00    125.91   
   473. A(C   5,N   1,O  39)           47.72  0.000001    0.00     47.72   
   474. A(C   9,N   1,O  27)          167.66 -0.000001   -0.00    167.66   
   475. A(C   9,N   1,N  36)          167.67 -0.000001    0.00    167.67   
   476. A(C   7,N   1,S  30)           61.79  0.000003    0.00     61.79   
   477. A(C   9,N   1,F  26)          170.00 -0.000002   -0.00    170.00   
   478. A(C   9,N   1,S  30)          166.99 -0.000001   -0.00    166.99   
   479. A(C   9,N   1,O  25)          167.13 -0.000001   -0.00    167.13   
   480. A(C   9,N   1,O  39)          168.53 -0.000002    0.00    168.53   
   481. A(C   5,N   1,F  28)           48.27  0.000001   -0.00     48.27   
   482. A(C   5,N   1,C  33)           47.99  0.000001   -0.00     47.99   
   483. A(C   5,N   1,F  29)           50.60 -0.000000    0.00     50.60   
   484. A(C   5,N   1,N  36)           47.80  0.000001    0.00     47.80   
   485. A(C   9,N   1,F  38)          167.74 -0.000001   -0.00    167.74   
   486. A(C   5,N   1,F  38)           46.76  0.000001   -0.00     46.76   
   487. A(C   7,N   1,F  28)           61.61  0.000003    0.00     61.61   
   488. A(C   5,N   1,O  34)           47.29  0.000001   -0.00     47.29   
   489. A(C   7,N   1,N  36)           61.96  0.000003    0.00     61.96   
   490. A(C   7,N   1,O  25)           60.54  0.000003    0.00     60.55   
   491. A(C   9,N   1,O  34)          165.67 -0.000001   -0.00    165.67   
   492. A(C   5,N   1,F  37)           49.14 -0.000000    0.00     49.14   
   493. A(C   9,N   1,F  37)          170.79 -0.000002    0.00    170.79   
   494. A(C   7,N   1,C  33)           61.72  0.000003    0.00     61.72   
   495. A(F  29,N   1,O  34)            5.39 -0.000001    0.00      5.39   
   496. A(C   5,N   1,S  35)           48.65  0.000000    0.00     48.65   
   497. A(C   5,N   1,O  25)           49.65  0.000000   -0.00     49.65   
   498. A(C   9,N   1,C  33)          167.97 -0.000001   -0.00    167.97   
   499. A(C   9,N   1,S  35)          168.34 -0.000002    0.00    168.34   
   500. A(C   9,N   1,F  32)          169.25 -0.000001   -0.00    169.25   
   501. A(O  34,N   1,F  37)            5.14 -0.000001    0.00      5.14   
   502. A(C   7,N   1,C   9)          125.71 -0.000002    0.00    125.71   
   503. A(C   7,N   1,F  29)           58.71  0.000004   -0.00     58.71   
   504. A(C   7,N   1,O  34)           63.01  0.000003    0.00     63.01   
   505. A(C   7,N   1,F  26)           58.81  0.000004   -0.00     58.81   
   506. A(C   7,N   1,C  31)           59.56  0.000004   -0.00     59.56   
   507. A(C   7,N   1,S  35)           61.06  0.000003    0.00     61.06   
   508. A(C   5,N   1,F  26)           50.71 -0.000000    0.00     50.71   
   509. A(C   7,N   1,F  32)           60.69  0.000003    0.00     60.69   
   510. A(C   5,N   1,F  32)           48.79  0.000001   -0.00     48.79   
   511. A(C   7,N   1,O  39)           61.79  0.000003   -0.00     61.79   
   512. A(C   9,N   1,C  31)          170.13 -0.000002   -0.00    170.13   
   513. A(C   5,N   1,C   7)          108.38  0.000004    0.00    108.38   
   514. A(C   7,N   1,F  37)           60.01  0.000004   -0.00     60.01   
   515. A(C   7,N   1,O  27)           60.42  0.000003    0.00     60.43   
   516. A(C   9,N   1,F  29)          170.84 -0.000002   -0.00    170.84   
   517. A(C   5,N   1,C  31)           49.84 -0.000000    0.00     49.84   
   518. A(C   7,N   1,F  38)           62.80  0.000003    0.00     62.80   
   519. A(C   5,N   1,S  30)           48.25  0.000001   -0.00     48.25   
   520. A(C   9,N   1,F  28)          167.54 -0.000001   -0.00    167.53   
   521. A(F  26,C   2,O  34)            5.11 -0.000001    0.00      5.11   
   522. A(N   0,C   2,C  33)          147.59 -0.000003    0.00    147.59   
   523. A(O  34,C   2,F  37)            5.47 -0.000001    0.00      5.47   
   524. A(C   3,C   2,F  29)           55.06  0.000003   -0.00     55.06   
   525. A(H  11,C   2,O  39)           62.35  0.000001    0.00     62.35   
   526. A(H  10,C   2,F  37)          106.83 -0.000001    0.00    106.84   
   527. A(F  29,C   2,O  34)            5.77 -0.000001    0.00      5.77   
   528. A(H  10,C   2,O  27)          107.58 -0.000000   -0.00    107.58   
   529. A(N   0,C   2,C  31)          145.64 -0.000002   -0.00    145.64   
   530. A(C   3,C   2,S  30)           52.21  0.000003    0.00     52.21   
   531. A(N   0,C   2,F  29)          144.82 -0.000002   -0.00    144.82   
   532. A(N   0,C   2,H  10)          106.67  0.000003    0.00    106.67   
   533. A(C   3,C   2,S  35)           53.43  0.000003    0.00     53.43   
   534. A(C   3,C   2,O  39)           54.33  0.000003    0.00     54.34   
   535. A(H  10,C   2,F  26)          108.61 -0.000001    0.00    108.61   
   536. A(C   3,C   2,O  25)           51.53  0.000004    0.00     51.53   
   537. A(N   0,C   2,C   3)          112.27 -0.000002   -0.02    112.25   
   538. A(H  10,C   2,C  31)          107.68 -0.000001    0.00    107.68   
   539. A(H  10,C   2,F  29)          108.48 -0.000002    0.00    108.48   
   540. A(C   3,C   2,H  10)          111.16  0.000005    0.00    111.16   
   541. A(H  11,C   2,F  29)           60.29  0.000001    0.00     60.29   
   542. A(N   0,C   2,F  28)          147.28 -0.000003    0.00    147.29   
   543. A(N   0,C   2,F  38)          148.93 -0.000003    0.00    148.93   
   544. A(N   0,C   2,N  36)          147.71 -0.000003    0.00    147.71   
   545. A(C   3,C   2,O  27)           52.09  0.000003    0.00     52.09   
   546. A(C   3,C   2,H  11)          111.57  0.000001   -0.00    111.57   
   547. A(N   0,C   2,S  35)          146.81 -0.000002   -0.00    146.81   
   548. A(C   3,C   2,C  33)           53.51  0.000003    0.00     53.51   
   549. A(H  10,C   2,F  28)          106.01  0.000000   -0.00    106.01   
   550. A(H  10,C   2,O  25)          107.55 -0.000000   -0.00    107.55   
   551. A(N   0,C   2,O  27)          145.69 -0.000002    0.00    145.69   
   552. A(H  11,C   2,F  26)           61.21  0.000001    0.00     61.21   
   553. A(H  10,C   2,S  35)          106.52 -0.000000   -0.00    106.52   
   554. A(N   0,C   2,F  32)          146.81 -0.000003    0.00    146.81   
   555. A(H  11,C   2,F  38)           62.98  0.000001    0.00     62.98   
   556. A(C   3,C   2,N  36)           53.28  0.000003    0.00     53.28   
   557. A(C   3,C   2,F  32)           54.41  0.000003    0.00     54.41   
   558. A(H  11,C   2,S  35)           62.79  0.000001    0.00     62.79   
   559. A(H  10,C   2,F  38)          104.40  0.000000   -0.00    104.40   
   560. A(N   0,C   2,O  25)          145.68 -0.000002    0.00    145.68   
   561. A(H  10,C   2,F  32)          106.52 -0.000000   -0.00    106.52   
   562. A(H  11,C   2,C  31)           60.99  0.000001    0.00     61.00   
   563. A(C   3,C   2,C  31)           54.70  0.000003   -0.00     54.70   
   564. A(H  11,C   2,F  28)           63.62  0.000000    0.00     63.63   
   565. A(N   0,C   2,F  26)          144.72 -0.000002   -0.00    144.72   
   566. A(H  11,C   2,O  25)           64.24  0.000000    0.00     64.24   
   567. A(C   3,C   2,F  38)           54.25  0.000003    0.00     54.26   
   568. A(H  10,C   2,O  39)          105.52 -0.000000    0.00    105.52   
   569. A(H  11,C   2,F  37)           60.10  0.000001    0.00     60.10   
   570. A(H  11,C   2,F  32)           61.80  0.000000    0.00     61.80   
   571. A(H  11,C   2,O  34)           65.53  0.000000    0.00     65.53   
   572. A(C   3,C   2,F  28)           52.84  0.000003    0.00     52.84   
   573. A(N   0,C   2,F  37)          146.44 -0.000002   -0.00    146.44   
   574. A(H  10,C   2,S  30)          106.07  0.000000   -0.00    106.07   
   575. A(H  10,C   2,H  11)          107.86 -0.000001    0.00    107.86   
   576. A(H  11,C   2,C  33)           63.08  0.000000    0.00     63.08   
   577. A(H  10,C   2,N  36)          105.60 -0.000000   -0.00    105.60   
   578. A(C   3,C   2,F  26)           54.10  0.000003   -0.00     54.10   
   579. A(H  11,C   2,S  30)           64.23  0.000000    0.00     64.23   
   580. A(N   0,C   2,O  34)          148.11 -0.000003    0.00    148.11   
   581. A(H  11,C   2,O  27)           63.67  0.000001    0.00     63.67   
   582. A(N   0,C   2,S  30)          147.19 -0.000003    0.00    147.19   
   583. A(H  11,C   2,N  36)           63.37  0.000001    0.00     63.37   
   584. A(H  10,C   2,O  34)          105.05  0.000000   -0.00    105.04   
   585. A(C   3,C   2,F  37)           55.95  0.000003    0.00     55.95   
   586. A(H  10,C   2,C  33)          105.73 -0.000000   -0.00    105.72   
   587. A(C   3,C   2,O  34)           51.41  0.000003    0.00     51.41   
   588. A(N   0,C   2,H  11)          107.05 -0.000007    0.01    107.06   
   589. A(N   0,C   2,O  39)          147.81 -0.000003   -0.00    147.81   
   590. A(H  12,C   3,S  30)           73.69  0.000001    0.00     73.69   
   591. A(C   2,C   3,C  33)          125.20 -0.000004   -0.00    125.19   
   592. A(C   2,C   3,O  25)          127.18 -0.000004   -0.00    127.18   
   593. A(C   2,C   3,F  32)          124.28 -0.000004   -0.00    124.28   
   594. A(C   2,C   3,F  28)          125.91 -0.000004   -0.00    125.90   
   595. A(H  12,C   3,S  35)           73.20  0.000001   -0.00     73.20   
   596. A(C   4,C   3,S  35)          115.33 -0.000006    0.00    115.33   
   597. A(H  12,C   3,F  28)           73.71  0.000001    0.00     73.71   
   598. A(H  13,C   3,F  26)           35.54  0.000000    0.00     35.55   
   599. A(C   2,C   3,N  36)          125.36 -0.000003   -0.00    125.36   
   600. A(H  12,C   3,F  26)           71.02  0.000002   -0.00     71.02   
   601. A(C   4,C   3,F  26)          116.93 -0.000006    0.00    116.94   
   602. A(C   2,C   3,F  26)          124.54 -0.000003    0.00    124.54   
   603. A(H  12,C   3,O  34)           74.77  0.000001    0.00     74.77   
   604. A(C   2,C   3,S  30)          126.48 -0.000004   -0.00    126.48   
   605. A(H  13,C   3,C  33)           32.92  0.000001   -0.00     32.92   
   606. A(H  13,C   3,N  36)           32.82  0.000001   -0.00     32.82   
   607. A(H  13,C   3,O  39)           32.50  0.000001    0.00     32.50   
   608. A(C   4,C   3,H  12)          110.21 -0.000003   -0.00    110.21   
   609. A(H  12,C   3,N  36)           74.14  0.000001    0.00     74.14   
   610. A(H  13,C   3,F  29)           35.26 -0.000000    0.00     35.27   
   611. A(F  29,C   3,O  34)            5.92 -0.000001    0.00      5.92   
   612. A(H  12,C   3,O  27)           72.16  0.000001    0.00     72.16   
   613. A(C   2,C   3,F  37)          122.65 -0.000003   -0.00    122.65   
   614. A(H  13,C   3,F  37)           33.56 -0.000000    0.00     33.56   
   615. A(H  12,C   3,F  37)           72.78  0.000002   -0.00     72.77   
   616. A(C   4,C   3,F  29)          117.91 -0.000007    0.00    117.92   
   617. A(H  13,C   3,O  34)           32.81  0.000002   -0.00     32.81   
   618. A(C   4,C   3,F  32)          116.25 -0.000006    0.00    116.25   
   619. A(C   4,C   3,F  37)          118.03 -0.000006    0.00    118.04   
   620. A(H  12,C   3,O  25)           72.19  0.000001    0.00     72.19   
   621. A(C   2,C   3,S  35)          125.18 -0.000003   -0.00    125.18   
   622. A(H  12,C   3,O  39)           74.20  0.000001   -0.00     74.19   
   623. A(C   4,C   3,O  27)          114.47 -0.000006    0.00    114.47   
   624. A(C   4,C   3,O  25)          113.82 -0.000005    0.00    113.82   
   625. A(H  12,C   3,F  29)           71.13  0.000002   -0.00     71.13   
   626. A(F  26,C   3,O  34)            5.22 -0.000001    0.00      5.22   
   627. A(H  13,C   3,O  25)           35.07  0.000001   -0.00     35.07   
   628. A(H  12,C   3,C  31)           71.96  0.000002   -0.00     71.96   
   629. A(C   2,C   3,C   4)          114.21  0.000009   -0.00    114.21   
   630. A(C   4,C   3,N  36)          114.69 -0.000006    0.00    114.70   
   631. A(C   2,C   3,C  31)          123.90 -0.000003    0.00    123.91   
   632. A(O  34,C   3,F  37)            5.59 -0.000001    0.00      5.60   
   633. A(C   4,C   3,S  30)          113.80 -0.000005    0.00    113.81   
   634. A(C   4,C   3,O  39)          115.79 -0.000006    0.01    115.79   
   635. A(C   2,C   3,H  12)          109.57 -0.000002   -0.00    109.57   
   636. A(H  12,C   3,H  13)          106.02  0.000001    0.00    106.02   
   637. A(H  13,C   3,S  35)           33.64  0.000001    0.00     33.64   
   638. A(C   2,C   3,H  13)          106.55 -0.000009    0.00    106.56   
   639. A(C   4,C   3,F  28)          114.36 -0.000005    0.00    114.37   
   640. A(H  13,C   3,C  31)           34.54  0.000000    0.00     34.54   
   641. A(H  12,C   3,C  33)           73.98  0.000001    0.00     73.99   
   642. A(C   4,C   3,C  33)          114.93 -0.000005    0.00    114.94   
   643. A(H  13,C   3,F  32)           33.50  0.000001    0.00     33.50   
   644. A(C   2,C   3,O  39)          124.23 -0.000003   -0.00    124.23   
   645. A(C   2,C   3,F  38)          124.44 -0.000003   -0.00    124.44   
   646. A(C   4,C   3,O  34)          112.46 -0.000005    0.00    112.47   
   647. A(H  12,C   3,F  38)           75.32  0.000001    0.00     75.32   
   648. A(H  13,C   3,F  28)           33.35  0.000002   -0.00     33.34   
   649. A(H  12,C   3,F  32)           73.14  0.000001   -0.00     73.14   
   650. A(C   2,C   3,O  34)          127.30 -0.000004   -0.00    127.30   
   651. A(C   2,C   3,O  27)          126.54 -0.000004   -0.00    126.53   
   652. A(C   2,C   3,F  29)          123.51 -0.000003    0.00    123.51   
   653. A(H  13,C   3,S  30)           33.52  0.000002   -0.00     33.52   
   654. A(H  13,C   3,O  27)           34.93  0.000001   -0.00     34.93   
   655. A(C   4,C   3,F  38)          115.02 -0.000005    0.01    115.02   
   656. A(C   4,C   3,C  31)          117.16 -0.000006    0.00    117.16   
   657. A(C   4,C   3,H  13)          109.90  0.000003   -0.00    109.90   
   658. A(H  13,C   3,F  38)           31.52  0.000002   -0.00     31.52   
   659. A(C   3,C   4,O  27)           63.96  0.000005   -0.00     63.96   
   660. A(C   8,C   4,S  30)           52.03  0.000003    0.00     52.03   
   661. A(C   3,C   4,H  15)          109.22  0.000006   -0.00    109.22   
   662. A(C   3,C   4,S  30)           64.70  0.000005   -0.00     64.70   
   663. A(C   3,C   4,O  39)           62.64  0.000006   -0.01     62.64   
   664. A(C   8,C   4,F  29)           55.19  0.000003   -0.00     55.18   
   665. A(C   3,C   4,C  31)           61.34  0.000006   -0.00     61.34   
   666. A(O  34,C   4,F  37)            5.57 -0.000001    0.00      5.57   
   667. A(H  15,C   4,F  32)          107.64 -0.000000    0.00    107.64   
   668. A(H  14,C   4,C  33)          146.11  0.000002    0.00    146.11   
   669. A(H  15,C   4,O  39)          106.64 -0.000000    0.00    106.64   
   670. A(H  15,C   4,O  34)          106.15 -0.000001   -0.00    106.15   
   671. A(C   3,C   4,F  28)           64.22  0.000005   -0.00     64.21   
   672. A(C   8,C   4,S  35)           53.42  0.000003    0.00     53.42   
   673. A(C   3,C   4,S  35)           63.13  0.000005   -0.00     63.12   
   674. A(H  14,C   4,F  37)          145.38  0.000003   -0.00    145.38   
   675. A(C   8,C   4,F  32)           54.22  0.000003    0.00     54.22   
   676. A(H  14,C   4,O  39)          146.48  0.000002   -0.00    146.48   
   677. A(H  15,C   4,S  30)          107.18 -0.000001   -0.00    107.18   
   678. A(H  14,C   4,S  35)          145.38  0.000002   -0.00    145.38   
   679. A(H  14,C   4,O  34)          146.30  0.000001    0.00    146.30   
   680. A(C   8,C   4,O  25)           51.40  0.000003   -0.00     51.40   
   681. A(C   3,C   4,O  25)           64.69  0.000005   -0.00     64.69   
   682. A(C   8,C   4,H  14)          109.09 -0.000006    0.00    109.09   
   683. A(H  15,C   4,F  38)          105.51 -0.000000   -0.00    105.51   
   684. A(H  14,C   4,F  26)          143.46  0.000003   -0.00    143.46   
   685. A(H  14,C   4,H  15)          106.55 -0.000003    0.00    106.55   
   686. A(C   3,C   4,H  14)          109.84  0.000002    0.00    109.84   
   687. A(C   3,C   4,C   8)          112.42  0.000008   -0.00    112.41   
   688. A(H  14,C   4,S  30)          145.55  0.000001    0.00    145.55   
   689. A(H  14,C   4,C  31)          144.44  0.000003   -0.00    144.44   
   690. A(C   8,C   4,H  15)          109.56 -0.000007    0.00    109.56   
   691. A(H  15,C   4,C  31)          108.81 -0.000001    0.00    108.81   
   692. A(H  15,C   4,F  28)          107.13 -0.000000   -0.00    107.13   
   693. A(H  15,C   4,S  35)          107.64 -0.000001    0.00    107.64   
   694. A(C   8,C   4,C  31)           54.72  0.000003   -0.00     54.72   
   695. A(C   8,C   4,O  39)           54.34  0.000002    0.00     54.34   
   696. A(F  29,C   4,O  34)            5.93 -0.000001    0.00      5.93   
   697. A(H  14,C   4,O  25)          144.02  0.000002    0.00    144.02   
   698. A(C   3,C   4,F  37)           60.49  0.000006   -0.00     60.49   
   699. A(C   3,C   4,O  34)           66.03  0.000005   -0.00     66.03   
   700. A(H  15,C   4,F  26)          109.74 -0.000001    0.00    109.74   
   701. A(H  14,C   4,F  28)          145.71  0.000001    0.00    145.71   
   702. A(C   3,C   4,F  26)           61.59  0.000006   -0.00     61.58   
   703. A(C   8,C   4,F  37)           55.92  0.000003   -0.00     55.92   
   704. A(C   3,C   4,N  36)           63.79  0.000005   -0.01     63.79   
   705. A(F  26,C   4,O  34)            5.18 -0.000001    0.00      5.18   
   706. A(H  14,C   4,F  38)          147.49  0.000001    0.00    147.49   
   707. A(C   8,C   4,O  34)           51.16  0.000003    0.00     51.16   
   708. A(C   8,C   4,F  38)           53.95  0.000003    0.00     53.96   
   709. A(C   3,C   4,F  38)           63.54  0.000005   -0.01     63.54   
   710. A(C   8,C   4,F  26)           54.11  0.000003   -0.00     54.11   
   711. A(C   8,C   4,F  28)           52.54  0.000003    0.00     52.54   
   712. A(H  14,C   4,N  36)          146.21  0.000002    0.00    146.21   
   713. A(H  15,C   4,C  33)          106.84 -0.000000   -0.00    106.84   
   714. A(C   8,C   4,C  33)           53.26  0.000003    0.00     53.27   
   715. A(C   3,C   4,C  33)           63.62  0.000005   -0.00     63.62   
   716. A(H  15,C   4,F  29)          109.61 -0.000001    0.00    109.61   
   717. A(H  14,C   4,F  32)          145.50  0.000002   -0.00    145.50   
   718. A(C   3,C   4,F  32)           62.33  0.000005   -0.00     62.32   
   719. A(H  14,C   4,F  29)          143.70  0.000003   -0.00    143.70   
   720. A(C   3,C   4,F  29)           60.56  0.000006   -0.00     60.56   
   721. A(H  15,C   4,N  36)          106.71 -0.000001   -0.00    106.71   
   722. A(C   8,C   4,N  36)           53.15  0.000003    0.00     53.16   
   723. A(H  14,C   4,O  27)          144.14  0.000002    0.00    144.14   
   724. A(H  15,C   4,O  27)          108.71 -0.000001   -0.00    108.71   
   725. A(C   8,C   4,O  27)           52.13  0.000003   -0.00     52.13   
   726. A(H  15,C   4,F  37)          107.96 -0.000001    0.00    107.97   
   727. A(H  15,C   4,O  25)          108.68 -0.000001   -0.00    108.67   
   728. A(H  16,C   5,C  31)          104.56 -0.000002    0.00    104.56   
   729. A(N   0,C   5,C  31)           22.61 -0.000001    0.00     22.61   
   730. A(N   0,C   5,F  38)           25.92 -0.000002    0.00     25.92   
   731. A(H  16,C   5,F  38)          101.23 -0.000001   -0.00    101.23   
   732. A(N   1,C   5,F  26)          128.22  0.000000   -0.00    128.22   
   733. A(H  16,C   5,O  25)          103.70 -0.000001   -0.00    103.70   
   734. A(N   1,C   5,O  25)          129.32 -0.000000    0.00    129.32   
   735. A(N   1,C   5,F  28)          130.76 -0.000001    0.00    130.76   
   736. A(H  16,C   5,O  27)          103.84 -0.000001   -0.00    103.84   
   737. A(H  16,C   5,S  35)          103.11 -0.000001   -0.00    103.11   
   738. A(N   1,C   5,H  16)          125.54  0.000003   -0.00    125.54   
   739. A(N   1,C   5,F  38)          132.28 -0.000001    0.00    132.28   
   740. A(N   1,C   5,F  32)          130.21 -0.000001   -0.00    130.21   
   741. A(N   0,C   5,C  33)           25.08 -0.000002    0.00     25.08   
   742. A(H  16,C   5,F  32)          103.37 -0.000001   -0.00    103.37   
   743. A(N   0,C   5,F  32)           23.84 -0.000002    0.00     23.84   
   744. A(H  16,C   5,F  29)          105.43 -0.000002    0.00    105.43   
   745. A(N   1,C   5,F  29)          128.30  0.000000   -0.00    128.30   
   746. A(N   0,C   5,F  29)           21.68 -0.000000    0.00     21.68   
   747. A(N   1,C   5,C  33)          131.02 -0.000001    0.00    131.02   
   748. A(N   1,C   5,S  35)          130.29 -0.000000   -0.00    130.29   
   749. A(N   0,C   5,O  25)           24.59 -0.000001    0.00     24.59   
   750. A(N   0,C   5,O  34)           26.93 -0.000002    0.00     26.93   
   751. A(N   1,C   5,O  34)          131.72 -0.000001    0.00    131.72   
   752. A(N   1,C   5,S  30)          130.73 -0.000001    0.00    130.73   
   753. A(N   0,C   5,S  30)           25.51 -0.000002    0.00     25.52   
   754. A(H  16,C   5,O  39)          102.34 -0.000001    0.00    102.34   
   755. A(N   0,C   5,H  16)          125.49 -0.000004    0.00    125.49   
   756. A(H  16,C   5,O  34)          101.20 -0.000001   -0.00    101.20   
   757. A(F  29,C   5,O  34)            5.52 -0.000001    0.00      5.52   
   758. A(N   0,C   5,S  35)           24.40 -0.000001    0.00     24.40   
   759. A(N   1,C   5,O  39)          131.21 -0.000001   -0.00    131.21   
   760. A(N   0,C   5,O  39)           24.82 -0.000001    0.00     24.82   
   761. A(H  16,C   5,F  26)          105.34 -0.000002    0.00    105.34   
   762. A(N   0,C   5,F  26)           22.10 -0.000001    0.00     22.10   
   763. A(N   1,C   5,C  31)          129.09  0.000000   -0.00    129.09   
   764. A(N   0,C   5,F  28)           25.20 -0.000002    0.00     25.20   
   765. A(H  16,C   5,S  30)          102.40 -0.000001   -0.00    102.40   
   766. A(O  34,C   5,F  37)            5.23 -0.000001    0.00      5.23   
   767. A(N   0,C   5,O  27)           24.23 -0.000001    0.00     24.23   
   768. A(H  16,C   5,N  36)          102.18 -0.000001   -0.00    102.18   
   769. A(N   1,C   5,N  36)          131.17 -0.000001   -0.00    131.17   
   770. A(N   0,C   5,N  36)           25.33 -0.000001    0.00     25.33   
   771. A(H  16,C   5,F  28)          102.50 -0.000001   -0.00    102.50   
   772. A(H  16,C   5,C  33)          102.37 -0.000001   -0.00    102.37   
   773. A(H  16,C   5,F  37)          104.03 -0.000002    0.00    104.03   
   774. A(N   1,C   5,F  37)          129.81  0.000000   -0.00    129.81   
   775. A(N   0,C   5,F  37)           22.72 -0.000001   -0.00     22.72   
   776. A(N   0,C   5,N   1)          108.96  0.000001   -0.00    108.96   
   777. A(N   1,C   5,O  27)          129.31 -0.000000   -0.00    129.30   
   778. A(H  17,C   6,F  38)           40.85 -0.000002   -0.00     40.85   
   779. A(H  17,C   6,O  27)           38.80 -0.000001    0.00     38.80   
   780. A(C   7,C   6,O  27)          163.07  0.000002   -0.00    163.06   
   781. A(N   0,C   6,O  27)           85.15 -0.000000    0.00     85.15   
   782. A(N   0,C   6,F  38)           82.52  0.000000    0.00     82.52   
   783. A(H  17,C   6,F  29)           36.64 -0.000000   -0.00     36.64   
   784. A(C   7,C   6,F  29)          163.71  0.000002   -0.00    163.70   
   785. A(N   0,C   6,F  29)           86.59 -0.000001    0.00     86.59   
   786. A(N   0,C   6,H  17)          122.17 -0.000001   -0.00    122.17   
   787. A(H  17,C   6,F  26)           36.83 -0.000001   -0.00     36.83   
   788. A(C   7,C   6,F  26)          163.16  0.000002   -0.00    163.16   
   789. A(N   0,C   6,F  26)           86.62 -0.000001    0.00     86.63   
   790. A(C   7,C   6,O  39)          165.71  0.000001   -0.00    165.71   
   791. A(H  17,C   6,F  28)           39.80 -0.000002    0.00     39.80   
   792. A(C   7,C   6,O  25)          162.68  0.000002   -0.00    162.68   
   793. A(C   7,C   6,N  36)          165.02  0.000001   -0.00    165.02   
   794. A(O  34,C   6,F  37)            5.30 -0.000001    0.00      5.30   
   795. A(H  17,C   6,O  39)           39.89 -0.000001   -0.00     39.89   
   796. A(C   7,C   6,F  28)          164.38  0.000001   -0.00    164.38   
   797. A(N   0,C   6,F  28)           83.93  0.000000    0.00     83.93   
   798. A(H  17,C   6,F  37)           37.85 -0.000001   -0.00     37.85   
   799. A(C   7,C   6,F  37)          165.32  0.000002   -0.00    165.32   
   800. A(N   0,C   6,F  37)           85.18 -0.000001    0.00     85.18   
   801. A(C   7,C   6,F  38)          166.27  0.000001   -0.00    166.27   
   802. A(C   7,C   6,F  32)          164.85  0.000001   -0.00    164.85   
   803. A(C   7,C   6,C  31)          164.18  0.000002   -0.00    164.18   
   804. A(H  17,C   6,F  32)           38.67 -0.000001   -0.00     38.67   
   805. A(H  17,C   6,C  33)           39.84 -0.000002    0.00     39.84   
   806. A(N   0,C   6,C  33)           83.72  0.000000    0.00     83.72   
   807. A(H  17,C   6,C  31)           37.54 -0.000001   -0.00     37.53   
   808. A(N   0,C   6,C  31)           85.76 -0.000001    0.00     85.76   
   809. A(N   0,C   6,F  32)           84.68 -0.000000    0.00     84.68   
   810. A(H  17,C   6,O  34)           41.47 -0.000002    0.00     41.47   
   811. A(C   7,C   6,O  34)          164.17  0.000002   -0.00    164.17   
   812. A(N   0,C   6,O  34)           82.62  0.000000   -0.00     82.62   
   813. A(H  17,C   6,O  25)           38.95 -0.000001    0.00     38.95   
   814. A(N   0,C   6,O  25)           85.16 -0.000000   -0.00     85.15   
   815. A(C   7,C   6,H  17)          130.63  0.000002    0.00    130.63   
   816. A(F  29,C   6,O  34)            5.53 -0.000001    0.00      5.53   
   817. A(H  17,C   6,S  30)           40.11 -0.000002    0.00     40.11   
   818. A(C   7,C   6,S  30)          164.06  0.000002   -0.00    164.06   
   819. A(H  17,C   6,S  35)           39.24 -0.000001   -0.00     39.24   
   820. A(C   7,C   6,S  35)          164.51  0.000001   -0.00    164.50   
   821. A(N   0,C   6,S  35)           84.34 -0.000000    0.00     84.34   
   822. A(N   0,C   6,S  30)           83.78 -0.000000   -0.00     83.78   
   823. A(N   0,C   6,C   7)          107.20 -0.000001   -0.00    107.20   
   824. A(N   0,C   6,N  36)           83.44 -0.000000    0.00     83.44   
   825. A(C   7,C   6,C  33)          164.97  0.000002   -0.00    164.97   
   826. A(H  17,C   6,N  36)           40.16 -0.000001   -0.00     40.16   
   827. A(N   0,C   6,O  39)           83.46  0.000000    0.00     83.46   
   828. A(H  18,C   7,O  34)          120.73  0.000001    0.00    120.73   
   829. A(H  18,C   7,F  32)          118.96  0.000002    0.00    118.96   
   830. A(O  34,C   7,F  37)            5.18 -0.000001    0.00      5.18   
   831. A(N   1,C   7,S  35)          117.66 -0.000003   -0.00    117.66   
   832. A(C   6,C   7,F  29)           15.88 -0.000002    0.00     15.89   
   833. A(C   6,C   7,F  28)           15.27 -0.000001    0.00     15.27   
   834. A(N   1,C   7,F  29)          120.03 -0.000004    0.00    120.03   
   835. A(H  18,C   7,F  38)          121.04  0.000001    0.00    121.04   
   836. A(N   1,C   7,F  38)          115.99 -0.000003   -0.00    115.99   
   837. A(C   6,C   7,O  27)           16.51 -0.000002    0.00     16.51   
   838. A(N   1,C   7,O  27)          118.29 -0.000004   -0.00    118.29   
   839. A(H  18,C   7,C  33)          119.83  0.000002    0.00    119.83   
   840. A(C   6,C   7,C  33)           14.68 -0.000001    0.00     14.68   
   841. A(N   1,C   7,C  33)          117.08 -0.000003   -0.00    117.08   
   842. A(C   6,C   7,F  32)           14.80 -0.000001    0.00     14.80   
   843. A(N   1,C   7,F  32)          118.12 -0.000003   -0.00    118.12   
   844. A(H  18,C   7,F  28)          119.57  0.000001    0.00    119.57   
   845. A(H  18,C   7,O  27)          118.36  0.000002    0.00    118.37   
   846. A(C   6,C   7,S  35)           15.11 -0.000001    0.00     15.11   
   847. A(F  29,C   7,O  34)            5.40 -0.000001    0.00      5.40   
   848. A(C   6,C   7,O  34)           15.46 -0.000002    0.00     15.46   
   849. A(N   1,C   7,O  34)          115.75 -0.000003   -0.00    115.75   
   850. A(N   1,C   7,O  25)          118.24 -0.000003   -0.00    118.24   
   851. A(H  18,C   7,F  29)          117.17  0.000003   -0.00    117.16   
   852. A(H  18,C   7,S  30)          119.68  0.000002    0.00    119.68   
   853. A(C   6,C   7,S  30)           15.57 -0.000002    0.00     15.57   
   854. A(N   1,C   7,S  30)          116.98 -0.000003   -0.00    116.98   
   855. A(H  18,C   7,O  39)          120.16  0.000002   -0.00    120.16   
   856. A(C   6,C   7,O  39)           13.93 -0.000001    0.00     13.93   
   857. A(N   1,C   7,O  39)          116.90 -0.000003    0.00    116.90   
   858. A(C   6,C   7,F  38)           13.41 -0.000001    0.00     13.41   
   859. A(H  18,C   7,F  26)          117.06  0.000002   -0.00    117.06   
   860. A(C   6,C   7,F  26)           16.43 -0.000002    0.00     16.44   
   861. A(N   1,C   7,F  26)          119.98 -0.000004    0.00    119.98   
   862. A(H  18,C   7,N  36)          120.09  0.000002    0.00    120.09   
   863. A(C   6,C   7,N  36)           14.62 -0.000001    0.00     14.62   
   864. A(N   1,C   7,N  36)          116.78 -0.000003   -0.00    116.78   
   865. A(C   6,C   7,O  25)           16.91 -0.000002    0.00     16.91   
   866. A(N   1,C   7,C   6)          107.05 -0.000002    0.00    107.05   
   867. A(H  18,C   7,O  25)          118.29  0.000002    0.00    118.29   
   868. A(N   1,C   7,F  28)          117.22 -0.000003   -0.00    117.21   
   869. A(H  18,C   7,F  37)          118.57  0.000003   -0.00    118.57   
   870. A(C   6,C   7,F  37)           14.32 -0.000002    0.00     14.32   
   871. A(N   1,C   7,F  37)          118.74 -0.000004    0.00    118.75   
   872. A(C   6,C   7,H  18)          130.81  0.000002   -0.00    130.81   
   873. A(H  18,C   7,S  35)          119.24  0.000002   -0.00    119.24   
   874. A(H  18,C   7,C  31)          117.94  0.000003   -0.00    117.94   
   875. A(C   6,C   7,C  31)           15.43 -0.000002    0.00     15.43   
   876. A(N   1,C   7,C  31)          119.19 -0.000004    0.00    119.19   
   877. A(N   1,C   7,H  18)          122.14  0.000001    0.00    122.14   
   878. A(H  21,C   8,F  38)          118.88 -0.000001    0.00    118.88   
   879. A(H  20,C   8,F  38)           32.60  0.000003   -0.00     32.60   
   880. A(H  19,C   8,F  38)           75.20  0.000001    0.00     75.20   
   881. A(C   4,C   8,F  38)          124.74 -0.000003   -0.00    124.74   
   882. A(H  21,C   8,F  32)          120.15 -0.000001    0.00    120.15   
   883. A(H  20,C   8,F  32)           34.74  0.000002   -0.00     34.74   
   884. A(H  19,C   8,F  32)           73.07  0.000001   -0.00     73.07   
   885. A(C   4,C   8,F  32)          124.47 -0.000003   -0.00    124.47   
   886. A(H  21,C   8,C  33)          118.82 -0.000001    0.00    118.82   
   887. A(H  20,C   8,C  33)           33.97  0.000002   -0.00     33.97   
   888. A(H  19,C   8,C  33)           73.83  0.000001    0.00     73.83   
   889. A(C   4,C   8,C  33)          125.44 -0.000003   -0.00    125.44   
   890. A(H  21,C   8,F  26)          120.99 -0.000002   -0.00    120.98   
   891. A(C   4,C   8,F  26)          124.52 -0.000003    0.00    124.52   
   892. A(H  21,C   8,S  35)          119.43 -0.000002    0.00    119.43   
   893. A(H  19,C   8,S  35)           73.06  0.000001   -0.00     73.06   
   894. A(H  19,C   8,F  26)           70.97  0.000002   -0.00     70.97   
   895. A(H  20,C   8,N  36)           33.83  0.000002   -0.00     33.83   
   896. A(H  19,C   8,N  36)           73.97  0.000001    0.00     73.97   
   897. A(C   4,C   8,N  36)          125.49 -0.000003   -0.00    125.48   
   898. A(H  21,C   8,F  37)          122.07 -0.000002    0.00    122.08   
   899. A(H  20,C   8,F  37)           35.07  0.000001    0.00     35.07   
   900. A(H  19,C   8,F  37)           72.85  0.000002   -0.00     72.85   
   901. A(C   4,C   8,F  37)          122.67 -0.000003    0.00    122.67   
   902. A(H  21,C   8,F  29)          122.07 -0.000002   -0.00    122.07   
   903. A(H  20,C   8,S  35)           34.74  0.000002    0.00     34.74   
   904. A(H  20,C   8,F  29)           36.72  0.000001    0.00     36.72   
   905. A(H  19,C   8,F  29)           71.17  0.000002   -0.00     71.17   
   906. A(C   4,C   8,F  29)          123.37 -0.000003    0.00    123.38   
   907. A(H  21,C   8,O  27)          118.61 -0.000001   -0.00    118.61   
   908. A(H  20,C   8,O  27)           35.88  0.000002   -0.00     35.88   
   909. A(H  19,C   8,O  27)           71.93  0.000001    0.00     71.93   
   910. A(H  21,C   8,N  36)          118.71 -0.000002    0.00    118.71   
   911. A(C   4,C   8,O  27)          126.49 -0.000003    0.00    126.49   
   912. A(H  20,C   8,H  21)          107.76 -0.000008    0.00    107.77   
   913. A(F  26,C   8,O  34)            5.29 -0.000001    0.00      5.29   
   914. A(O  34,C   8,F  37)            5.69 -0.000001    0.00      5.69   
   915. A(C  31,C   8,O  34)            5.09 -0.000001    0.00      5.09   
   916. A(F  29,C   8,O  34)            6.09 -0.000001    0.00      6.09   
   917. A(H  21,C   8,O  34)          116.40 -0.000001    0.00    116.40   
   918. A(H  20,C   8,O  34)           33.47  0.000002   -0.00     33.47   
   919. A(H  19,C   8,O  34)           74.44  0.000001    0.00     74.44   
   920. A(C   4,C   8,O  34)          127.55 -0.000003   -0.00    127.55   
   921. A(H  21,C   8,O  25)          117.80 -0.000001   -0.00    117.79   
   922. A(H  20,C   8,O  25)           35.94  0.000002   -0.00     35.94   
   923. A(H  19,C   8,H  21)          107.77  0.000007   -0.00    107.77   
   924. A(H  19,C   8,O  25)           71.91  0.000001    0.00     71.91   
   925. A(C   4,C   8,O  25)          127.30 -0.000004    0.00    127.30   
   926. A(C   4,C   8,H  21)          111.04  0.000001    0.00    111.04   
   927. A(H  21,C   8,F  28)          118.20 -0.000001    0.00    118.20   
   928. A(H  20,C   8,F  28)           34.31  0.000002   -0.00     34.31   
   929. A(H  19,C   8,F  28)           73.51  0.000001    0.00     73.51   
   930. A(C   4,C   8,F  28)          126.20 -0.000003   -0.00    126.20   
   931. A(H  21,C   8,O  39)          119.93 -0.000002    0.00    119.93   
   932. A(H  19,C   8,H  20)          107.80  0.000003   -0.00    107.80   
   933. A(H  20,C   8,O  39)           33.69  0.000002    0.00     33.69   
   934. A(H  21,C   8,C  31)          121.24 -0.000002   -0.00    121.24   
   935. A(H  20,C   8,C  31)           35.90  0.000001    0.00     35.90   
   936. A(H  19,C   8,O  39)           74.12  0.000001   -0.00     74.12   
   937. A(H  19,C   8,C  31)           71.95  0.000002   -0.00     71.94   
   938. A(C   4,C   8,O  39)          124.22 -0.000003   -0.00    124.22   
   939. A(H  21,C   8,S  30)          117.77 -0.000001    0.00    117.77   
   940. A(C   4,C   8,C  31)          123.87 -0.000003    0.00    123.87   
   941. A(H  20,C   8,S  30)           34.39  0.000002   -0.00     34.39   
   942. A(C   4,C   8,H  20)          111.12 -0.000002   -0.00    111.12   
   943. A(H  19,C   8,S  30)           73.44  0.000001    0.00     73.44   
   944. A(C   4,C   8,S  30)          126.66 -0.000003   -0.00    126.66   
   945. A(C   4,C   8,H  19)          111.18 -0.000001    0.00    111.18   
   946. A(C   4,C   8,S  35)          125.19 -0.000003   -0.00    125.19   
   947. A(H  20,C   8,F  26)           36.85  0.000002    0.00     36.86   
   948. A(N   1,C   9,C  33)           11.74  0.000001    0.00     11.74   
   949. A(H  24,C   9,F  28)          121.68 -0.000002    0.00    121.68   
   950. A(H  22,C   9,F  28)          102.02 -0.000002   -0.00    102.02   
   951. A(N   1,C   9,F  28)           12.17  0.000001    0.00     12.17   
   952. A(H  23,C   9,F  38)          105.33 -0.000002    0.00    105.33   
   953. A(H  22,C   9,F  38)          100.80 -0.000002   -0.00    100.80   
   954. A(N   1,C   9,F  38)           11.96  0.000001    0.00     11.96   
   955. A(H  23,C   9,O  25)          102.13 -0.000001    0.00    102.13   
   956. A(H  22,C   9,F  32)          102.86 -0.000002   -0.00    102.86   
   957. A(N   1,C   9,F  32)           10.49  0.000001    0.00     10.49   
   958. A(O  34,C   9,F  37)            5.02 -0.000001    0.00      5.02   
   959. A(H  23,C   9,C  33)          104.28 -0.000002    0.00    104.28   
   960. A(F  29,C   9,O  34)            5.27 -0.000001    0.00      5.28   
   961. A(H  24,C   9,O  34)          123.46 -0.000002    0.00    123.46   
   962. A(H  23,C   9,O  34)          102.98 -0.000002    0.00    102.98   
   963. A(N   1,C   9,O  34)           13.98  0.000001    0.00     13.98   
   964. A(H  24,C   9,O  25)          122.07 -0.000002    0.00    122.07   
   965. A(H  22,C   9,O  25)          103.13 -0.000002   -0.00    103.13   
   966. A(N   1,C   9,O  25)           12.55  0.000001    0.00     12.56   
   967. A(H  24,C   9,S  30)          122.21 -0.000002    0.00    122.21   
   968. A(H  22,C   9,S  30)          101.88 -0.000002   -0.00    101.88   
   969. A(H  22,C   9,F  37)          103.47 -0.000003    0.00    103.47   
   970. A(H  24,C   9,F  26)          119.25 -0.000001    0.00    119.25   
   971. A(H  23,C   9,F  26)          103.61 -0.000002   -0.00    103.61   
   972. A(H  22,C   9,F  26)          104.71 -0.000003    0.00    104.71   
   973. A(N   1,C   9,F  26)            9.75  0.000002    0.00      9.75   
   974. A(H  22,C   9,C  33)          101.89 -0.000002   -0.00    101.89   
   975. A(H  24,C   9,N  36)          121.48 -0.000002   -0.00    121.48   
   976. A(H  23,C   9,N  36)          104.21 -0.000002    0.00    104.21   
   977. A(H  22,C   9,N  36)          101.67 -0.000002   -0.00    101.66   
   978. A(N   1,C   9,N  36)           12.02  0.000001   -0.00     12.02   
   979. A(H  24,C   9,F  37)          118.44 -0.000001   -0.00    118.44   
   980. A(H  23,C   9,F  37)          105.70 -0.000002   -0.00    105.69   
   981. A(N   1,C   9,F  37)            8.98  0.000002   -0.00      8.97   
   982. A(H  24,C   9,F  32)          119.99 -0.000002   -0.00    119.99   
   983. A(H  23,C   9,F  28)          103.65 -0.000002    0.00    103.65   
   984. A(H  24,C   9,C  31)          119.16 -0.000001   -0.00    119.16   
   985. A(H  22,C   9,C  31)          103.96 -0.000003    0.00    103.96   
   986. A(N   1,C   9,C  31)            9.62  0.000002    0.00      9.62   
   987. A(H  23,C   9,H  24)          109.92  0.000005   -0.00    109.92   
   988. A(H  22,C   9,H  24)          109.46  0.000002   -0.00    109.46   
   989. A(N   1,C   9,H  24)          109.54 -0.000003   -0.00    109.54   
   990. A(H  22,C   9,H  23)          109.44 -0.000002    0.00    109.44   
   991. A(H  22,C   9,O  34)          100.72 -0.000002   -0.00    100.72   
   992. A(H  24,C   9,S  35)          120.88 -0.000001   -0.00    120.88   
   993. A(H  23,C   9,S  35)          104.00 -0.000002    0.00    104.00   
   994. A(H  22,C   9,S  35)          102.55 -0.000002    0.00    102.55   
   995. A(N   1,C   9,S  35)           11.36  0.000001   -0.00     11.36   
   996. A(H  24,C   9,O  27)          121.55 -0.000002    0.00    121.55   
   997. A(N   1,C   9,H  23)          109.47 -0.000000   -0.00    109.46   
   998. A(H  23,C   9,O  27)          102.60 -0.000002   -0.00    102.60   
   999. A(H  22,C   9,O  27)          103.22 -0.000002   -0.00    103.22   
  1000. A(N   1,C   9,O  27)           12.02  0.000001    0.00     12.02   
  1001. A(H  24,C   9,F  29)          118.45 -0.000001    0.00    118.45   
  1002. A(H  23,C   9,F  29)          104.41 -0.000001   -0.00    104.41   
  1003. A(H  22,C   9,F  29)          104.78 -0.000003    0.00    104.78   
  1004. A(N   1,C   9,F  29)            8.92  0.000002    0.00      8.92   
  1005. A(N   1,C   9,H  22)          108.99 -0.000002    0.00    108.99   
  1006. A(H  24,C   9,O  39)          120.55 -0.000001   -0.00    120.55   
  1007. A(H  23,C   9,O  39)          105.07 -0.000002    0.00    105.07   
  1008. A(H  22,C   9,O  39)          101.80 -0.000002    0.00    101.80   
  1009. A(N   1,C   9,O  39)           11.16  0.000002   -0.00     11.16   
  1010. A(H  23,C   9,F  32)          104.64 -0.000002    0.00    104.64   
  1011. A(H  24,C   9,F  38)          121.21 -0.000002   -0.00    121.21   
  1012. A(H  23,C   9,S  30)          103.21 -0.000002    0.00    103.21   
  1013. A(N   1,C   9,S  30)           12.69  0.000001    0.00     12.69   
  1014. A(H  24,C   9,C  33)          121.21 -0.000002   -0.00    121.21   
  1015. A(H  23,C   9,C  31)          104.45 -0.000002   -0.00    104.45   
  1016. A(C   2,O  25,S  30)           83.66 -0.000004   -0.00     83.65   
  1017. A(C   9,O  25,S  30)           85.15 -0.000004   -0.00     85.15   
  1018. A(C   4,O  25,S  30)           84.22 -0.000004    0.00     84.22   
  1019. A(N   1,O  25,S  30)           85.16 -0.000004   -0.00     85.16   
  1020. A(C   7,O  25,S  30)           86.21 -0.000004   -0.00     86.21   
  1021. A(C   5,O  25,S  30)           84.15 -0.000004   -0.00     84.15   
  1022. A(C   3,O  25,S  30)           84.22 -0.000004   -0.00     84.22   
  1023. A(C   6,O  25,S  30)           85.83 -0.000004   -0.00     85.83   
  1024. A(C   8,O  25,S  30)           84.74 -0.000004    0.00     84.74   
  1025. A(N   0,O  25,S  30)           84.51 -0.000004   -0.00     84.51   
  1026. A(C   6,F  26,C  31)           45.34  0.000001   -0.00     45.34   
  1027. A(C   3,F  26,C  31)           44.10  0.000001    0.00     44.10   
  1028. A(N   0,F  26,C  31)           44.12  0.000001    0.00     44.12   
  1029. A(C   8,F  26,C  31)           45.26  0.000001    0.00     45.26   
  1030. A(C   9,F  26,C  31)           44.85  0.000001    0.00     44.85   
  1031. A(N   1,F  26,C  31)           44.80  0.000001    0.00     44.80   
  1032. A(C   2,F  26,C  31)           43.29  0.000001    0.00     43.29   
  1033. A(C   7,F  26,C  31)           45.74  0.000001   -0.00     45.74   
  1034. A(C   5,F  26,C  31)           43.85  0.000001    0.00     43.85   
  1035. A(C   4,F  26,C  31)           44.44  0.000001    0.00     44.44   
  1036. A(C   6,O  27,S  35)          107.02 -0.000000    0.00    107.02   
  1037. A(N   1,O  27,S  35)          106.88 -0.000000    0.00    106.88   
  1038. A(N   0,O  27,S  35)          106.20 -0.000000    0.00    106.20   
  1039. A(C   7,O  27,S  35)          107.43 -0.000000    0.00    107.43   
  1040. A(C   3,O  27,S  35)          106.73 -0.000000    0.00    106.73   
  1041. A(C   5,O  27,S  35)          106.15 -0.000000    0.00    106.15   
  1042. A(C   8,O  27,S  35)          108.75  0.000000    0.01    108.76   
  1043. A(C   9,O  27,S  35)          107.05 -0.000000    0.00    107.05   
  1044. A(C   2,O  27,S  35)          105.54 -0.000000    0.00    105.54   
  1045. A(C   4,O  27,S  35)          107.60  0.000000    0.01    107.60   
  1046. A(C   9,F  28,C  33)           30.33  0.000000    0.00     30.33   
  1047. A(N   1,F  28,C  33)           30.13  0.000000    0.00     30.13   
  1048. A(C   7,F  28,C  33)           30.33  0.000000    0.00     30.33   
  1049. A(C   5,F  28,C  33)           29.73  0.000000    0.00     29.73   
  1050. A(C   6,F  28,C  33)           30.02  0.000000    0.00     30.02   
  1051. A(N   0,F  28,C  33)           29.63  0.000000    0.00     29.63   
  1052. A(C   2,F  28,C  33)           29.26  0.000000    0.00     29.26   
  1053. A(C   4,F  28,C  33)           31.63  0.000001    0.00     31.63   
  1054. A(C   3,F  28,C  33)           30.49  0.000000    0.00     30.49   
  1055. A(C   8,F  28,C  33)           32.86  0.000001    0.00     32.87   
  1056. A(C   6,F  29,C   8)            5.09  0.000001   -0.00      5.09   
  1057. A(C   6,F  29,C  31)          140.80  0.000009   -0.00    140.79   
  1058. A(N   1,F  29,C  31)          139.83  0.000009   -0.00    139.83   
  1059. A(N   0,F  29,C  31)          139.43  0.000009   -0.00    139.43   
  1060. A(C   3,F  29,C  31)          138.09  0.000009   -0.00    138.09   
  1061. A(C   7,F  29,C   8)            5.14  0.000001   -0.00      5.14   
  1062. A(C   7,F  29,C  31)          141.01  0.000009   -0.00    141.01   
  1063. A(C   5,F  29,C  31)          138.89  0.000009   -0.00    138.89   
  1064. A(C   8,F  29,C  31)          136.26  0.000008    0.00    136.27   
  1065. A(C   9,F  29,C  31)          139.64  0.000009   -0.00    139.64   
  1066. A(C   2,F  29,C  31)          138.65  0.000009   -0.00    138.65   
  1067. A(C   4,F  29,C  31)          136.94  0.000008   -0.00    136.94   
  1068. A(O  34,S  30,N  36)          111.08 -0.000001    0.00    111.08   
  1069. A(C  33,S  30,N  36)           98.91  0.000008    0.00     98.91   
  1070. A(O  25,S  30,N  36)          116.93  0.000006   -0.01    116.91   
  1071. A(C   2,S  30,N  36)           39.29 -0.000006   -0.00     39.29   
  1072. A(C   2,S  30,O  34)           99.53  0.000005   -0.01     99.52   
  1073. A(C   9,S  30,N  36)           40.47 -0.000006   -0.00     40.47   
  1074. A(C   2,S  30,C  33)          137.80  0.000002    0.00    137.80   
  1075. A(C   9,S  30,C  33)          138.79  0.000002    0.00    138.79   
  1076. A(C   2,S  30,O  25)           94.82  0.000005    0.00     94.82   
  1077. A(C   9,S  30,O  25)           93.45  0.000005    0.00     93.45   
  1078. A(N   1,S  30,O  25)           93.40  0.000005    0.00     93.40   
  1079. A(O  25,S  30,O  34)          118.83 -0.000005    0.00    118.84   
  1080. A(N   1,S  30,N  36)           40.25 -0.000006   -0.01     40.25   
  1081. A(N   1,S  30,O  34)          100.16  0.000005   -0.01    100.15   
  1082. A(C   4,S  30,N  36)           41.75 -0.000006   -0.00     41.75   
  1083. A(N   1,S  30,C  33)          138.53  0.000002    0.00    138.53   
  1084. A(C   4,S  30,O  34)           97.52  0.000004   -0.01     97.51   
  1085. A(C   4,S  30,C  33)          140.41  0.000002    0.00    140.41   
  1086. A(C   4,S  30,O  25)           94.25  0.000005   -0.00     94.25   
  1087. A(O  25,S  30,C  33)          104.32 -0.000006    0.01    104.33   
  1088. A(C   7,S  30,O  34)          101.22  0.000005   -0.01    101.21   
  1089. A(C   7,S  30,C  33)          138.43  0.000001   -0.00    138.43   
  1090. A(C   7,S  30,O  25)           92.34  0.000004    0.00     92.34   
  1091. A(C   5,S  30,N  36)           39.82 -0.000006   -0.00     39.82   
  1092. A(C   5,S  30,O  34)           99.46  0.000005   -0.01     99.45   
  1093. A(C   5,S  30,C  33)          138.29  0.000002    0.00    138.29   
  1094. A(C   5,S  30,O  25)           94.39  0.000005    0.00     94.39   
  1095. A(C   7,S  30,N  36)           40.47 -0.000006   -0.01     40.46   
  1096. A(C   3,S  30,N  36)           40.58 -0.000006   -0.00     40.57   
  1097. A(C   3,S  30,O  34)           98.82  0.000005   -0.01     98.81   
  1098. A(C   3,S  30,C  33)          139.10  0.000002    0.00    139.10   
  1099. A(C   3,S  30,O  25)           94.23  0.000005   -0.00     94.23   
  1100. A(C   6,S  30,N  36)           40.13 -0.000006   -0.01     40.12   
  1101. A(C   6,S  30,O  34)          101.18  0.000005   -0.01    101.17   
  1102. A(C  33,S  30,O  34)          103.28 -0.000001   -0.01    103.27   
  1103. A(C   6,S  30,C  33)          138.15  0.000001   -0.00    138.15   
  1104. A(C   6,S  30,O  25)           92.68  0.000004    0.00     92.69   
  1105. A(C   8,S  30,N  36)           43.03 -0.000005   -0.00     43.03   
  1106. A(C   8,S  30,O  34)           96.75  0.000004   -0.01     96.75   
  1107. A(C   8,S  30,C  33)          141.72  0.000003    0.00    141.72   
  1108. A(C   8,S  30,O  25)           93.70  0.000005   -0.00     93.70   
  1109. A(N   0,S  30,N  36)           39.71 -0.000006   -0.00     39.70   
  1110. A(N   0,S  30,O  34)          100.05  0.000005   -0.01    100.04   
  1111. A(N   0,S  30,C  33)          138.07  0.000002    0.00    138.07   
  1112. A(N   0,S  30,O  25)           94.00  0.000005    0.00     94.00   
  1113. A(C   9,S  30,O  34)           99.86  0.000005   -0.01     99.85   
  1114. A(C   5,C  31,S  35)           71.44 -0.000004   -0.00     71.44   
  1115. A(C   5,C  31,F  29)           40.18 -0.000008    0.00     40.18   
  1116. A(C   5,C  31,F  26)          135.18 -0.000001   -0.00    135.18   
  1117. A(F  29,C  31,F  37)          107.67  0.000005   -0.00    107.67   
  1118. A(F  26,C  31,F  37)          108.07 -0.000001   -0.00    108.07   
  1119. A(C   2,C  31,F  37)          111.19  0.000003   -0.00    111.19   
  1120. A(C   2,C  31,S  35)           71.42 -0.000004   -0.00     71.41   
  1121. A(C   2,C  31,F  29)           40.37 -0.000008    0.00     40.37   
  1122. A(C   2,C  31,F  26)          135.70 -0.000001   -0.00    135.70   
  1123. A(F  29,C  31,S  35)          109.75 -0.000014    0.00    109.76   
  1124. A(F  26,C  31,S  35)          112.05 -0.000004    0.01    112.06   
  1125. A(C   4,C  31,F  37)          113.42  0.000003    0.00    113.42   
  1126. A(C   4,C  31,S  35)           69.14 -0.000005   -0.00     69.14   
  1127. A(C   4,C  31,F  29)           42.04 -0.000008   -0.00     42.04   
  1128. A(C   4,C  31,F  26)          134.52 -0.000001   -0.00    134.52   
  1129. A(C   9,C  31,F  37)          112.43  0.000003   -0.00    112.43   
  1130. A(C   9,C  31,S  35)           71.89 -0.000004   -0.00     71.89   
  1131. A(C   9,C  31,F  29)           39.48 -0.000008    0.00     39.48   
  1132. A(C   9,C  31,F  26)          134.20 -0.000001   -0.00    134.20   
  1133. A(F  26,C  31,F  29)          107.88  0.000006   -0.00    107.88   
  1134. A(C   6,C  31,F  37)          112.39  0.000003   -0.00    112.38   
  1135. A(C   6,C  31,S  35)           73.05 -0.000004   -0.00     73.04   
  1136. A(C   6,C  31,F  29)           38.29 -0.000009    0.00     38.29   
  1137. A(C   6,C  31,F  26)          133.64 -0.000001    0.00    133.64   
  1138. A(N   0,C  31,F  37)          111.73  0.000003   -0.00    111.73   
  1139. A(N   0,C  31,S  35)           71.96 -0.000004   -0.00     71.96   
  1140. A(N   0,C  31,F  29)           39.63 -0.000008    0.00     39.63   
  1141. A(N   0,C  31,F  26)          134.88 -0.000001   -0.00    134.88   
  1142. A(C   3,C  31,F  37)          112.47  0.000003    0.00    112.47   
  1143. A(C   3,C  31,S  35)           70.51 -0.000004   -0.00     70.51   
  1144. A(C   3,C  31,F  29)           40.90 -0.000008    0.00     40.90   
  1145. A(C   3,C  31,F  26)          134.85 -0.000001   -0.00    134.85   
  1146. A(C   8,C  31,F  37)          114.66  0.000003    0.00    114.67   
  1147. A(C   8,C  31,S  35)           68.20 -0.000005    0.00     68.20   
  1148. A(C   8,C  31,F  29)           42.69 -0.000008   -0.00     42.69   
  1149. A(N   1,C  31,F  37)          112.29  0.000003   -0.00    112.29   
  1150. A(C   8,C  31,F  26)          133.68 -0.000001   -0.00    133.67   
  1151. A(N   1,C  31,S  35)           72.13 -0.000004   -0.00     72.13   
  1152. A(N   1,C  31,F  29)           39.27 -0.000008    0.00     39.27   
  1153. A(N   1,C  31,F  26)          134.22 -0.000001   -0.00    134.22   
  1154. A(C   7,C  31,F  37)          112.72  0.000003   -0.00    112.72   
  1155. A(C   7,C  31,S  35)           73.13 -0.000004   -0.00     73.13   
  1156. A(C   7,C  31,F  29)           38.10 -0.000009    0.00     38.10   
  1157. A(C   7,C  31,F  26)          133.25 -0.000001    0.00    133.25   
  1158. A(S  35,C  31,F  37)          111.25  0.000008   -0.00    111.25   
  1159. A(C   5,C  31,F  37)          111.69  0.000003   -0.00    111.69   
  1160. A(C   3,F  32,C  33)           91.29 -0.000002    0.00     91.29   
  1161. A(C   8,F  32,C  33)           89.07 -0.000003    0.00     89.07   
  1162. A(C   9,F  32,C  33)           92.47 -0.000002    0.00     92.47   
  1163. A(N   1,F  32,C  33)           92.73 -0.000002    0.00     92.73   
  1164. A(C   7,F  32,C  33)           93.66 -0.000002    0.00     93.66   
  1165. A(C   5,F  32,C  33)           92.11 -0.000002    0.00     92.11   
  1166. A(C   6,F  32,C  33)           93.61 -0.000002    0.00     93.61   
  1167. A(N   0,F  32,C  33)           92.62 -0.000002    0.00     92.62   
  1168. A(C   2,F  32,C  33)           92.15 -0.000002    0.00     92.15   
  1169. A(C   4,F  32,C  33)           89.97 -0.000002    0.00     89.97   
  1170. A(C   3,C  33,F  38)           92.50  0.000003   -0.00     92.50   
  1171. A(C   3,C  33,F  32)           87.29  0.000002   -0.00     87.29   
  1172. A(C   3,C  33,S  30)           39.61 -0.000002   -0.00     39.61   
  1173. A(C   3,C  33,F  28)          148.79 -0.000001   -0.00    148.79   
  1174. A(C   8,C  33,F  38)           93.23  0.000003    0.00     93.23   
  1175. A(C   8,C  33,F  32)           89.51  0.000003   -0.00     89.51   
  1176. A(C   8,C  33,S  30)           37.06 -0.000002   -0.00     37.06   
  1177. A(C   8,C  33,F  28)          146.36 -0.000001   -0.00    146.36   
  1178. A(C   9,C  33,F  38)           93.14  0.000003   -0.00     93.13   
  1179. A(C   9,C  33,F  32)           86.25  0.000002   -0.00     86.25   
  1180. A(N   1,C  33,F  38)           93.17  0.000003   -0.00     93.17   
  1181. A(N   1,C  33,F  32)           85.97  0.000002   -0.00     85.96   
  1182. A(N   1,C  33,S  30)           40.26 -0.000001   -0.00     40.26   
  1183. A(N   1,C  33,F  28)          149.21 -0.000000   -0.00    149.21   
  1184. A(C   7,C  33,F  38)           94.16  0.000003   -0.00     94.16   
  1185. A(C   7,C  33,F  32)           85.02  0.000002   -0.00     85.02   
  1186. A(C   7,C  33,S  30)           40.34 -0.000001   -0.00     40.34   
  1187. A(C   7,C  33,F  28)          148.99 -0.000000   -0.00    148.99   
  1188. A(C   5,C  33,F  38)           92.24  0.000003   -0.00     92.24   
  1189. A(C   5,C  33,F  32)           86.56  0.000002   -0.00     86.56   
  1190. A(C   5,C  33,S  30)           40.48 -0.000002   -0.00     40.48   
  1191. A(C   5,C  33,F  28)          149.61 -0.000000   -0.00    149.60   
  1192. A(S  30,C  33,F  32)          111.70  0.000002   -0.00    111.70   
  1193. A(F  28,C  33,F  32)          107.74 -0.000002    0.00    107.75   
  1194. A(F  28,C  33,S  30)          109.42  0.000001   -0.00    109.42   
  1195. A(C   6,C  33,F  38)           93.83  0.000003   -0.00     93.83   
  1196. A(C   6,C  33,F  32)           85.04  0.000002   -0.00     85.04   
  1197. A(C   6,C  33,S  30)           40.59 -0.000001   -0.00     40.59   
  1198. A(C   6,C  33,F  28)          149.30 -0.000000   -0.00    149.30   
  1199. A(N   0,C  33,F  38)           92.60  0.000003   -0.00     92.59   
  1200. A(N   0,C  33,F  32)           86.02  0.000002   -0.00     86.02   
  1201. A(N   0,C  33,S  30)           40.67 -0.000002   -0.00     40.67   
  1202. A(N   0,C  33,F  28)          149.70 -0.000000   -0.00    149.70   
  1203. A(C   9,C  33,S  30)           40.03 -0.000002   -0.00     40.03   
  1204. A(C   9,C  33,F  28)          149.03 -0.000000   -0.00    149.02   
  1205. A(C   2,C  33,F  38)           91.82  0.000003   -0.00     91.82   
  1206. A(C   2,C  33,F  32)           86.46  0.000002   -0.00     86.46   
  1207. A(C   2,C  33,S  30)           40.90 -0.000002   -0.00     40.90   
  1208. A(C   2,C  33,F  28)          150.06 -0.000000   -0.00    150.06   
  1209. A(C   4,C  33,F  38)           92.60  0.000003    0.00     92.60   
  1210. A(C   4,C  33,F  32)           88.64  0.000003   -0.00     88.63   
  1211. A(C   4,C  33,S  30)           38.35 -0.000002   -0.00     38.35   
  1212. A(C   4,C  33,F  28)          147.64 -0.000001   -0.00    147.63   
  1213. A(F  32,C  33,F  38)          108.06  0.000002   -0.00    108.06   
  1214. A(S  30,C  33,F  38)          112.03 -0.000001   -0.00    112.03   
  1215. A(F  28,C  33,F  38)          107.72 -0.000003    0.00    107.72   
  1216. A(C   2,O  34,S  30)           78.97 -0.000005    0.01     78.98   
  1217. A(C   9,O  34,S  30)           78.76 -0.000005    0.01     78.77   
  1218. A(C   4,O  34,S  30)           80.96 -0.000004    0.01     80.97   
  1219. A(N   1,O  34,S  30)           78.43 -0.000005    0.01     78.44   
  1220. A(C   7,O  34,S  30)           77.36 -0.000005    0.01     77.36   
  1221. A(C   5,O  34,S  30)           79.10 -0.000005    0.01     79.11   
  1222. A(C   3,O  34,S  30)           79.65 -0.000005    0.01     79.65   
  1223. A(C   6,O  34,S  30)           77.37 -0.000005    0.01     77.38   
  1224. A(N   0,O  34,S  30)           78.49 -0.000005    0.01     78.50   
  1225. A(C   8,O  34,S  30)           81.70 -0.000004    0.01     81.70   
  1226. A(C   3,S  35,O  39)           48.36 -0.000007   -0.00     48.35   
  1227. A(C   3,S  35,N  36)          144.08  0.000007   -0.00    144.08   
  1228. A(C   3,S  35,C  31)          107.49  0.000005    0.00    107.49   
  1229. A(C   3,S  35,O  27)           71.71  0.000000   -0.00     71.70   
  1230. A(C  31,S  35,N  36)          104.46 -0.000013    0.00    104.46   
  1231. A(O  27,S  35,N  36)          115.70 -0.000000    0.00    115.70   
  1232. A(C   8,S  35,O  39)           49.99 -0.000007    0.00     50.00   
  1233. A(C   8,S  35,N  36)          142.73  0.000007   -0.00    142.72   
  1234. A(C   7,S  35,O  39)           49.52 -0.000007   -0.00     49.51   
  1235. A(C   7,S  35,N  36)          146.78  0.000007   -0.00    146.78   
  1236. A(C   8,S  35,C  31)          109.82  0.000006   -0.00    109.82   
  1237. A(C   7,S  35,C  31)          104.97  0.000004    0.00    104.97   
  1238. A(C   7,S  35,O  27)           71.11  0.000001   -0.00     71.11   
  1239. A(C   8,S  35,O  27)           69.69  0.000000   -0.01     69.69   
  1240. A(O  27,S  35,C  31)          104.05  0.000010   -0.00    104.05   
  1241. A(C   5,S  35,O  39)           47.84 -0.000007   -0.00     47.84   
  1242. A(C   5,S  35,N  36)          144.53  0.000007   -0.01    144.52   
  1243. A(C   5,S  35,C  31)          106.67  0.000004    0.00    106.67   
  1244. A(C   5,S  35,O  27)           72.38  0.000001   -0.00     72.38   
  1245. A(C   2,S  35,O  39)           47.31 -0.000007   -0.00     47.31   
  1246. A(C   2,S  35,N  36)          144.32  0.000007   -0.01    144.31   
  1247. A(C   2,S  35,C  31)          106.61  0.000004    0.00    106.61   
  1248. A(C   2,S  35,O  27)           72.92  0.000001   -0.00     72.91   
  1249. A(C   4,S  35,O  39)           48.95 -0.000007    0.00     48.95   
  1250. A(C   9,S  35,O  39)           48.77 -0.000007   -0.00     48.76   
  1251. A(C   4,S  35,N  36)          143.11  0.000007   -0.00    143.11   
  1252. A(C   9,S  35,N  36)          145.30  0.000007   -0.00    145.30   
  1253. A(C   9,S  35,C  31)          106.29  0.000004    0.00    106.29   
  1254. A(C   9,S  35,O  27)           71.55  0.000001   -0.00     71.55   
  1255. A(C   4,S  35,C  31)          108.90  0.000005   -0.00    108.90   
  1256. A(C   4,S  35,O  27)           70.87  0.000000   -0.01     70.86   
  1257. A(C   6,S  35,O  39)           49.13 -0.000007   -0.00     49.13   
  1258. A(C   6,S  35,N  36)          146.57  0.000007   -0.00    146.56   
  1259. A(C   6,S  35,C  31)          105.01  0.000004    0.00    105.01   
  1260. A(C   6,S  35,O  27)           71.48  0.000001   -0.00     71.48   
  1261. A(N  36,S  35,O  39)          108.62  0.000010    0.00    108.62   
  1262. A(C  31,S  35,O  39)          102.77 -0.000001    0.00    102.77   
  1263. A(N   0,S  35,O  39)           48.05 -0.000007   -0.00     48.05   
  1264. A(N   0,S  35,N  36)          145.12  0.000007   -0.01    145.11   
  1265. A(N   0,S  35,C  31)          106.10  0.000004    0.00    106.10   
  1266. A(N   0,S  35,O  27)           72.29  0.000001   -0.00     72.29   
  1267. A(O  27,S  35,O  39)          119.18 -0.000007   -0.00    119.18   
  1268. A(N   1,S  35,O  39)           48.70 -0.000007   -0.00     48.70   
  1269. A(N   1,S  35,N  36)          145.52  0.000007   -0.00    145.51   
  1270. A(N   1,S  35,C  31)          106.00  0.000004    0.00    106.00   
  1271. A(N   1,S  35,O  27)           71.68  0.000001   -0.00     71.67   
  1272. A(S  30,N  36,S  35)          127.57  0.000004    0.01    127.57   
  1273. A(C   6,N  36,S  35)           32.51 -0.000007    0.00     32.52   
  1274. A(C   6,N  36,S  30)          138.79  0.000006    0.01    138.79   
  1275. A(N   0,N  36,S  35)           33.93 -0.000007    0.01     33.93   
  1276. A(N   0,N  36,S  30)          139.22  0.000006    0.00    139.22   
  1277. A(C   3,N  36,S  35)           34.90 -0.000007    0.00     34.90   
  1278. A(C   3,N  36,S  30)          138.29  0.000006    0.00    138.29   
  1279. A(C   9,N  36,S  35)           33.80 -0.000007    0.00     33.81   
  1280. A(C   9,N  36,S  30)          138.50  0.000006    0.00    138.51   
  1281. A(C   8,N  36,S  35)           36.21 -0.000006    0.00     36.21   
  1282. A(C   8,N  36,S  30)          135.77  0.000006    0.00    135.77   
  1283. A(N   1,N  36,S  35)           33.57 -0.000007    0.00     33.57   
  1284. A(N   1,N  36,S  30)          138.70  0.000006    0.01    138.70   
  1285. A(C   7,N  36,S  35)           32.32 -0.000007    0.00     32.33   
  1286. A(C   7,N  36,S  30)          138.47  0.000006    0.01    138.47   
  1287. A(C   2,N  36,S  35)           34.68 -0.000007    0.01     34.69   
  1288. A(C   2,N  36,S  30)          139.62  0.000006    0.00    139.62   
  1289. A(C   5,N  36,S  35)           34.52 -0.000007    0.01     34.53   
  1290. A(C   5,N  36,S  30)          139.13  0.000006    0.00    139.13   
  1291. A(C   4,N  36,S  35)           35.86 -0.000007    0.00     35.86   
  1292. A(C   4,N  36,S  30)          137.10  0.000006    0.00    137.10   
  1293. A(C   6,F  37,C  31)           66.29 -0.000003    0.00     66.29   
  1294. A(N   0,F  37,C  31)           66.94 -0.000003    0.00     66.94   
  1295. A(C   3,F  37,C  31)           66.16 -0.000003   -0.00     66.16   
  1296. A(C   9,F  37,C  31)           66.32 -0.000003    0.00     66.32   
  1297. A(C   8,F  37,C  31)           63.98 -0.000003   -0.00     63.98   
  1298. A(N   1,F  37,C  31)           66.43 -0.000003    0.00     66.43   
  1299. A(C   7,F  37,C  31)           65.99 -0.000003    0.00     65.99   
  1300. A(C   2,F  37,C  31)           67.44 -0.000003    0.00     67.44   
  1301. A(C   5,F  37,C  31)           67.00 -0.000003    0.00     67.00   
  1302. A(C   4,F  37,C  31)           65.23 -0.000003   -0.00     65.23   
  1303. A(C   8,F  38,C  33)           85.36 -0.000003   -0.00     85.36   
  1304. A(C   9,F  38,C  33)           85.59 -0.000003    0.00     85.59   
  1305. A(N   1,F  38,C  33)           85.52 -0.000003    0.00     85.53   
  1306. A(C   7,F  38,C  33)           84.52 -0.000003    0.00     84.52   
  1307. A(C   5,F  38,C  33)           86.43 -0.000003    0.00     86.43   
  1308. A(C   6,F  38,C  33)           84.82 -0.000003    0.00     84.83   
  1309. A(N   0,F  38,C  33)           86.05 -0.000003    0.00     86.05   
  1310. A(C   2,F  38,C  33)           86.79 -0.000003    0.00     86.79   
  1311. A(C   4,F  38,C  33)           86.01 -0.000003   -0.00     86.01   
  1312. A(C   3,F  38,C  33)           86.09 -0.000003    0.00     86.09   
  1313. A(C   2,O  39,S  35)          131.49  0.000008    0.00    131.49   
  1314. A(C   6,O  39,C   8)            5.02  0.000001   -0.00      5.02   
  1315. A(C   6,O  39,S  35)          129.66  0.000008    0.00    129.67   
  1316. A(C   4,O  39,S  35)          129.81  0.000008   -0.00    129.81   
  1317. A(N   1,O  39,S  35)          130.15  0.000008    0.00    130.15   
  1318. A(N   0,O  39,S  35)          130.76  0.000008    0.00    130.76   
  1319. A(C   7,O  39,S  35)          129.30  0.000008    0.00    129.31   
  1320. A(C   3,O  39,S  35)          130.40  0.000008    0.00    130.40   
  1321. A(C   5,O  39,S  35)          131.00  0.000008    0.00    131.01   
  1322. A(C   8,O  39,S  35)          128.73  0.000007   -0.00    128.72   
  1323. A(C   9,O  39,S  35)          130.11  0.000008    0.00    130.11   
  1324. D(C   3,C   2,N   0,C   6)     71.17  0.000003   -0.02     71.15   
  1325. D(C   3,C   2,N   0,C   5)   -105.16  0.000003   -0.02   -105.18   
  1326. D(H  10,C   2,N   0,C   5)     16.82  0.000010   -0.03     16.80   
  1327. D(C   4,C   3,C   2,H  10)    -57.67 -0.000002   -0.01    -57.68   
  1328. D(H  12,C   3,C   2,N   0)    -62.46  0.000003   -0.01    -62.48   
  1329. D(C   4,C   3,C   2,N   0)     61.72  0.000004   -0.01     61.71   
  1330. D(C   8,C   4,C   3,C   2)    177.02  0.000001    0.00    177.02   
  1331. D(C   8,C   4,C   3,H  12)    -59.13  0.000003   -0.00    -59.13   
  1332. D(H  14,C   4,C   3,C   2)    -61.32 -0.000000    0.00    -61.32   
  1333. D(H  16,C   5,N   1,C   7)    179.85  0.000010   -0.01    179.85   
  1334. D(N   1,C   5,N   0,C   6)      0.28 -0.000000   -0.00      0.28   
  1335. D(H  16,C   5,N   0,C   2)     -2.87 -0.000009    0.00     -2.87   
  1336. D(N   1,C   5,N   0,C   2)    177.14  0.000000   -0.00    177.14   
  1337. D(N   0,C   5,N   1,C   9)    179.42  0.000002   -0.00    179.42   
  1338. D(N   0,C   5,N   1,C   7)     -0.16  0.000001    0.00     -0.16   
  1339. D(C   7,C   6,N   0,C   5)     -0.29 -0.000001    0.00     -0.29   
  1340. D(H  17,C   6,N   0,C   2)      3.19 -0.000001    0.00      3.20   
  1341. D(C   7,C   6,N   0,C   2)   -177.16 -0.000001    0.00   -177.16   
  1342. D(N   1,C   7,C   6,N   0)      0.19  0.000002   -0.00      0.19   
  1343. D(H  18,C   7,C   6,N   0)   -179.37 -0.000006    0.00   -179.37   
  1344. D(C   6,C   7,N   1,C   5)     -0.03 -0.000002    0.00     -0.03   
  1345. D(H  18,C   7,N   1,C   5)    179.58  0.000005   -0.00    179.58   
  1346. D(N   1,C   7,C   6,H  17)    179.80  0.000001   -0.00    179.80   
  1347. D(C   6,C   7,N   1,C   9)   -179.60 -0.000002    0.00   -179.60   
  1348. D(H  19,C   8,C   4,H  14)    -62.12 -0.000006    0.00    -62.12   
  1349. D(H  20,C   8,C   4,C   3)    -60.11 -0.000004    0.00    -60.10   
  1350. D(H  19,C   8,C   4,C   3)     59.97 -0.000002    0.00     59.97   
  1351. D(H  22,C   9,N   1,C   7)   -179.16 -0.000000   -0.00   -179.16   
  1352. D(H  23,C   9,N   1,C   5)    121.00 -0.000005    0.00    121.01   
  1353. D(H  22,C   9,N   1,C   5)      1.34 -0.000001    0.00      1.34   
  1354. D(S  30,O  25,N   0,C   2)      8.13  0.000002    0.04      8.16   
  1355. D(S  30,O  25,C   7,N   1)     30.19 -0.000000    0.04     30.23   
  1356. D(S  30,O  25,C   7,C   6)    -21.29  0.000001    0.02    -21.27   
  1357. D(S  30,O  25,C   8,C   4)    -66.38 -0.000001    0.07    -66.31   
  1358. D(S  30,O  25,C   5,N   0)   -128.31  0.000000    0.04   -128.27   
  1359. D(S  30,O  25,C   9,H  22)     27.08 -0.000000    0.04     27.12   
  1360. D(S  30,O  25,C   6,N   0)     22.24 -0.000000    0.04     22.28   
  1361. D(S  30,O  25,N   1,C   7)   -149.76 -0.000000    0.04   -149.73   
  1362. D(S  30,O  25,C   3,C   2)    -63.95 -0.000003    0.07    -63.88   
  1363. D(S  30,O  25,C   8,H  19)   -169.62 -0.000001    0.07   -169.55   
  1364. D(S  30,O  25,C   4,C   3)    -89.98 -0.000001    0.07    -89.91   
  1365. D(S  30,O  25,N   0,C   5)     51.64 -0.000000    0.04     51.68   
  1366. D(S  30,O  25,C   3,C   4)     89.87 -0.000001    0.07     89.94   
  1367. D(S  30,O  25,C   5,N   1)   -167.02  0.000000    0.03   -166.99   
  1368. D(S  30,O  25,C   2,C   3)    115.93 -0.000003    0.07    116.00   
  1369. D(S  30,O  25,C   4,C   8)    113.51 -0.000001    0.07    113.58   
  1370. D(S  30,O  25,C   2,N   0)   -171.86  0.000002    0.04   -171.82   
  1371. D(S  30,O  25,C   9,N   1)    -92.26 -0.000001    0.03    -92.24   
  1372. D(S  30,O  25,N   1,C   5)     12.96  0.000000    0.03     12.99   
  1373. D(S  30,O  25,C   6,C   7)    158.70  0.000001    0.02    158.72   
  1374. D(C  31,F  26,C   6,N   0)     32.65  0.000000    0.04     32.69   
  1375. D(C  31,F  26,C   4,C   8)    126.05  0.000000    0.07    126.12   
  1376. D(C  31,F  26,C   4,C   3)    -76.03 -0.000001    0.07    -75.95   
  1377. D(C  31,F  26,C   5,N   0)   -120.47  0.000001    0.04   -120.43   
  1378. D(C  31,F  26,C   3,C   2)    -52.76 -0.000002    0.07    -52.69   
  1379. D(C  31,F  26,C   5,N   1)   -153.34  0.000000    0.03   -153.31   
  1380. D(C  31,F  26,C   2,C   3)    126.10 -0.000002    0.07    126.17   
  1381. D(C  31,F  26,C   3,C   4)    102.50 -0.000001    0.07    102.57   
  1382. D(C  31,F  26,N   1,C   7)   -140.14  0.000001    0.04   -140.11   
  1383. D(C  31,F  26,C   2,N   0)   -156.21  0.000001    0.04   -156.18   
  1384. D(C  31,F  26,N   0,C   2)     23.41  0.000001    0.04     23.44   
  1385. D(C  31,F  26,N   1,C   5)     26.17  0.000000    0.03     26.20   
  1386. D(C  31,F  26,N   0,C   5)     59.05  0.000001    0.04     59.10   
  1387. D(C  31,F  26,C   8,C   4)    -52.85  0.000000    0.07    -52.78   
  1388. D(C  31,F  26,C   8,H  19)   -155.95  0.000000    0.07   -155.88   
  1389. D(C  31,F  26,C   7,C   6)     -1.50 -0.000000    0.02     -1.47   
  1390. D(C  31,F  26,C   7,N   1)     39.09  0.000001    0.04     39.13   
  1391. D(C  31,F  26,C   9,N   1)    -79.62 -0.000002    0.04    -79.58   
  1392. D(C  31,F  26,C   9,H  22)     37.69  0.000001    0.04     37.73   
  1393. D(C  31,F  26,C   6,C   7)    178.49 -0.000000    0.02    178.51   
  1394. D(S  35,O  27,C   6,C   7)   -165.16  0.000000    0.03   -165.13   
  1395. D(S  35,O  27,C   7,N   1)     64.74  0.000000    0.04     64.78   
  1396. D(S  35,O  27,C   6,N   0)     57.12  0.000000    0.04     57.16   
  1397. D(S  35,O  27,C   9,H  22)     61.30  0.000000    0.04     61.34   
  1398. D(S  35,O  27,C   5,N   0)    -95.08  0.000001    0.04    -95.04   
  1399. D(S  35,O  27,C   7,C   6)     14.88  0.000000    0.03     14.90   
  1400. D(S  35,O  27,C   8,C   4)    -33.51 -0.000001    0.08    -33.44   
  1401. D(S  35,O  27,C   8,H  19)   -136.89 -0.000002    0.07   -136.82   
  1402. D(S  35,O  27,C   9,N   1)    -58.81 -0.000001    0.03    -58.78   
  1403. D(S  35,O  27,C   4,C   3)    -56.68 -0.000002    0.07    -56.61   
  1404. D(S  35,O  27,C   2,C   3)    150.04 -0.000003    0.07    150.11   
  1405. D(S  35,O  27,C   2,N   0)   -136.77  0.000001    0.04   -136.73   
  1406. D(S  35,O  27,N   1,C   7)   -115.62  0.000000    0.04   -115.58   
  1407. D(S  35,O  27,C   3,C   2)    -30.16 -0.000003    0.07    -30.09   
  1408. D(S  35,O  27,N   1,C   5)     47.90  0.000000    0.04     47.94   
  1409. D(S  35,O  27,C   3,C   4)    123.72 -0.000001    0.07    123.80   
  1410. D(S  35,O  27,N   0,C   5)     85.09  0.000001    0.04     85.13   
  1411. D(S  35,O  27,C   4,C   8)    146.74 -0.000001    0.08    146.81   
  1412. D(S  35,O  27,C   5,N   1)   -132.34  0.000000    0.04   -132.30   
  1413. D(S  35,O  27,N   0,C   2)     43.40  0.000001    0.04     43.44   
  1414. D(C  33,F  28,C   8,H  19)   -114.82 -0.000001    0.05   -114.77   
  1415. D(C  33,F  28,C   7,C   6)     28.11  0.000001    0.01     28.12   
  1416. D(C  33,F  28,C   6,N   0)     72.04 -0.000001    0.02     72.06   
  1417. D(C  33,F  28,C   7,N   1)     78.90 -0.000001    0.02     78.92   
  1418. D(C  33,F  28,C   5,N   1)   -113.36 -0.000000    0.02   -113.34   
  1419. D(C  33,F  28,C   9,H  22)     78.53 -0.000001    0.02     78.55   
  1420. D(C  33,F  28,C   3,C   4)    142.55 -0.000001    0.05    142.60   
  1421. D(C  33,F  28,C   9,N   1)    -47.72  0.000001    0.01    -47.71   
  1422. D(C  33,F  28,N   1,C   7)    -99.12 -0.000001    0.02    -99.10   
  1423. D(C  33,F  28,C   2,N   0)   -117.38  0.000001    0.02   -117.36   
  1424. D(C  33,F  28,N   0,C   5)    100.13 -0.000000    0.02    100.15   
  1425. D(C  33,F  28,N   0,C   2)     61.38  0.000001    0.02     61.40   
  1426. D(C  33,F  28,N   1,C   5)     65.10 -0.000000    0.02     65.12   
  1427. D(C  33,F  28,C   5,N   0)    -78.90 -0.000000    0.02    -78.88   
  1428. D(C  33,F  28,C   4,C   8)    169.32 -0.000002    0.05    169.37   
  1429. D(C  33,F  28,C   8,C   4)    -10.32 -0.000001    0.05    -10.27   
  1430. D(C  33,F  28,C   4,C   3)    -36.04 -0.000001    0.05    -35.99   
  1431. D(C  33,F  28,C   2,C   3)    170.08 -0.000004    0.05    170.14   
  1432. D(C  33,F  28,C   3,C   2)     -9.55 -0.000004    0.05     -9.50   
  1433. D(C  33,F  28,C   6,C   7)   -151.60  0.000001    0.01   -151.59   
  1434. D(C  31,F  29,N   1,C   7)    160.19  0.000001    0.04    160.23   
  1435. D(C  31,F  29,C   6,C   7)    122.67 -0.000001    0.03    122.69   
  1436. D(C  31,F  29,C   4,C   3)   -139.62 -0.000003    0.07   -139.54   
  1437. D(C  31,F  29,C   4,C   8)     62.60 -0.000001    0.07     62.67   
  1438. D(C  31,F  29,C   5,N   0)    178.55  0.000001    0.04    178.59   
  1439. D(C  31,F  29,C   3,C   4)     41.47 -0.000002    0.07     41.55   
  1440. D(C  31,F  29,C   5,N   1)    148.50  0.000000    0.04    148.53   
  1441. D(C  31,F  29,C   3,C   2)   -113.67 -0.000002    0.07   -113.60   
  1442. D(C  31,F  29,C   6,N   0)    -25.74 -0.000000    0.04    -25.69   
  1443. D(C  31,F  29,C   2,C   3)     67.82 -0.000002    0.07     67.88   
  1444. D(C  31,F  29,C   7,N   1)    -20.33  0.000000    0.04    -20.29   
  1445. D(C  31,F  29,C   7,C   6)    -57.76 -0.000001    0.03    -57.73   
  1446. D(C   8,F  29,C   6,N   0)    -54.27 -0.000001   -0.02    -54.29   
  1447. D(C  31,F  29,N   1,C   5)    -32.18 -0.000000    0.04    -32.15   
  1448. D(C  31,F  29,C   2,N   0)    146.94  0.000001    0.04    146.97   
  1449. D(C  31,F  29,N   0,C   5)     -1.47  0.000001    0.04     -1.42   
  1450. D(C  31,F  29,N   0,C   2)    -33.66  0.000000    0.04    -33.62   
  1451. D(C  31,F  29,C   9,H  22)    -22.08  0.000000    0.04    -22.04   
  1452. D(C  31,F  29,C   9,N   1)   -141.45 -0.000004    0.05   -141.40   
  1453. D(C   6,F  29,C   8,C   4)     35.36 -0.000001    0.01     35.37   
  1454. D(C  31,F  29,C   8,H  19)    137.81 -0.000002    0.07    137.88   
  1455. D(C  31,F  29,C   8,C   4)   -118.74 -0.000002    0.07   -118.67   
  1456. D(C   8,F  29,C   7,N   1)    -43.91 -0.000002   -0.02    -43.93   
  1457. D(O  34,S  30,O  25,C   8)    -99.80 -0.000007    0.01    -99.79   
  1458. D(C  33,S  30,O  25,C   3)    143.24  0.000002    0.01    143.24   
  1459. D(C  33,S  30,O  25,C   8)    145.93  0.000002    0.01    145.93   
  1460. D(C  33,S  30,C   9,N   1)    -34.92  0.000004    0.01    -34.91   
  1461. D(O  25,S  30,C   9,H  22)   -153.06 -0.000000    0.04   -153.02   
  1462. D(O  25,S  30,C   9,N   1)     81.50  0.000000    0.03     81.53   
  1463. D(C  33,S  30,C   8,C   4)     -4.12  0.000001    0.06     -4.07   
  1464. D(O  25,S  30,C   4,C   3)     89.30 -0.000001    0.07     89.37   
  1465. D(O  25,S  30,C   7,C   6)    156.82  0.000001    0.02    156.84   
  1466. D(C  33,S  30,C   5,N   0)    -68.03  0.000004    0.02    -68.02   
  1467. D(O  25,S  30,C   6,N   0)   -157.70 -0.000000    0.04   -157.66   
  1468. D(O  25,S  30,C   6,C   7)    -23.19  0.000001    0.02    -23.16   
  1469. D(O  25,S  30,C   5,N   1)     13.26  0.000000    0.03     13.29   
  1470. D(C  33,S  30,C   6,N   0)     87.25  0.000004    0.02     87.27   
  1471. D(O  25,S  30,C   5,N   0)     49.28  0.000000    0.04     49.32   
  1472. D(O  25,S  30,C   7,N   1)   -150.19 -0.000000    0.04   -150.15   
  1473. D(C  33,S  30,C   4,C   3)    -29.32  0.000002    0.05    -29.27   
  1474. D(O  25,S  30,C   8,C   4)    114.69 -0.000001    0.07    114.77   
  1475. D(O  25,S  30,C   8,H  19)     10.30 -0.000001    0.07     10.37   
  1476. D(C  33,S  30,C   7,N   1)     95.03  0.000004    0.02     95.05   
  1477. D(C  33,S  30,C   3,C   2)     -0.57 -0.000000    0.05     -0.52   
  1478. D(O  25,S  30,C   3,C   4)    -90.81 -0.000001    0.07    -90.74   
  1479. D(O  25,S  30,C   3,C   2)    117.09 -0.000003    0.07    117.16   
  1480. D(O  25,S  30,C   4,C   8)    -65.39 -0.000001    0.07    -65.32   
  1481. D(C  33,S  30,C   2,N   0)   -109.08  0.000005    0.02   -109.06   
  1482. D(O  25,S  30,C   2,N   0)      8.47  0.000002    0.04      8.51   
  1483. D(O  25,S  30,N   1,C   5)   -166.76  0.000000    0.03   -166.72   
  1484. D(O  25,S  30,N   1,C   7)     29.84 -0.000000    0.04     29.88   
  1485. D(C  33,S  30,N   0,C   2)     71.80  0.000005    0.02     71.81   
  1486. D(O  25,S  30,C   2,C   3)    -63.01 -0.000004    0.07    -62.93   
  1487. D(O  25,S  30,N   0,C   5)   -130.75  0.000000    0.04   -130.71   
  1488. D(O  25,S  30,N   0,C   2)   -171.54  0.000002    0.04   -171.50   
  1489. D(C  33,S  30,N   1,C   5)     77.05  0.000004    0.01     77.06   
  1490. D(S  35,C  31,F  29,C   8)    -13.75 -0.000006    0.01    -13.74   
  1491. D(F  26,C  31,F  29,C   3)   -139.42  0.000003    0.00   -139.42   
  1492. D(F  26,C  31,F  29,C   8)   -136.09  0.000004    0.00   -136.09   
  1493. D(S  35,C  31,F  26,C   8)    -80.37  0.000011   -0.01    -80.38   
  1494. D(F  29,C  31,C   9,N   1)     35.31 -0.000002    0.04     35.35   
  1495. D(F  26,C  31,C   9,H  22)   -142.46  0.000001    0.04   -142.42   
  1496. D(F  26,C  31,C   9,N   1)     94.84 -0.000001    0.04     94.88   
  1497. D(F  29,C  31,F  26,C   3)     36.93 -0.000005   -0.00     36.93   
  1498. D(F  29,C  31,C   8,C   4)     61.87 -0.000002    0.07     61.94   
  1499. D(F  26,C  31,C   8,H  19)     23.90  0.000000    0.07     23.97   
  1500. D(F  29,C  31,F  26,C   8)     40.55 -0.000004   -0.00     40.55   
  1501. D(F  29,C  31,C   7,N   1)    159.84  0.000000    0.04    159.88   
  1502. D(F  26,C  31,C   7,N   1)   -141.27  0.000001    0.04   -141.23   
  1503. D(F  26,C  31,C   5,N   1)     27.01  0.000000    0.03     27.04   
  1504. D(F  26,C  31,C   6,N   0)   -147.31  0.000000    0.04   -147.28   
  1505. D(F  29,C  31,C   5,N   0)     -1.40  0.000001    0.04     -1.35   
  1506. D(F  29,C  31,C   6,N   0)    154.24  0.000000    0.04    154.28   
  1507. D(F  26,C  31,C   5,N   0)     57.50  0.000001    0.04     57.55   
  1508. D(F  29,C  31,C   4,C   3)     40.02 -0.000002    0.07     40.09   
  1509. D(F  26,C  31,C   4,C   8)    -53.35  0.000000    0.07    -53.28   
  1510. D(F  26,C  31,C   7,C   6)    178.41 -0.000000    0.03    178.43   
  1511. D(F  26,C  31,C   6,C   7)     -1.60 -0.000000    0.03     -1.58   
  1512. D(F  26,C  31,C   4,C   3)    103.43 -0.000000    0.07    103.50   
  1513. D(F  26,C  31,C   8,C   4)    127.73  0.000000    0.07    127.80   
  1514. D(F  29,C  31,C   3,C   2)     66.95 -0.000003    0.07     67.02   
  1515. D(F  26,C  31,C   3,C   4)    -78.02 -0.000001    0.07    -77.95   
  1516. D(F  26,C  31,C   3,C   2)    127.80 -0.000002    0.07    127.87   
  1517. D(F  26,C  31,N   0,C   2)   -155.99  0.000001    0.04   -155.95   
  1518. D(F  29,C  31,N   1,C   5)    147.42  0.000000    0.04    147.45   
  1519. D(F  26,C  31,N   1,C   5)   -153.47  0.000000    0.03   -153.44   
  1520. D(F  29,C  31,N   0,C   2)    145.56  0.000001    0.04    145.60   
  1521. D(F  26,C  31,N   1,C   7)     39.48  0.000001    0.04     39.52   
  1522. D(F  26,C  31,N   0,C   5)   -122.96  0.000001    0.04   -122.92   
  1523. D(F  26,C  31,C   2,C   3)    -53.32 -0.000002    0.07    -53.25   
  1524. D(F  29,C  31,C   2,N   0)    -33.84  0.000001    0.04    -33.80   
  1525. D(F  26,C  31,C   2,N   0)     24.38  0.000001    0.04     24.42   
  1526. D(C  33,F  32,C   9,H  22)    -40.75  0.000000    0.02    -40.74   
  1527. D(C  33,F  32,C   9,N   1)   -167.67  0.000002    0.01   -167.67   
  1528. D(C  33,F  32,C   8,H  19)    122.12 -0.000001    0.05    122.17   
  1529. D(C  33,F  32,C   7,C   6)    -82.35  0.000003    0.01    -82.34   
  1530. D(C  33,F  32,C   7,N   1)    -38.54  0.000001    0.02    -38.52   
  1531. D(C  33,F  32,C   6,C   7)     97.67  0.000003    0.01     97.68   
  1532. D(C  33,F  32,C   6,N   0)    -44.72  0.000000    0.02    -44.70   
  1533. D(C  33,F  32,C   5,N   1)    128.01  0.000001    0.01    128.03   
  1534. D(C  33,F  32,C   4,C   8)     46.54 -0.000001    0.05     46.59   
  1535. D(C  33,F  32,C   2,N   0)    125.06  0.000002    0.02    125.08   
  1536. D(C  33,F  32,C   3,C   2)   -130.92 -0.000003    0.05   -130.87   
  1537. D(C  33,F  32,C   2,C   3)     49.11 -0.000003    0.05     49.16   
  1538. D(C  33,F  32,C   3,C   4)     21.89 -0.000001    0.05     21.94   
  1539. D(C  33,F  32,N   1,C   7)    141.50  0.000000    0.02    141.52   
  1540. D(C  33,F  32,C   4,C   3)   -158.12 -0.000001    0.05   -158.07   
  1541. D(C  33,F  32,C   8,C   4)   -133.45 -0.000001    0.05   -133.40   
  1542. D(C  33,F  32,C   5,N   0)    158.62  0.000001    0.02    158.63   
  1543. D(C  33,F  32,N   1,C   5)    -52.02  0.000001    0.01    -52.01   
  1544. D(C  33,F  32,N   0,C   5)    -21.39  0.000001    0.02    -21.37   
  1545. D(C  33,F  32,N   0,C   2)    -54.97  0.000002    0.02    -54.95   
  1546. D(S  30,C  33,F  28,C   3)     -6.01 -0.000002    0.00     -6.01   
  1547. D(S  30,C  33,F  28,C   8)     -3.93 -0.000002   -0.00     -3.93   
  1548. D(S  30,C  33,C   9,N   1)    141.85  0.000005    0.01    141.86   
  1549. D(F  28,C  33,C   9,N   1)    129.97  0.000001    0.01    129.98   
  1550. D(S  30,C  33,C   8,C   4)    175.94  0.000001    0.06    176.00   
  1551. D(F  28,C  33,C   8,H  19)     64.98 -0.000001    0.05     65.03   
  1552. D(S  30,C  33,C   7,N   1)    -85.59  0.000004    0.02    -85.57   
  1553. D(F  28,C  33,C   7,C   6)   -150.68  0.000001    0.01   -150.67   
  1554. D(F  28,C  33,C   7,N   1)   -101.44 -0.000001    0.02   -101.42   
  1555. D(S  30,C  33,C   6,N   0)    -92.61  0.000004    0.02    -92.60   
  1556. D(F  28,C  33,C   6,C   7)     29.60  0.000001    0.01     29.61   
  1557. D(F  28,C  33,C   6,N   0)   -107.89 -0.000001    0.02   -107.87   
  1558. D(S  30,C  33,C   5,N   0)    109.53  0.000004    0.02    109.54   
  1559. D(F  28,C  33,C   5,N   1)     67.16 -0.000000    0.02     67.18   
  1560. D(F  28,C  33,C   5,N   0)     99.72 -0.000001    0.02     99.74   
  1561. D(S  30,C  33,C   4,C   3)    150.38  0.000002    0.05    150.44   
  1562. D(F  28,C  33,C   4,C   8)    -10.58 -0.000002    0.05    -10.53   
  1563. D(F  28,C  33,C   4,C   3)    143.75 -0.000001    0.05    143.80   
  1564. D(S  30,C  33,C   3,C   2)    179.44 -0.000000    0.05    179.49   
  1565. D(F  28,C  33,C   3,C   4)    -37.65 -0.000001    0.05    -37.60   
  1566. D(F  28,C  33,C   3,C   2)    170.54 -0.000004    0.05    170.59   
  1567. D(S  30,C  33,C   2,N   0)     72.85  0.000005    0.02     72.87   
  1568. D(F  28,C  33,C   2,C   3)     -9.83 -0.000004    0.05     -9.78   
  1569. D(F  28,C  33,C   8,C   4)    169.78 -0.000001    0.05    169.83   
  1570. D(F  28,C  33,C   2,N   0)     63.57  0.000001    0.02     63.59   
  1571. D(S  30,C  33,N   1,C   5)   -101.89  0.000004    0.01   -101.88   
  1572. D(F  28,C  33,N   1,C   7)     80.53 -0.000001    0.02     80.55   
  1573. D(F  28,C  33,C   9,H  22)   -101.61 -0.000001    0.02   -101.59   
  1574. D(F  28,C  33,N   1,C   5)   -114.36 -0.000000    0.02   -114.34   
  1575. D(S  30,C  33,N   0,C   2)   -106.26  0.000005    0.02   -106.24   
  1576. D(F  28,C  33,N   0,C   5)    -81.25 -0.000000    0.02    -81.23   
  1577. D(F  32,C  33,F  28,C   8)    117.70  0.000001   -0.00    117.69   
  1578. D(F  28,C  33,N   0,C   2)   -117.66  0.000001    0.02   -117.64   
  1579. D(S  30,C  33,F  32,C   8)    -30.43  0.000003    0.00    -30.42   
  1580. D(F  28,C  33,F  32,C   3)   -152.11  0.000000    0.00   -152.11   
  1581. D(F  28,C  33,F  32,C   8)   -150.63  0.000001    0.00   -150.62   
  1582. D(F  32,C  33,S  30,O  25)    -58.35 -0.000003   -0.02    -58.37   
  1583. D(F  28,C  33,S  30,O  34)    -64.00  0.000006   -0.02    -64.03   
  1584. D(F  28,C  33,S  30,O  25)     60.86 -0.000003   -0.02     60.84   
  1585. D(C   3,O  34,S  30,O  25)     99.82  0.000007   -0.00     99.82   
  1586. D(C   8,O  34,S  30,O  25)     98.01  0.000007   -0.01     98.01   
  1587. D(S  30,O  34,C   9,H  22)    147.14 -0.000003    0.04    147.18   
  1588. D(S  30,O  34,C   9,N   1)     19.51 -0.000002    0.03     19.54   
  1589. D(S  30,O  34,C   8,C   4)     55.27 -0.000005    0.08     55.35   
  1590. D(S  30,O  34,C   7,C   6)     91.71 -0.000002    0.03     91.74   
  1591. D(S  30,O  34,C   7,N   1)    150.17 -0.000003    0.04    150.21   
  1592. D(S  30,O  34,C   6,C   7)    -88.20 -0.000002    0.03    -88.18   
  1593. D(S  30,O  34,C   6,N   0)    142.28 -0.000003    0.04    142.32   
  1594. D(S  30,O  34,C   5,N   1)    -47.46 -0.000002    0.04    -47.42   
  1595. D(S  30,O  34,C   5,N   0)     -9.99 -0.000002    0.04     -9.95   
  1596. D(S  30,O  34,C   4,C   8)   -124.56 -0.000005    0.08   -124.49   
  1597. D(S  30,O  34,C   4,C   3)     28.80 -0.000004    0.07     28.87   
  1598. D(S  30,O  34,C   3,C   4)   -151.08 -0.000004    0.07   -151.01   
  1599. D(S  30,O  34,C   3,C   2)     58.11 -0.000007    0.07     58.19   
  1600. D(S  30,O  34,C   2,C   3)   -121.68 -0.000007    0.07   -121.61   
  1601. D(S  30,O  34,C   8,H  19)    -49.74 -0.000005    0.07    -49.67   
  1602. D(S  30,O  34,C   2,N   0)    -53.08 -0.000001    0.04    -53.04   
  1603. D(S  30,O  34,N   1,C   7)    -29.70 -0.000003    0.04    -29.66   
  1604. D(S  30,O  34,N   1,C   5)    132.40 -0.000002    0.04    132.43   
  1605. D(C   8,O  34,S  30,C  33)   -147.15 -0.000005    0.01   -147.15   
  1606. D(S  30,O  34,N   0,C   5)    169.99 -0.000002    0.04    170.03   
  1607. D(S  30,O  34,N   0,C   2)    126.79 -0.000001    0.04    126.83   
  1608. D(N  36,S  35,C  31,F  26)    -65.06 -0.000003   -0.00    -65.06   
  1609. D(O  27,S  35,C  31,F  26)     56.69 -0.000005    0.00     56.69   
  1610. D(N  36,S  35,O  27,C   8)   -139.78 -0.000007    0.00   -139.77   
  1611. D(C  31,S  35,O  27,C   3)    104.09  0.000002    0.00    104.09   
  1612. D(C  31,S  35,C   9,N   1)     15.47 -0.000008    0.04     15.51   
  1613. D(O  27,S  35,C   9,H  22)   -118.98  0.000000    0.04   -118.94   
  1614. D(O  27,S  35,C   9,N   1)    115.20  0.000001    0.04    115.24   
  1615. D(O  27,S  35,C   8,H  19)     42.77 -0.000002    0.07     42.85   
  1616. D(O  27,S  35,C   8,C   4)    147.10 -0.000002    0.07    147.18   
  1617. D(C  31,S  35,C   7,N   1)    144.02 -0.000009    0.04    144.06   
  1618. D(O  27,S  35,C   7,C   6)   -163.75  0.000000    0.03   -163.72   
  1619. D(O  27,S  35,C   7,N   1)   -115.96  0.000000    0.04   -115.92   
  1620. D(C  31,S  35,C   6,N   0)    137.15 -0.000009    0.04    137.19   
  1621. D(O  27,S  35,C   6,C   7)     16.22  0.000000    0.03     16.25   
  1622. D(O  27,S  35,C   6,N   0)   -122.76  0.000000    0.04   -122.72   
  1623. D(C  31,S  35,C   5,N   0)    -18.15 -0.000008    0.05    -18.10   
  1624. D(O  27,S  35,C   5,N   1)     48.57  0.000000    0.04     48.61   
  1625. D(O  27,S  35,C   5,N   0)     81.68  0.000001    0.04     81.72   
  1626. D(C  31,S  35,C   4,C   3)     23.89 -0.000010    0.08     23.97   
  1627. D(O  27,S  35,C   4,C   8)    -32.63 -0.000002    0.07    -32.55   
  1628. D(O  27,S  35,C   4,C   3)    122.68 -0.000001    0.07    122.75   
  1629. D(C  31,S  35,C   3,C   2)     50.97 -0.000012    0.08     51.05   
  1630. D(O  27,S  35,C   3,C   4)    -56.88 -0.000001    0.07    -56.81   
  1631. D(O  27,S  35,C   3,C   2)    150.40 -0.000003    0.07    150.48   
  1632. D(C  31,S  35,C   2,N   0)    -55.15 -0.000008    0.05    -55.10   
  1633. D(C  31,S  35,C   8,C   4)     48.95 -0.000010    0.08     49.03   
  1634. D(O  27,S  35,C   2,C   3)    -29.38 -0.000003    0.07    -29.31   
  1635. D(O  27,S  35,C   2,N   0)     44.83  0.000001    0.04     44.87   
  1636. D(C  31,S  35,N   1,C   5)    128.98 -0.000009    0.04    129.02   
  1637. D(C  31,S  35,O  27,C   8)    106.27  0.000003   -0.00    106.27   
  1638. D(O  27,S  35,N   1,C   7)     63.66  0.000000    0.04     63.70   
  1639. D(O  27,S  35,N   1,C   5)   -131.17  0.000000    0.04   -131.13   
  1640. D(C  31,S  35,N   0,C   2)    125.06 -0.000008    0.05    125.11   
  1641. D(O  27,S  35,C  31,F  29)    -63.14 -0.000001    0.00    -63.14   
  1642. D(O  27,S  35,N   0,C   5)    -98.13  0.000001    0.04    -98.09   
  1643. D(O  27,S  35,N   0,C   2)   -134.97  0.000001    0.04   -134.93   
  1644. D(C   8,N  36,S  35,O  27)     89.79  0.000003   -0.01     89.78   
  1645. D(S  30,N  36,S  35,C  31)     84.85  0.000001   -0.00     84.85   
  1646. D(S  30,N  36,S  35,O  27)    -28.87 -0.000002   -0.00    -28.87   
  1647. D(C   8,N  36,S  30,O  25)    -64.03  0.000006   -0.01    -64.04   
  1648. D(S  35,N  36,S  30,C  33)   -127.15  0.000000   -0.01   -127.17   
  1649. D(S  35,N  36,C   9,N   1)     41.01  0.000003    0.03     41.05   
  1650. D(S  30,N  36,C   9,H  22)   -102.19 -0.000008    0.06   -102.13   
  1651. D(S  30,N  36,C   9,N   1)    129.04 -0.000007    0.05    129.09   
  1652. D(S  30,N  36,C   8,H  19)     63.42 -0.000008    0.09     63.51   
  1653. D(S  30,N  36,C   8,C   4)    168.31 -0.000008    0.09    168.40   
  1654. D(S  35,N  36,C   7,N   1)    172.41  0.000001    0.04    172.46   
  1655. D(S  30,N  36,C   7,N   1)   -101.29 -0.000009    0.06   -101.24   
  1656. D(S  35,N  36,C   6,N   0)    166.04  0.000001    0.04    166.09   
  1657. D(S  30,N  36,C   6,C   7)     28.23 -0.000008    0.05     28.28   
  1658. D(S  30,N  36,C   6,N   0)   -107.96 -0.000009    0.06   -107.90   
  1659. D(S  35,N  36,C   5,N   0)     11.06  0.000002    0.04     11.10   
  1660. D(S  30,N  36,C   5,N   1)     65.98 -0.000008    0.06     66.04   
  1661. D(S  30,N  36,C   5,N   0)     98.99 -0.000008    0.06     99.05   
  1662. D(S  35,N  36,C   4,C   3)     49.88 -0.000001    0.07     49.96   
  1663. D(S  30,N  36,C   4,C   8)    -11.98 -0.000009    0.09    -11.89   
  1664. D(S  30,N  36,C   4,C   3)    142.18 -0.000008    0.09    142.27   
  1665. D(S  30,N  36,C   7,C   6)   -151.96 -0.000008    0.05   -151.91   
  1666. D(S  35,N  36,C   3,C   2)     79.91 -0.000003    0.07     79.98   
  1667. D(S  30,N  36,C   3,C   4)    -38.85 -0.000009    0.09    -38.76   
  1668. D(S  30,N  36,C   3,C   2)    169.52 -0.000011    0.09    169.61   
  1669. D(S  35,N  36,C   8,C   4)     73.92 -0.000002    0.07     73.99   
  1670. D(S  35,N  36,C   2,N   0)    -25.35  0.000003    0.04    -25.31   
  1671. D(S  30,N  36,C   2,C   3)    -10.76 -0.000012    0.09    -10.67   
  1672. D(S  30,N  36,C   2,N   0)     62.06 -0.000007    0.06     62.12   
  1673. D(S  35,N  36,S  30,O  25)    -16.03 -0.000000   -0.00    -16.04   
  1674. D(S  35,N  36,N   1,C   5)    157.47  0.000001    0.04    157.51   
  1675. D(S  30,N  36,N   1,C   7)     80.11 -0.000008    0.06     80.17   
  1676. D(S  30,N  36,N   1,C   5)   -115.09 -0.000008    0.06   -115.04   
  1677. D(S  35,N  36,N   0,C   2)    154.12  0.000003    0.04    154.16   
  1678. D(S  30,N  36,N   0,C   5)    -81.70 -0.000008    0.06    -81.64   
  1679. D(S  30,N  36,N   0,C   2)   -118.81 -0.000007    0.06   -118.74   
  1680. D(C   8,F  37,C  31,F  29)    -45.36  0.000007    0.00    -45.36   
  1681. D(C   8,F  37,C  31,F  26)   -161.65 -0.000003    0.01   -161.64   
  1682. D(C  31,F  37,C   9,H  22)   -113.15 -0.000002    0.04   -113.10   
  1683. D(C  31,F  37,C   8,H  19)     48.02 -0.000004    0.08     48.10   
  1684. D(C  31,F  37,C   8,C   4)    152.58 -0.000003    0.07    152.66   
  1685. D(C  31,F  37,C   7,C   6)   -147.95 -0.000002    0.03   -147.92   
  1686. D(C  31,F  37,C   7,N   1)   -110.78 -0.000001    0.04   -110.74   
  1687. D(C  31,F  37,C   6,C   7)     31.96 -0.000002    0.03     32.00   
  1688. D(C  31,F  37,C   6,N   0)   -116.13 -0.000002    0.04   -116.09   
  1689. D(C  31,F  37,C   5,N   1)     56.98 -0.000002    0.04     57.02   
  1690. D(C  31,F  37,C   5,N   0)     83.48 -0.000002    0.05     83.53   
  1691. D(C  31,F  37,C   4,C   8)    -27.11 -0.000003    0.07    -27.04   
  1692. D(C  31,F  37,C   4,C   3)    128.66 -0.000004    0.08    128.74   
  1693. D(C  31,F  37,C   3,C   4)    -50.82 -0.000004    0.08    -50.74   
  1694. D(C  31,F  37,C   3,C   2)    155.93 -0.000005    0.07    156.00   
  1695. D(C  31,F  37,C   2,C   3)    -23.83 -0.000005    0.07    -23.75   
  1696. D(C  31,F  37,C   2,N   0)     55.14 -0.000002    0.04     55.18   
  1697. D(C  31,F  37,C   9,N   1)    117.94 -0.000003    0.05    117.98   
  1698. D(C  31,F  37,N   1,C   7)     68.71 -0.000002    0.04     68.75   
  1699. D(C  31,F  37,N   1,C   5)   -122.64 -0.000002    0.04   -122.60   
  1700. D(C  31,F  37,N   0,C   5)    -96.29 -0.000002    0.05    -96.24   
  1701. D(C   3,F  37,C  31,F  26)   -159.68 -0.000002    0.00   -159.67   
  1702. D(C  31,F  37,N   0,C   2)   -124.56 -0.000002    0.04   -124.52   
  1703. D(C   3,F  38,C  33,F  28)    155.88 -0.000000   -0.00    155.88   
  1704. D(C   8,F  38,C  33,S  30)     32.92 -0.000000   -0.00     32.92   
  1705. D(C   8,F  38,C  33,F  28)    153.31 -0.000001   -0.00    153.31   
  1706. D(C  33,F  38,C   9,N   1)     77.11  0.000002    0.01     77.12   
  1707. D(C  33,F  38,C   8,H  19)     14.32 -0.000003    0.05     14.37   
  1708. D(C  33,F  38,C   8,C   4)    120.08 -0.000003    0.05    120.13   
  1709. D(C  33,F  38,C   7,N   1)   -146.27 -0.000001    0.02   -146.26   
  1710. D(C  33,F  38,C   6,C   7)    -16.58  0.000001    0.01    -16.58   
  1711. D(C  33,F  38,C   6,N   0)   -152.56 -0.000001    0.02   -152.54   
  1712. D(C  33,F  38,C   5,N   1)     19.53 -0.000001    0.02     19.55   
  1713. D(C  33,F  38,C   5,N   0)     49.54 -0.000000    0.02     49.56   
  1714. D(C  33,F  38,C   4,C   8)    -59.84 -0.000003    0.05    -59.78   
  1715. D(C  33,F  38,C   4,C   3)     92.91 -0.000002    0.05     92.96   
  1716. D(C  33,F  38,C   3,C   4)    -86.99 -0.000002    0.05    -86.94   
  1717. D(C  33,F  38,C   7,C   6)    163.41  0.000001    0.01    163.42   
  1718. D(C  33,F  38,C   3,C   2)    122.68 -0.000005    0.05    122.73   
  1719. D(C  33,F  38,C   2,C   3)    -57.25 -0.000005    0.05    -57.20   
  1720. D(C  33,F  38,C   2,N   0)     15.89  0.000000    0.02     15.91   
  1721. D(C  33,F  38,C   9,H  22)   -148.61 -0.000001    0.02   -148.60   
  1722. D(C  33,F  38,N   1,C   7)     33.67 -0.000001    0.02     33.69   
  1723. D(C  33,F  38,N   1,C   5)   -160.44 -0.000001    0.02   -160.43   
  1724. D(C  33,F  38,N   0,C   5)   -130.43 -0.000000    0.02   -130.41   
  1725. D(C  33,F  38,N   0,C   2)   -164.09  0.000000    0.02   -164.07   
  1726. D(C   8,O  39,S  35,C  31)   -105.29 -0.000008    0.00   -105.29   
  1727. D(C   8,O  39,S  35,O  27)      9.02 -0.000001   -0.00      9.01   
  1728. D(S  35,O  39,C   9,H  22)   -131.76 -0.000002    0.04   -131.72   
  1729. D(C   6,O  39,C   8,C   4)     36.54 -0.000002    0.01     36.55   
  1730. D(S  35,O  39,C   8,H  19)     34.17 -0.000002    0.08     34.25   
  1731. D(S  35,O  39,C   8,C   4)    139.29 -0.000002    0.08    139.37   
  1732. D(S  35,O  39,C   7,C   6)   -177.76 -0.000002    0.04   -177.73   
  1733. D(S  35,O  39,C   7,N   1)   -130.61 -0.000002    0.04   -130.57   
  1734. D(C   8,O  39,C   6,N   0)    -55.54 -0.000000   -0.02    -55.56   
  1735. D(S  35,O  39,C   6,C   7)      2.25 -0.000002    0.04      2.29   
  1736. D(S  35,O  39,C   6,N   0)   -136.81 -0.000002    0.04   -136.77   
  1737. D(S  35,O  39,C   5,N   1)     37.04 -0.000002    0.04     37.08   
  1738. D(S  35,O  39,C   5,N   0)     67.21 -0.000000    0.04     67.25   
  1739. D(S  35,O  39,C   4,C   8)    -41.48 -0.000002    0.08    -41.40   
  1740. D(S  35,O  39,C   4,C   3)    112.64 -0.000001    0.08    112.72   
  1741. D(S  35,O  39,C   3,C   4)    -68.59 -0.000002    0.08    -68.51   
  1742. D(S  35,O  39,C   3,C   2)    139.81 -0.000005    0.07    139.89   
  1743. D(S  35,O  39,C   2,C   3)    -41.00 -0.000005    0.08    -40.92   
  1744. D(S  35,O  39,C   2,N   0)     33.66 -0.000001    0.05     33.71   
  1745. D(S  35,O  39,C   9,N   1)     97.04  0.000002    0.04     97.08   
  1746. D(S  35,O  39,N   1,C   7)     50.22 -0.000001    0.04     50.27   
  1747. D(S  35,O  39,N   1,C   5)   -143.51 -0.000002    0.04   -143.47   
  1748. D(S  35,O  39,N   0,C   5)   -113.29 -0.000000    0.04   -113.24   
  1749. D(C   3,O  39,S  35,O  27)     12.14  0.000001   -0.01     12.14   
  1750. D(S  35,O  39,N   0,C   2)   -146.76 -0.000001    0.05   -146.71   
    ----------------------------------------------------------------------------

Geometry step timings:
Preparation and reading OPT file:      0.002 s ( 0.099 %)
Internal coordinates            :      0.000 s ( 0.006 %)
B/P matrices and projection     :      0.493 s (24.532 %)
Hessian update/contruction      :      0.269 s (13.383 %)
Making the step                 :      1.227 s (60.991 %)
Converting the step to Cartesian:      0.011 s ( 0.526 %)
Storing new data                :      0.000 s ( 0.002 %)
Checking convergence            :      0.002 s ( 0.092 %)
Final printing                  :      0.007 s ( 0.368 %)
Total time                      :      2.011 s

Time for energy+gradient        :     37.157 s
Time for complete geometry iter :     40.225 s

         *************************************************************
         *                GEOMETRY OPTIMIZATION CYCLE   2            *
         *************************************************************
---------------------------------
CARTESIAN COORDINATES (ANGSTROEM)
---------------------------------
  N    -33.960919  -22.377873   -8.057219
  N    -35.736190  -23.591721   -7.775925
  C    -32.685729  -21.871580   -8.600742
  C    -31.486767  -22.314196   -7.768346
  C    -31.291919  -23.827872   -7.706096
  C    -34.683703  -23.373394   -8.565442
  C    -34.567703  -21.947091   -6.898722
  C    -35.680892  -22.704612   -6.722977
  C    -30.040961  -24.222217   -6.924325
  C    -36.779769  -24.595561   -7.993963
  H    -32.612889  -22.241568   -9.623390
  H    -32.764974  -20.785589   -8.643038
  H    -31.569566  -21.901848   -6.758030
  H    -30.606619  -21.843783   -8.215063
  H    -32.166821  -24.296553   -7.242317
  H    -31.228315  -24.225524   -8.725121
  H    -34.455409  -23.914101   -9.467297
  H    -34.166094  -21.144685   -6.306290
  H    -36.430921  -22.683772   -5.952418
  H    -30.089568  -23.862549   -5.894262
  H    -29.142787  -23.803235   -7.382063
  H    -29.924062  -25.305706   -6.893297
  H    -36.548244  -25.156343   -8.895562
  H    -36.813352  -25.274269   -7.143916
  H    -37.741993  -24.100748   -8.111746
  O     12.686898    5.411020    2.123059
  F     10.223142    7.236046    1.919399
  O      9.898678    4.306519    1.370633
  F     14.806206    7.123679    0.882622
  F      8.243474    6.819203    1.137534
  S     12.889471    5.318150    0.700820
  C      9.553736    6.848416    0.829330
  F     12.839925    7.984823    0.568258
  C     13.638940    6.962561    0.232535
  O     13.842808    4.364621    0.196012
  S     10.100306    5.162783    0.232001
  N     11.598013    5.368948   -0.211147
  F      9.728226    7.781259   -0.120143
  F     13.888954    7.044943   -1.081230
  O      9.295960    4.966130   -0.944703

----------------------------
CARTESIAN COORDINATES (A.U.)
----------------------------
  NO LB      ZA    FRAG     MASS         X           Y           Z
   0 N     7.0000    0    14.007  -64.176835  -42.288051  -15.225938
   1 N     7.0000    0    14.007  -67.531612  -44.581893  -14.694369
   2 C     6.0000    0    12.011  -61.767076  -41.331297  -16.253047
   3 C     6.0000    0    12.011  -59.501366  -42.167719  -14.680046
   4 C     6.0000    0    12.011  -59.133158  -45.028153  -14.562411
   5 C     6.0000    0    12.011  -65.542701  -44.169314  -16.186340
   6 C     6.0000    0    12.011  -65.323491  -41.473992  -13.036694
   7 C     6.0000    0    12.011  -67.427114  -42.905499  -12.704585
   8 C     6.0000    0    12.011  -56.769189  -45.773356  -13.085077
   9 C     6.0000    0    12.011  -69.503690  -46.478874  -15.106400
  10 H     1.0000    0     1.008  -61.629429  -42.030472  -18.185571
  11 H     1.0000    0     1.008  -61.916827  -39.279072  -16.332975
  12 H     1.0000    0     1.008  -59.657834  -41.388494  -12.770826
  13 H     1.0000    0     1.008  -57.838127  -41.278768  -15.524220
  14 H     1.0000    0     1.008  -60.786483  -45.913832  -13.685995
  15 H     1.0000    0     1.008  -59.012964  -45.779605  -16.488090
  16 H     1.0000    0     1.008  -65.111287  -45.191102  -17.890598
  17 H     1.0000    0     1.008  -64.564560  -39.957663  -11.917161
  18 H     1.0000    0     1.008  -68.844463  -42.866118  -11.248439
  19 H     1.0000    0     1.008  -56.861044  -45.093683  -11.138541
  20 H     1.0000    0     1.008  -55.071886  -44.981596  -13.950076
  21 H     1.0000    0     1.008  -56.548282  -47.820854  -13.026443
  22 H     1.0000    0     1.008  -69.066172  -47.538599  -16.810175
  23 H     1.0000    0     1.008  -69.567153  -47.761446  -13.500044
  24 H     1.0000    0     1.008  -71.322031  -45.543813  -15.328979
  25 O     8.0000    0    15.999   23.974763   10.225346    4.012000
  26 F     9.0000    0    18.998   19.318939   13.674144    3.627138
  27 O     8.0000    0    15.999   18.705790    8.138141    2.590121
  28 F     9.0000    0    18.998   27.979675   13.461802    1.667914
  29 F     9.0000    0    18.998   15.577908   12.886426    2.149628
  30 S    16.0000    0    32.060   24.357570   10.049847    1.324358
  31 C     6.0000    0    12.011   18.053944   12.941631    1.567206
  32 F     9.0000    0    18.998   24.263941   15.089129    1.073851
  33 C     6.0000    0    12.011   25.773861   13.157333    0.439428
  34 O     8.0000    0    15.999   26.159116    8.247939    0.370408
  35 S    16.0000    0    32.060   19.086813    9.756246    0.438418
  36 N     7.0000    0    14.007   21.917069   10.145841   -0.399010
  37 F     9.0000    0    18.998   18.383683   14.704449   -0.227037
  38 F     9.0000    0    18.998   26.246318   13.313014   -2.043229
  39 O     8.0000    0    15.999   17.566819    9.384625   -1.785230

--------------------------------
INTERNAL COORDINATES (ANGSTROEM)
--------------------------------
 N      0   0   0     0.000000000000     0.00000000     0.00000000
 N      1   0   0     2.168903751988     0.00000000     0.00000000
 C      1   2   0     1.475756767027   161.26953427     0.00000000
 C      3   1   2     1.525221938635   112.25276987   260.00307543
 C      4   3   1     1.527435058736   114.21130463    61.70892864
 C      1   2   3     1.331078964941    35.55961040     7.24361109
 C      1   2   6     1.376908677808    72.85853575   180.27308172
 C      7   1   2     1.357908153982   107.19517132   359.87923018
 C      5   4   3     1.526948169765   112.41448837   177.02201948
 C      2   1   3     1.464339756479   161.38236648   351.27572556
 H      3   1   2     1.089955865715   106.66923284    21.98757202
 H      3   1   2     1.089699493128   107.05935906   137.25318557
 H      4   3   1     1.094360002459   109.57386773   297.52477666
 H      4   3   1     1.093391903274   106.55603614   183.23958580
 H      5   4   3     1.095539529476   109.83627230   298.68137962
 H      5   4   3     1.095712028363   109.21718310    55.19300799
 H      6   1   2     1.076022335100   125.49492170   179.99692758
 H      7   1   2     1.075231009028   122.17175567   180.23091858
 H      8   7   1     1.075518006432   130.81387680   180.62845100
 H      9   5   4     1.092131810786   111.18449330    59.96902374
 H      9   5   4     1.091689684562   111.11514439   299.89588009
 H      9   5   4     1.090218751867   111.04361258   179.95883012
 H     10   2   1     1.086720267863   108.99306436     2.40423010
 H     10   2   1     1.088279228347   109.46413353   122.06875062
 H     10   2   1     1.088388227361   109.54246674   242.66414890
 O     21   9   5    51.899350522673   143.35541304   125.03743706
 F     26  21   9     3.072830739112    71.09259303   284.76821640
 O     27  26  21     2.998090808615    61.22070238   355.63355234
 F     26  21   9     2.993885473520   144.75204047   201.52938736
 F     27  26  21     2.168906689383   129.90948555   345.31444765
 S     26  21   9     1.439591333005    84.03979539   187.48363783
 C     27  26  21     1.336642027141   106.46064088   313.49165776
 F     29  26  21     2.169483082018    69.23891597    63.10567472
 C     33  29  26     1.340206863198    36.21394363   290.83804913
 O     31  26  21     1.439756868312   118.83535956   260.30381464
 S     28  27  26     1.438862889436    63.14024809   264.42086336
 N     36  28  27     1.575439708174   115.70162599    91.18866157
 F     32  27  26     1.342438671978   108.07054444   252.93970046
 F     34  33  29     1.339878154489   108.05713670   243.86173573
 O     36  28  27     1.438846254869   119.17620915   223.60887546

---------------------------
INTERNAL COORDINATES (A.U.)
---------------------------
 N      0   0   0     0.000000000000     0.00000000     0.00000000
 N      1   0   0     4.098634102091     0.00000000     0.00000000
 C      1   2   0     2.788776129963   161.26953427     0.00000000
 C      3   1   2     2.882251757469   112.25276987   260.00307543
 C      4   3   1     2.886433948361   114.21130463    61.70892864
 C      1   2   3     2.515374706362    35.55961040     7.24361109
 C      1   2   6     2.601980312476    72.85853575   180.27308172
 C      7   1   2     2.566074526044   107.19517132   359.87923018
 C      5   4   3     2.885513861547   112.41448837   177.02201948
 C      2   1   3     2.767201106759   161.38236648   351.27572556
 H      3   1   2     2.059718084263   106.66923284    21.98757202
 H      3   1   2     2.059233610284   107.05935906   137.25318557
 H      4   3   1     2.068040696565   109.57386773   297.52477666
 H      4   3   1     2.066211254236   106.55603614   183.23958580
 H      5   4   3     2.070269679594   109.83627230   298.68137962
 H      5   4   3     2.070595655250   109.21718310    55.19300799
 H      6   1   2     2.033387527321   125.49492170   179.99692758
 H      7   1   2     2.031892137763   122.17175567   180.23091858
 H      8   7   1     2.032434484257   130.81387680   180.62845100
 H      9   5   4     2.063830024529   111.18449330    59.96902374
 H      9   5   4     2.062994527050   111.11514439   299.89588009
 H      9   5   4     2.060214867093   111.04361258   179.95883012
 H     10   2   1     2.053603690443   108.99306436     2.40423010
 H     10   2   1     2.056549698811   109.46413353   122.06875062
 H     10   2   1     2.056755677096   109.54246674   242.66414890
 O     21   9   5    98.075559016234   143.35541304   125.03743706
 F     26  21   9     5.806808552817    71.09259303   284.76821640
 O     27  26  21     5.665570552908    61.22070238   355.63355234
 F     26  21   9     5.657623621278   144.75204047   201.52938736
 F     27  26  21     4.098639652963   129.90948555   345.31444765
 S     26  21   9     2.720433364145    84.03979539   187.48363783
 C     27  26  21     2.525887370385   106.46064088   313.49165776
 F     29  26  21     4.099728877189    69.23891597    63.10567472
 C     33  29  26     2.532623934247    36.21394363   290.83804913
 O     31  26  21     2.720746180542   118.83535956   260.30381464
 S     28  27  26     2.719056805297    63.14024809   264.42086336
 N     36  28  27     2.977149588954   115.70162599    91.18866157
 F     32  27  26     2.536841441622   108.07054444   252.93970046
 F     34  33  29     2.532002764807   108.05713670   243.86173573
 O     36  28  27     2.719025370520   119.17620915   223.60887546



           ************************************************************
           *        Program running with 30 parallel MPI-processes    *
           *              working on a common directory               *
           ************************************************************
------------------------------------------------------------------------------
                   ___                                                        
                  /   \      - P O W E R E D   B Y -                         
                 /     \                                                     
                 |  |  |   _    _      __       _____    __    __             
                 |  |  |  | |  | |    /  \     |  _  \  |  |  /  |          
                  \  \/   | |  | |   /    \    | | | |  |  | /  /          
                 / \  \   | |__| |  /  /\  \   | |_| |  |  |/  /          
                |  |  |   |  __  | /  /__\  \  |    /   |      \           
                |  |  |   | |  | | |   __   |  |    \   |  |\   \          
                \     /   | |  | | |  |  |  |  | |\  \  |  | \   \       
                 \___/    |_|  |_| |__|  |__|  |_| \__\ |__|  \__/        
                                                                              
                      - O R C A' S   B I G   F R I E N D -                    
                                      &                                       
                       - I N T E G R A L  F E E D E R -                       
                                                                              
 v1 FN, 2020, v2 2021, v3 2022-2024                                           
------------------------------------------------------------------------------


----------------------
SHARK INTEGRAL PACKAGE
----------------------

Number of atoms                             ...     40
Number of basis functions                   ...    877
Number of shells                            ...    339
Maximum angular momentum                    ...      3
Integral batch strategy                     ... SHARK/LIBINT Hybrid
RI-J (if used) integral strategy            ... SPLIT-RIJ (Revised 2003 algorithm where possible)
Printlevel                                  ...      1
Contraction scheme used                     ... SEGMENTED contraction
Prescreening option                         ... SCHWARTZ
   Thresh                                   ... 2.500e-11
   Tcut                                     ... 2.500e-12
   Tpresel                                  ... 2.500e-12 
Coulomb Range Separation                    ... NOT USED
Exchange Range Separation                   ... NOT USED
Multipole approximations                    ... NOT USED
Finite Nucleus Model                        ... NOT USED
CABS basis                                  ... NOT available
Auxiliary Coulomb fitting basis             ... AVAILABLE
   # of basis functions in Aux-J            ...   1394
   # of shells in Aux-J                     ...    454
   Maximum angular momentum in Aux-J        ...      4
Auxiliary J/K fitting basis                 ... NOT available
Auxiliary Correlation fitting basis         ... NOT available
Auxiliary 'external' fitting basis          ... NOT available

Checking pre-screening integrals            ... done (  0.0 sec) Dimension = 339
Check shell pair data                       ... done (  0.0 sec)
Shell pair information
Shell pair cut-off parameter TPreSel        ...   2.5e-12
Total number of shell pairs                 ...     57630
Shell pairs after pre-screening             ...     23188
Total number of primitive shell pairs       ...    183333
Primitive shell pairs kept                  ...     51022
          la=0 lb=0:   5703 shell pairs
          la=1 lb=0:   6571 shell pairs
          la=1 lb=1:   1991 shell pairs
          la=2 lb=0:   3211 shell pairs
          la=2 lb=1:   2009 shell pairs
          la=2 lb=2:    541 shell pairs
          la=3 lb=0:   1541 shell pairs
          la=3 lb=1:    981 shell pairs
          la=3 lb=2:    505 shell pairs
          la=3 lb=3:    135 shell pairs

Calculating one electron integrals          ... done (  0.1 sec)
Calculating RI/J V-Matrix + Cholesky decomp.... done (  0.1 sec)
Calculating Nuclear repulsion               ... done (  0.0 sec) ENN=   2254.849901386463 Eh

Diagonalization of the overlap matrix:
Smallest eigenvalue                        ... 8.164e-05
Time for diagonalization                   ...    0.096 sec
Threshold for overlap eigenvalues          ... 1.000e-07
Number of eigenvalues below threshold      ... 0
Time for construction of square roots      ...    0.059 sec
Total time needed                          ...    0.160 sec

-------------------
DFT GRID GENERATION
-------------------

General Integration Accuracy     IntAcc      ... 4.388
Radial Grid Type                 RadialGrid  ... OptM3 with GC (2021)
Angular Grid (max. ang.)         AngularGrid ... 4 (Lebedev-302)
Angular grid pruning method      GridPruning ... 4 (adaptive)
Weight generation scheme         WeightScheme... mBecke (2022)
Basis function cutoff            BFCut       ... 1.0000e-11
Integration weight cutoff        WCut        ... 1.0000e-14
Partially contracted basis set               ... off
Rotationally invariant grid construction     ... off
Angular grids for H and He will be reduced by one unit

Total number of grid points                  ...   201662
Total number of batches                      ...     3173
Average number of points per batch           ...       63
Average number of grid points per atom       ...     5042

--------------------
COSX GRID GENERATION
--------------------

GRIDX 1
-------
General Integration Accuracy     IntAcc      ... 3.816
Radial Grid Type                 RadialGrid  ... OptM3 with GC (2021)
Angular Grid (max. ang.)         AngularGrid ... 1 (Lebedev-50)
Angular grid pruning method      GridPruning ... 4 (adaptive)
Weight generation scheme         WeightScheme... mBecke (2022)
Basis function cutoff            BFCut       ... 1.0000e-11
Integration weight cutoff        WCut        ... 1.0000e-14
Partially contracted basis set               ... on
Rotationally invariant grid construction     ... off
Angular grids for H and He will be reduced by one unit

Total number of grid points                  ...    27645
Total number of batches                      ...      238
Average number of points per batch           ...      116
Average number of grid points per atom       ...      691
UseSFitting                                  ... on

GRIDX 2
-------
General Integration Accuracy     IntAcc      ... 4.020
Radial Grid Type                 RadialGrid  ... OptM3 with GC (2021)
Angular Grid (max. ang.)         AngularGrid ... 2 (Lebedev-110)
Angular grid pruning method      GridPruning ... 4 (adaptive)
Weight generation scheme         WeightScheme... mBecke (2022)
Basis function cutoff            BFCut       ... 1.0000e-11
Integration weight cutoff        WCut        ... 1.0000e-14
Partially contracted basis set               ... on
Rotationally invariant grid construction     ... off
Angular grids for H and He will be reduced by one unit

Total number of grid points                  ...    56709
Total number of batches                      ...      466
Average number of points per batch           ...      121
Average number of grid points per atom       ...     1418
UseSFitting                                  ... on

GRIDX 3
-------
General Integration Accuracy     IntAcc      ... 4.338
Radial Grid Type                 RadialGrid  ... OptM3 with GC (2021)
Angular Grid (max. ang.)         AngularGrid ... 3 (Lebedev-194)
Angular grid pruning method      GridPruning ... 4 (adaptive)
Weight generation scheme         WeightScheme... mBecke (2022)
Basis function cutoff            BFCut       ... 1.0000e-11
Integration weight cutoff        WCut        ... 1.0000e-14
Partially contracted basis set               ... on
Rotationally invariant grid construction     ... off
Angular grids for H and He will be reduced by one unit

Total number of grid points                  ...   125752
Total number of batches                      ...     1002
Average number of points per batch           ...      125
Average number of grid points per atom       ...     3144
UseSFitting                                  ... on
Initializing property integral containers    ... done (  0.0 sec)

SHARK setup successfully completed in   2.4 seconds

Maximum memory used throughout the entire STARTUP-calculation: 74.6 MB


           ************************************************************
           *        Program running with 30 parallel MPI-processes    *
           *              working on a common directory               *
           ************************************************************
Occupation numbers will be reassigned to an Aufbau configuration
             **** ENERGY FILE WAS UPDATED (complex.en.tmp) ****
Finished Guess after   1.4 sec
Maximum memory used throughout the entire GUESS-calculation: 66.9 MB


           ************************************************************
           *        Program running with 30 parallel MPI-processes    *
           *              working on a common directory               *
           ************************************************************
----------------------------------------D-I-I-S--------------------------------------------
Iteration    Energy (Eh)           Delta-E    RMSDP     MaxDP     DIISErr   Damp  Time(sec)
-------------------------------------------------------------------------------------------
               ***  Starting incremental Fock matrix formation  ***
                              *** Initializing SOSCF ***
---------------------------------------S-O-S-C-F--------------------------------------
Iteration    Energy (Eh)           Delta-E    RMSDP     MaxDP     MaxGrad    Time(sec)
--------------------------------------------------------------------------------------
    1    -2250.3914699054153061     0.00e+00  2.87e-06  1.90e-04  2.34e-05     2.3
               *** Restarting incremental Fock matrix formation ***
    2    -2250.3914723778575535    -2.47e-06  9.62e-07  6.59e-05  2.45e-05     2.0
    3    -2250.3914725460194859    -1.68e-07  5.92e-07  3.94e-05  1.17e-05     1.3
    4    -2250.3914725522704430    -6.25e-09  2.76e-07  2.82e-05  1.40e-05     1.2
                 **** Energy Check signals convergence ****

               *****************************************************
               *                     SUCCESS                       *
               *           SCF CONVERGED AFTER   4 CYCLES          *
               *****************************************************

Recomputing exchange energy using gridx3       ... done (    2.265 sec)
Old exchange energy                            :    -44.134570819 Eh
New exchange energy                            :    -44.134563797 Eh
Exchange energy change after final integration :      0.000007022 Eh
Total energy after final integration           :  -2250.391465530 Eh
             **** ENERGY FILE WAS UPDATED (complex.en.tmp) ****

----------------
TOTAL SCF ENERGY
----------------

Total Energy       :      -2250.39146553033970 Eh          -61236.26497 eV

Components:
Nuclear Repulsion  :       2254.84990138646253 Eh           61357.58518 eV
Electronic Energy  :      -4505.24137393873207 Eh         -122593.85034 eV
One Electron Energy:      -7592.16827903369267 Eh         -206593.40188 eV
Two Electron Energy:       3086.92690509496015 Eh           83999.55154 eV

Virial components:
Potential Energy   :      -4494.02355375432489 Eh         -122288.59793 eV
Kinetic Energy     :       2243.63208822398565 Eh           61052.33296 eV
Virial Ratio       :          2.00301269416756

DFT components:
N(Alpha)           :      107.000056447228 electrons
N(Beta)            :      107.000056447228 electrons
N(Total)           :      214.000112894457 electrons
E(X)               :     -175.611627483074 Eh       
E(C)               :       -9.203009213503 Eh       
E(XC)              :     -184.814636696577 Eh       

---------------
SCF CONVERGENCE
---------------

  Last Energy change         ...    6.2510e-09  Tolerance :   1.0000e-08
  Last MAX-Density change    ...    2.8176e-05  Tolerance :   1.0000e-07
  Last RMS-Density change    ...    2.7611e-07  Tolerance :   5.0000e-09
  Last DIIS Error            ...    4.6237e-04  Tolerance :   5.0000e-07
  Last Orbital Gradient      ...    1.4023e-05  Tolerance :   1.0000e-05
  Last Orbital Rotation      ...    1.1086e-05  Tolerance :   1.0000e-05


Total SCF time: 0 days 0 hours 0 min 10 sec 
Finished LeanSCF after  10.3 sec

Maximum memory used throughout the entire LEANSCF-calculation: 97.9 MB


-------------------------------------------------------------------------------
                          DFT DISPERSION CORRECTION                            
                                                                               
                                DFTD4 V3.4.0                                   
-------------------------------------------------------------------------------
-------------------------   ----------------
Dispersion correction           -0.073106096
-------------------------   ----------------


-------------------------   --------------------
FINAL SINGLE POINT ENERGY     -2250.464571626163
-------------------------   --------------------



           ************************************************************
           *        Program running with 30 parallel MPI-processes    *
           *              working on a common directory               *
           ************************************************************
------------------------------------------------------------------------------
                         ORCA SCF GRADIENT CALCULATION
------------------------------------------------------------------------------

Nuc. rep. gradient        (SHARK) ... done (  0.0 sec)
HCore & Overlap gradient  (SHARK) ... done (  0.1 sec)
Split-RIJ-J gradient      (SHARK) ... done (  0.7 sec)
COSX-gradient                     ... done (  6.0 sec)
XC gradient                       ... done (  0.9 sec)
Dispersion correction             ... done (  0.0 sec)

-------------------
DISPERSION GRADIENT
-------------------

   1   N   :   -0.000253347    0.000339565   -0.000124390
   2   N   :   -0.000402987   -0.000133468    0.000021233
   3   C   :    0.000316286    0.000506022   -0.000424845
   4   C   :    0.000591810    0.000290851   -0.000058199
   5   C   :    0.000657426   -0.000399009    0.000048836
   6   C   :   -0.000457175   -0.000044074   -0.000218115
   7   C   :   -0.000424657    0.000380184    0.000340542
   8   C   :   -0.000348232    0.000142651    0.000329700
   9   C   :    0.000411604   -0.000307773    0.000201686
  10   C   :   -0.000537114   -0.000492061   -0.000099173
  11   H   :    0.000056816    0.000103560   -0.000177163
  12   H   :    0.000064978    0.000185463   -0.000096720
  13   H   :    0.000149139    0.000098962    0.000065948
  14   H   :    0.000123511    0.000099005   -0.000047573
  15   H   :    0.000226850   -0.000184072    0.000079848
  16   H   :    0.000179506   -0.000134037   -0.000044675
  17   H   :   -0.000077876   -0.000110654   -0.000228311
  18   H   :   -0.000079071    0.000180929    0.000180893
  19   H   :   -0.000103154    0.000052290    0.000164600
  20   H   :    0.000102229   -0.000081586    0.000077760
  21   H   :    0.000106301   -0.000073455    0.000038752
  22   H   :    0.000073138   -0.000072357    0.000040686
  23   H   :   -0.000115441   -0.000122288   -0.000042919
  24   H   :   -0.000114203   -0.000135904    0.000004618
  25   H   :   -0.000146148   -0.000088619   -0.000032980
  26   O   :    0.000487726   -0.000313832    0.000818071
  27   F   :   -0.000464250    0.000534537    0.000470803
  28   O   :   -0.000501193   -0.000701310    0.000299724
  29   F   :    0.000401529    0.000315339    0.000046717
  30   F   :   -0.000402688    0.000287873    0.000158189
  31   S   :    0.001385839   -0.000351609    0.000123480
  32   C   :   -0.000720300    0.000294563    0.000060248
  33   F   :    0.000444798    0.000670909   -0.000023591
  34   C   :    0.000627992    0.000276275   -0.000076197
  35   O   :    0.000526035   -0.000592263   -0.000088336
  36   S   :   -0.001307727   -0.000403085   -0.000214521
  37   N   :    0.000033451   -0.000556434   -0.000556833
  38   F   :   -0.000427241    0.000567094   -0.000124144
  39   F   :    0.000345228    0.000330276   -0.000351476
  40   O   :   -0.000429392   -0.000358460   -0.000542173

Difference to translation invariance:
           :    0.0000000000    0.0000000000   -0.0000000000

Difference to rotation invariance:
           :    0.0000000000   -0.0000000000   -0.0000000000

Norm of the Dispersion gradient    ...    0.0039886267
RMS gradient                       ...    0.0003641101
MAX gradient                       ...    0.0013858393

------------------
CARTESIAN GRADIENT
------------------

   1   N   :    0.000053048   -0.000018629   -0.000011547
   2   N   :    0.000020838   -0.000002135   -0.000017093
   3   C   :   -0.000038158    0.000002137    0.000016584
   4   C   :   -0.000023763    0.000003530   -0.000009562
   5   C   :    0.000027115    0.000008700   -0.000000982
   6   C   :   -0.000043058    0.000003619    0.000012811
   7   C   :   -0.000028551    0.000001995    0.000022518
   8   C   :    0.000011775    0.000000597   -0.000005019
   9   C   :    0.000010696   -0.000001955   -0.000010983
  10   C   :   -0.000033356   -0.000033278   -0.000027394
  11   H   :   -0.000006856   -0.000001941   -0.000000756
  12   H   :    0.000011890   -0.000002653    0.000005982
  13   H   :   -0.000010369   -0.000005994    0.000003220
  14   H   :   -0.000005509    0.000003120   -0.000006225
  15   H   :   -0.000000357   -0.000001617    0.000002896
  16   H   :    0.000006414   -0.000001951    0.000003002
  17   H   :   -0.000011668    0.000005471    0.000001413
  18   H   :   -0.000010644    0.000002154    0.000006206
  19   H   :   -0.000005587   -0.000002115    0.000000465
  20   H   :   -0.000001628   -0.000010485    0.000008114
  21   H   :   -0.000001058   -0.000004422   -0.000000846
  22   H   :   -0.000001926   -0.000003046    0.000000667
  23   H   :   -0.000002478    0.000005751   -0.000004537
  24   H   :    0.000003211    0.000000517   -0.000000289
  25   H   :    0.000000962    0.000003742   -0.000003168
  26   O   :    0.000042397    0.000023480   -0.000036917
  27   F   :    0.000025864    0.000030305    0.000008140
  28   O   :    0.000053934    0.000055482   -0.000010042
  29   F   :    0.000044071    0.000048326    0.000024700
  30   F   :    0.000052312    0.000001626   -0.000029828
  31   S   :   -0.000228217   -0.000025096    0.000041847
  32   C   :   -0.000080469   -0.000014216   -0.000030602
  33   F   :    0.000032206    0.000005521   -0.000002366
  34   C   :   -0.000098555   -0.000058204   -0.000037420
  35   O   :    0.000109763    0.000015671    0.000023457
  36   S   :   -0.000146256   -0.000067802    0.000020277
  37   N   :    0.000151908    0.000035083    0.000000431
  38   F   :    0.000022454   -0.000017394    0.000002243
  39   F   :    0.000026524    0.000004961    0.000029782
  40   O   :    0.000071082    0.000011143    0.000010821

Difference to translation invariance:
           :    0.0000000002    0.0000000002    0.0000000000

Difference to rotation invariance:
           :   -0.0000893925   -0.0007918102    0.0002849651

Norm of the Cartesian gradient     ...    0.0004290314
RMS gradient                       ...    0.0000391650
MAX gradient                       ...    0.0002282173

-------
TIMINGS
-------

Total SCF gradient time     ....        7.850 sec

Densities                   ....       0.023 sec  (  0.3%)
One electron gradient       ....       0.132 sec  (  1.7%)
RI-J Coulomb gradient       ....       0.733 sec  (  9.3%)
COSX gradient               ....       5.999 sec  ( 76.4%)
XC gradient                 ....       0.932 sec  ( 11.9%)

Maximum memory used throughout the entire SCFGRAD-calculation: 116.9 MB
------------------------------------------------------------------------------
                         ORCA GEOMETRY RELAXATION STEP
------------------------------------------------------------------------------

Reading the OPT-File                    .... done
Getting information on internals        .... done
Copying old internal coords+grads       .... done
Making the new internal coordinates     .... (2022 redundants) done
Validating the new internal coordinates .... (2022 redundants) done
Calculating the B-matrix                .... done
Calculating the G,G- and P matrices     .... done
Transforming gradient to internals      .... done
Projecting the internal gradient        .... done
Number of atoms                         ....  40
Number of internal coordinates          .... 1750
Current Energy                          .... -2250.464571626 Eh
Current gradient norm                   ....     0.000429031 Eh/bohr
Maximum allowed component of the step   ....  0.300
Current trust radius                    ....  0.300
Updating the Hessian (BFGS)             .... done
Forming the augmented Hessian           .... done
Diagonalizing the augmented Hessian     .... done
Last element of RFO vector              ....  0.835734844
Lowest eigenvalues of augmented Hessian:
 -0.000007523  0.000003146  0.000345871  0.001365835  0.001466393
Length of the computed step             ....  0.657066298
Warning: the length of the step is outside the trust region - taking restricted step instead
The input lambda is                     ....    -0.001000
The lambda equations have not converged!
Evaluating lambda by bisection method.
   iter   5 best     0.000465 lambda    -0.156250
   iter  10 best     0.007792 lambda    -0.004883
   iter  15 best     0.083418 lambda    -0.000153
   iter  20 best     0.229846 lambda    -0.000024
   iter  25 best     0.275176 lambda    -0.000019
   iter  30 best     0.276970 lambda    -0.000019
   iter  35 best     0.277026 lambda    -0.000019
   iter  40 best     0.277028 lambda    -0.000019
   iter  45 best     0.277028 lambda    -0.000019
The output lambda is                    ....    -0.000019
The ideal lambda was not found, but a reduced step is possible.
The final length of the internal step   ....  0.277028139
Converting the step to Cartesian space:
 Initial RMS(Int)=    0.0066222392
Transforming coordinates:
 Iter   0:  RMS(Cart)=    0.0082714562 RMS(Int)=    0.0066214764
done
Storing new coordinates                 .... done
The predicted energy change is          ....    -0.000003469
Previously predicted energy change      ....    -0.000001707
Actually observed energy change         ....    -0.000002089
Ratio of predicted to observed change   ....     1.223691338
New trust radius                        ....     0.450000000

                                .--------------------.
          ----------------------|Geometry convergence|-------------------------
          Item                value                   Tolerance       Converged
          ---------------------------------------------------------------------
          Energy change      -0.0000020886            0.0000010000      NO
          RMS gradient        0.0000030363            0.0000300000      YES
          MAX gradient        0.0000449228            0.0001000000      YES
          RMS step            0.0066222392            0.0006000000      NO
          MAX step            0.0173536893            0.0010000000      NO
          ........................................................
          Max(Bonds)      0.0092      Max(Angles)    0.07
          Max(Dihed)        0.53      Max(Improp)    0.00
          ---------------------------------------------------------------------

The optimization has not yet converged - more geometry cycles are needed


    ---------------------------------------------------------------------------
                         Redundant Internal Coordinates
                            (Angstroem and degrees)

        Definition                    Value    dE/dq     Step     New-Value
    ----------------------------------------------------------------------------
     1. B(C   2,N   0)                1.4758 -0.000001 -0.0002    1.4755   
     2. B(C   3,C   2)                1.5252 -0.000004 -0.0003    1.5249   
     3. B(C   4,C   3)                1.5274  0.000019 -0.0002    1.5273   
     4. B(C   5,N   0)                1.3311  0.000000 -0.0002    1.3309   
     5. B(C   5,N   1)                1.3337 -0.000006  0.0000    1.3337   
     6. B(C   6,N   0)                1.3769  0.000009 -0.0002    1.3768   
     7. B(C   7,N   1)                1.3779  0.000008 -0.0002    1.3777   
     8. B(C   7,C   6)                1.3579 -0.000003 -0.0000    1.3579   
     9. B(C   8,C   4)                1.5269  0.000003 -0.0002    1.5268   
    10. B(C   9,N   1)                1.4643  0.000003 -0.0004    1.4639   
    11. B(H  10,C   2)                1.0900 -0.000002  0.0000    1.0900   
    12. B(H  10,N   0)                2.0709 -0.000001 -0.0002    2.0707   
    13. B(H  11,C   2)                1.0897 -0.000001 -0.0000    1.0897   
    14. B(H  11,N   0)                2.0758 -0.000008  0.0003    2.0760   
    15. B(H  12,C   3)                1.0944  0.000004 -0.0000    1.0944   
    16. B(H  13,C   3)                1.0934  0.000001 -0.0001    1.0933   
    17. B(H  14,C   4)                1.0955  0.000000  0.0001    1.0957   
    18. B(H  15,C   4)                1.0957  0.000001  0.0000    1.0957   
    19. B(H  16,C   5)                1.0760 -0.000003  0.0000    1.0760   
    20. B(H  16,N   1)                2.1459 -0.000008  0.0000    2.1460   
    21. B(H  17,C   6)                1.0752  0.000001 -0.0000    1.0752   
    22. B(H  17,N   0)                2.1514  0.000010 -0.0002    2.1513   
    23. B(H  18,N   1)                2.1523  0.000007 -0.0002    2.1520   
    24. B(H  18,C   7)                1.0755 -0.000000 -0.0001    1.0755   
    25. B(H  19,C   8)                1.0921  0.000001 -0.0000    1.0921   
    26. B(H  20,C   8)                1.0917  0.000000 -0.0001    1.0916   
    27. B(H  21,C   8)                1.0902  0.000002 -0.0000    1.0902   
    28. B(H  22,C   9)                1.0867 -0.000002 -0.0000    1.0867   
    29. B(H  23,C   9)                1.0883 -0.000000 -0.0000    1.0883   
    30. B(H  24,C   9)                1.0884 -0.000001 -0.0000    1.0884   
    31. B(O  25,N   1)               57.3057 -0.000000 -0.0070   57.2987   
    32. B(O  25,C   5)               56.4514  0.000001 -0.0071   56.4443   
    33. B(O  25,C   7)               56.6408 -0.000001 -0.0066   56.6342   
    34. B(O  25,H  13)               52.1922  0.000001 -0.0065   52.1857   
    35. B(O  25,H  10)               54.3573 -0.000000 -0.0070   54.3503   
    36. B(O  25,C   9)               58.7341  0.000002 -0.0074   58.7267   
    37. B(O  25,C   3)               53.0833  0.000001 -0.0064   53.0769   
    38. B(O  25,H  11)               53.5541 -0.000002 -0.0063   53.5479   
    39. B(O  25,H  23)               58.9724  0.000001 -0.0073   58.9650   
    40. B(O  25,N   0)               55.2438 -0.000001 -0.0067   55.2371   
    41. B(O  25,H  22)               58.9904  0.000000 -0.0076   58.9829   
    42. B(O  25,H  20)               51.8994  0.000000 -0.0063   51.8931   
    43. B(O  25,H  15)               54.0791 -0.000001 -0.0064   54.0727   
    44. B(O  25,C   2)               54.0187  0.000000 -0.0067   54.0120   
    45. B(O  25,C   6)               55.3431  0.000001 -0.0066   55.3365   
    46. B(O  25,H  24)               59.3192  0.000000 -0.0073   59.3119   
    47. B(O  25,H  18)               57.1585  0.000001 -0.0065   57.1520   
    48. B(O  25,H  20)               51.8994  0.000000 -0.0063   51.8931   
    49. B(O  25,H  12)               52.7589  0.000001 -0.0062   52.7527   
    50. B(O  25,C   4)               53.7184  0.000000 -0.0062   53.7121   
    51. B(O  25,H  16)               56.7159  0.000000 -0.0073   56.7086   
    52. B(O  25,H  19)               52.4504  0.000001 -0.0059   52.4445   
    53. B(O  25,H  17)               54.5111  0.000001 -0.0065   54.5046   
    54. B(O  25,H  14)               54.6087  0.000000 -0.0060   54.6027   
    55. B(O  25,H  21)               53.2964  0.000002 -0.0064   53.2900   
    56. B(O  25,C   8)               52.7793  0.000000 -0.0062   52.7731   
    57. B(F  26,H  13)               51.1411  0.000000 -0.0064   51.1347   
    58. B(F  26,H  19)               51.5101  0.000002 -0.0071   51.5030   
    59. B(F  26,C   2)               52.9065  0.000002 -0.0066   52.8999   
    60. B(F  26,C   6)               54.1815  0.000002 -0.0072   54.1743   
    61. B(F  26,N   0)               54.1179  0.000001 -0.0069   54.1110   
    62. B(F  26,H  24)               58.1659  0.000002 -0.0076   58.1583   
    63. B(F  26,C   8)               51.8559  0.000001 -0.0068   51.8491   
    64. B(F  26,N   1)               56.1837  0.000001 -0.0073   56.1764   
    65. B(F  26,H  15)               53.1165  0.000001 -0.0063   53.1102   
    66. B(F  26,H  12)               51.6812  0.000002 -0.0070   51.6742   
    67. B(F  26,H  21)               52.4254  0.000002 -0.0070   52.4184   
    68. B(F  26,H  14)               53.6204  0.000002 -0.0066   53.6138   
    69. B(F  26,H  10)               53.2644  0.000000 -0.0065   53.2579   
    70. B(F  26,C   9)               57.6264  0.000003 -0.0077   57.6186   
    71. B(F  26,H  16)               55.6432  0.000001 -0.0071   55.6360   
    72. B(F  26,H  22)               57.9119  0.000001 -0.0077   57.9043   
    73. B(F  26,C   7)               55.4826  0.000000 -0.0073   55.4753   
    74. B(F  26,H  18)               55.9800  0.000002 -0.0074   55.9726   
    75. B(F  26,H  11)               52.3904 -0.000000 -0.0062   52.3842   
    76. B(F  26,H  20)               50.9866  0.000001 -0.0066   50.9800   
    77. B(F  26,C   5)               55.3488  0.000002 -0.0072   55.3417   
    78. B(F  26,H  23)               57.8921  0.000002 -0.0079   57.8842   
    79. B(F  26,C   4)               52.7363  0.000001 -0.0066   52.7297   
    80. B(F  26,C   3)               52.0268  0.000001 -0.0067   52.0201   
    81. B(F  26,H  17)               53.3248  0.000002 -0.0072   53.3176   
    82. B(O  27,C   8)               49.7782  0.000003 -0.0071   49.7711   
    83. B(O  27,C   3)               50.0494  0.000003 -0.0073   50.0421   
    84. B(O  27,H  14)               51.5929  0.000003 -0.0069   51.5859   
    85. B(O  27,H  12)               49.7249  0.000003 -0.0072   49.7177   
    86. B(O  27,C   9)               55.6947  0.000004 -0.0084   55.6864   
    87. B(O  27,H  17)               51.4626  0.000003 -0.0076   51.4550   
    88. B(O  27,H  24)               56.2719  0.000002 -0.0083   56.2636   
    89. B(O  27,H  19)               49.4503  0.000004 -0.0070   49.4434   
    90. B(O  27,N   0)               52.1978  0.000002 -0.0076   52.1901   
    91. B(O  27,C   4)               50.7010  0.000003 -0.0071   50.6940   
    92. B(O  27,H  10)               51.3118  0.000002 -0.0077   51.3041   
    93. B(O  27,C   5)               53.4087  0.000004 -0.0080   53.4008   
    94. B(O  27,H  18)               54.1159  0.000003 -0.0076   54.1083   
    95. B(O  27,C   2)               50.9721  0.000003 -0.0075   50.9646   
    96. B(O  27,C   7)               53.5967  0.000001 -0.0077   53.5890   
    97. B(O  27,C   6)               52.2962  0.000003 -0.0076   52.2886   
    98. B(O  27,H  22)               55.9533  0.000003 -0.0084   55.9449   
    99. B(O  27,H  16)               53.6763  0.000003 -0.0081   53.6682   
   100. B(O  27,H  23)               55.9422  0.000003 -0.0083   55.9339   
   101. B(O  27,H  15)               51.0630  0.000002 -0.0072   51.0559   
   102. B(O  27,N   1)               54.2634  0.000002 -0.0079   54.2554   
   103. B(O  27,H  20)               48.8979  0.000003 -0.0071   48.8908   
   104. B(O  27,H  21)               50.3093  0.000004 -0.0072   50.3021   
   105. B(O  27,H  11)               50.4983  0.000000 -0.0071   50.4911   
   106. B(O  27,H  13)               49.1569  0.000003 -0.0073   49.1496   
   107. B(F  28,H  18)               59.6695  0.000001 -0.0071   59.6624   
   108. B(F  28,N   1)               59.7741  0.000001 -0.0074   59.7667   
   109. B(F  28,H  22)               61.4402  0.000003 -0.0079   61.4322   
   110. B(F  28,H  20)               54.3718  0.000003 -0.0059   54.3659   
   111. B(F  28,H  14)               57.0939  0.000002 -0.0060   57.0879   
   112. B(F  28,H  12)               55.2410  0.000002 -0.0065   55.2345   
   113. B(F  28,C   9)               61.2047  0.000004 -0.0078   61.1969   
   114. B(F  28,C   7)               59.1314  0.000000 -0.0072   59.1242   
   115. B(F  28,H  15)               56.5178  0.000002 -0.0062   56.5115   
   116. B(F  28,C   6)               57.8225  0.000003 -0.0071   57.8154   
   117. B(F  28,H  17)               57.0006  0.000002 -0.0071   56.9935   
   118. B(F  28,H  16)               59.1369  0.000003 -0.0077   59.1292   
   119. B(F  28,H  10)               56.7562  0.000003 -0.0073   56.7489   
   120. B(F  28,C   3)               55.5380  0.000003 -0.0066   55.5314   
   121. B(F  28,C   5)               58.8947  0.000004 -0.0075   58.8872   
   122. B(F  28,C   2)               56.4459  0.000003 -0.0071   56.4389   
   123. B(F  28,H  13)               54.6279  0.000003 -0.0067   54.6212   
   124. B(F  28,C   4)               56.1854  0.000002 -0.0061   56.1793   
   125. B(F  28,H  24)               61.7833  0.000002 -0.0078   61.7755   
   126. B(F  28,H  11)               55.9704  0.000001 -0.0068   55.9635   
   127. B(F  28,H  21)               55.7936  0.000003 -0.0059   55.7877   
   128. B(F  28,N   0)               57.6931  0.000001 -0.0072   57.6859   
   129. B(F  28,C   8)               55.2701  0.000002 -0.0059   55.2642   
   130. B(F  28,H  23)               61.4706  0.000002 -0.0077   61.4629   
   131. B(F  28,H  19)               54.9700  0.000002 -0.0057   54.9643   
   132. B(F  29,C   3)               50.0656  0.000002 -0.0066   50.0590   
   133. B(F  29,H  13)               49.1769 -0.000000 -0.0062   49.1707   
   134. B(F  29,H  19)               49.6008  0.000003 -0.0071   49.5937   
   135. B(F  29,N   0)               52.1366  0.000001 -0.0069   52.1297   
   136. B(F  29,C   8)               49.9426  0.000001 -0.0066   49.9359   
   137. B(F  29,H  14)               51.6856  0.000002 -0.0066   51.6791   
   138. B(F  29,N   1)               54.2078  0.000002 -0.0073   54.2005   
   139. B(F  29,H  18)               54.0046  0.000004 -0.0076   53.9970   
   140. B(F  29,H  16)               53.6674  0.000001 -0.0070   53.6605   
   141. B(F  29,C   7)               53.5051  0.000002 -0.0074   53.4977   
   142. B(F  29,H  17)               51.3416  0.000004 -0.0074   51.3343   
   143. B(F  29,C   5)               53.3712  0.000003 -0.0071   53.3641   
   144. B(F  29,H  10)               51.2793  0.000000 -0.0062   51.2731   
   145. B(F  29,H  12)               49.7224  0.000003 -0.0070   49.7154   
   146. B(F  29,H  15)               51.1768  0.000001 -0.0060   51.1709   
   147. B(F  29,H  20)               49.0719  0.000001 -0.0064   49.0655   
   148. B(F  29,C   4)               50.7986  0.000002 -0.0064   50.7922   
   149. B(F  29,C   2)               50.9234  0.000002 -0.0065   50.9169   
   150. B(F  29,H  24)               56.1806  0.000003 -0.0077   56.1729   
   151. B(F  29,H  22)               55.9410  0.000002 -0.0076   55.9334   
   152. B(F  29,H  23)               55.9347  0.000003 -0.0079   55.9268   
   153. B(F  29,C   9)               55.6540  0.000004 -0.0077   55.6462   
   154. B(F  29,H  21)               50.5298  0.000002 -0.0068   50.5230   
   155. B(F  29,C   6)               52.2004  0.000004 -0.0072   52.1931   
   156. B(F  29,H  11)               50.3922  0.000001 -0.0061   50.3861   
   157. B(S  30,H  14)               54.4995 -0.000006 -0.0058   54.4937   
   158. B(S  30,H  17)               54.4390 -0.000006 -0.0069   54.4321   
   159. B(S  30,H  20)               51.7697 -0.000005 -0.0059   51.7638   
   160. B(S  30,H  10)               54.1903 -0.000005 -0.0072   54.1831   
   161. B(S  30,N   1)               57.2022 -0.000006 -0.0073   57.1949   
   162. B(S  30,H  15)               53.9264 -0.000006 -0.0062   53.9202   
   163. B(S  30,O  25)                1.4396 -0.000045  0.0001    1.4397   
   164. B(S  30,C   2)               53.8786 -0.000005 -0.0070   53.8716   
   165. B(S  30,H  21)               53.1835 -0.000005 -0.0058   53.1778   
   166. B(S  30,H  24)               59.2172 -0.000006 -0.0077   59.2096   
   167. B(S  30,H  22)               58.8632 -0.000005 -0.0078   58.8554   
   168. B(S  30,C   9)               58.6299 -0.000004 -0.0077   58.6222   
   169. B(S  30,H  23)               58.8881 -0.000006 -0.0075   58.8806   
   170. B(S  30,H  16)               56.5637 -0.000004 -0.0076   56.5561   
   171. B(S  30,H  18)               57.1041 -0.000007 -0.0069   57.0972   
   172. B(S  30,C   3)               52.9578 -0.000005 -0.0065   52.9513   
   173. B(S  30,C   7)               56.5638 -0.000008 -0.0070   56.5568   
   174. B(S  30,C   5)               56.3230 -0.000004 -0.0074   56.3156   
   175. B(S  30,C   8)               52.6669 -0.000006 -0.0058   52.6611   
   176. B(S  30,H  12)               52.6609 -0.000005 -0.0064   52.6545   
   177. B(S  30,H  19)               52.3661 -0.000006 -0.0056   52.3605   
   178. B(S  30,C   6)               55.2569 -0.000005 -0.0070   55.2500   
   179. B(S  30,N   0)               55.1247 -0.000007 -0.0070   55.1176   
   180. B(S  30,C   4)               53.5926 -0.000006 -0.0060   53.5865   
   181. B(S  30,H  11)               53.4139 -0.000007 -0.0067   53.4071   
   182. B(S  30,H  13)               52.0497 -0.000004 -0.0066   52.0431   
   183. B(C  31,H  16)               54.6732 -0.000004 -0.0069   54.6663   
   184. B(C  31,H  20)               50.0437 -0.000004 -0.0060   50.0377   
   185. B(C  31,C   7)               54.5581 -0.000004 -0.0072   54.5509   
   186. B(C  31,C   4)               51.7905 -0.000003 -0.0061   51.7844   
   187. B(C  31,C   5)               54.3927 -0.000002 -0.0070   54.3857   
   188. B(C  31,F  29)                1.3463 -0.000017  0.0004    1.3467   
   189. B(C  31,F  26)                1.3366  0.000006 -0.0002    1.3365   
   190. B(C  31,H  21)               51.4978 -0.000003 -0.0063   51.4915   
   191. B(C  31,H  11)               51.4221 -0.000004 -0.0061   51.4160   
   192. B(C  31,C   2)               51.9417 -0.000003 -0.0065   51.9352   
   193. B(C  31,C   6)               53.2504 -0.000002 -0.0071   53.2433   
   194. B(C  31,H  24)               57.2248 -0.000003 -0.0075   57.2173   
   195. B(C  31,N   0)               53.1665 -0.000004 -0.0068   53.1597   
   196. B(C  31,C   8)               50.9239 -0.000004 -0.0062   50.9177   
   197. B(C  31,H  22)               56.9585 -0.000003 -0.0075   56.9510   
   198. B(C  31,H  12)               50.7471 -0.000003 -0.0067   50.7404   
   199. B(C  31,C   9)               56.6866 -0.000001 -0.0076   56.6790   
   200. B(C  31,H  14)               52.6855 -0.000003 -0.0062   52.6794   
   201. B(C  31,H  19)               50.5961 -0.000002 -0.0065   50.5896   
   202. B(C  31,H  17)               52.4019 -0.000002 -0.0072   52.3947   
   203. B(C  31,H  23)               56.9679 -0.000003 -0.0077   56.9602   
   204. B(C  31,H  10)               52.2830 -0.000004 -0.0063   52.2767   
   205. B(C  31,N   1)               55.2434 -0.000004 -0.0072   55.2362   
   206. B(C  31,H  15)               52.1541 -0.000004 -0.0057   52.1484   
   207. B(C  31,H  18)               55.0702 -0.000002 -0.0073   55.0629   
   208. B(C  31,H  13)               50.1787 -0.000005 -0.0061   50.1725   
   209. B(C  31,C   3)               51.0754 -0.000003 -0.0064   51.0691   
   210. B(F  32,H  21)               54.7055  0.000001 -0.0057   54.6998   
   211. B(F  32,H  11)               54.7028 -0.000000 -0.0065   54.6963   
   212. B(F  32,C   3)               54.3359  0.000001 -0.0064   54.3295   
   213. B(F  32,C   8)               54.1498  0.000000 -0.0058   54.1441   
   214. B(F  32,H  12)               54.0286  0.000001 -0.0065   54.0221   
   215. B(F  32,H  19)               53.8420  0.000001 -0.0058   53.8362   
   216. B(F  32,N   1)               58.5350 -0.000000 -0.0072   58.5278   
   217. B(F  32,H  24)               60.5257  0.000000 -0.0076   60.5181   
   218. B(F  32,H  23)               60.2585  0.000000 -0.0075   60.2511   
   219. B(F  32,H  22)               60.2253  0.000001 -0.0076   60.2177   
   220. B(F  32,C   9)               59.9742  0.000002 -0.0076   59.9666   
   221. B(F  32,H  13)               53.4275  0.000000 -0.0063   53.4212   
   222. B(F  32,H  18)               58.4012 -0.000000 -0.0070   58.3942   
   223. B(F  32,H  16)               57.9232  0.000001 -0.0073   57.9160   
   224. B(F  32,C   7)               57.8729 -0.000001 -0.0070   57.8659   
   225. B(F  32,C   5)               57.6650  0.000002 -0.0072   57.6579   
   226. B(F  32,C   6)               56.5611  0.000001 -0.0070   56.5541   
   227. B(F  32,N   0)               56.4501 -0.000000 -0.0069   56.4432   
   228. B(F  32,H  20)               53.2563  0.000001 -0.0057   53.2506   
   229. B(F  32,H  14)               55.9348  0.000001 -0.0059   55.9289   
   230. B(F  32,H  17)               55.7257  0.000001 -0.0070   55.7187   
   231. B(F  32,H  10)               55.5289  0.000001 -0.0068   55.5221   
   232. B(F  32,H  15)               55.3704  0.000001 -0.0058   55.3646   
   233. B(F  32,C   2)               55.2092  0.000001 -0.0067   55.2025   
   234. B(F  32,C   4)               55.0285  0.000001 -0.0059   55.0225   
   235. B(C  33,H  21)               54.6786 -0.000003 -0.0053   54.6733   
   236. B(C  33,F  32)                1.3402 -0.000015  0.0001    1.3403   
   237. B(C  33,S  30)                1.8668  0.000001  0.0002    1.8671   
   238. B(C  33,C   3)               54.3826 -0.000003 -0.0062   54.3764   
   239. B(C  33,F  28)                1.3458  0.000006 -0.0003    1.3454   
   240. B(C  33,C   8)               54.1447 -0.000004 -0.0054   54.1393   
   241. B(C  33,H  12)               54.0910 -0.000003 -0.0062   54.0847   
   242. B(C  33,H  19)               53.8508 -0.000003 -0.0053   53.8455   
   243. B(C  33,H  24)               60.6181 -0.000004 -0.0074   60.6107   
   244. B(C  33,C   9)               60.0470 -0.000002 -0.0074   60.0395   
   245. B(C  33,H  13)               53.4681 -0.000003 -0.0062   53.4619   
   246. B(C  33,N   1)               58.6140 -0.000004 -0.0071   58.6070   
   247. B(C  33,H  18)               58.5162 -0.000005 -0.0068   58.5095   
   248. B(C  33,C   7)               57.9738 -0.000006 -0.0068   57.9670   
   249. B(C  33,H  16)               57.9700 -0.000003 -0.0072   57.9628   
   250. B(C  33,C   5)               57.7300 -0.000002 -0.0071   57.7229   
   251. B(C  33,H  20)               53.2428 -0.000003 -0.0054   53.2374   
   252. B(C  33,H  23)               60.3246 -0.000004 -0.0073   60.3173   
   253. B(C  33,C   6)               56.6613 -0.000003 -0.0068   56.6545   
   254. B(C  33,N   0)               56.5272 -0.000004 -0.0068   56.5204   
   255. B(C  33,H  14)               55.9569 -0.000003 -0.0055   55.9514   
   256. B(C  33,H  17)               55.8399 -0.000004 -0.0068   55.8331   
   257. B(C  33,H  10)               55.5810 -0.000003 -0.0068   55.5742   
   258. B(C  33,H  15)               55.3715 -0.000003 -0.0057   55.3658   
   259. B(C  33,C   2)               55.2758 -0.000003 -0.0067   55.2691   
   260. B(C  33,C   4)               55.0441 -0.000003 -0.0057   55.0384   
   261. B(C  33,H  22)               60.2802 -0.000003 -0.0075   60.2727   
   262. B(C  33,H  11)               54.7910 -0.000004 -0.0065   54.7846   
   263. B(O  34,H  17)               54.7527  0.000005 -0.0082   54.7445   
   264. B(O  34,H  14)               54.7145  0.000002 -0.0068   54.7077   
   265. B(O  34,H  20)               51.9482  0.000001 -0.0069   51.9413   
   266. B(O  34,H  10)               54.4283  0.000005 -0.0088   54.4195   
   267. B(O  34,C   2)               54.1353  0.000005 -0.0084   54.1268   
   268. B(O  34,H  15)               54.1146  0.000001 -0.0075   54.1071   
   269. B(O  34,C   4)               53.7997  0.000002 -0.0072   53.7925   
   270. B(O  34,H  24)               59.5003  0.000004 -0.0090   59.4913   
   271. B(O  34,H  23)               59.1471  0.000004 -0.0087   59.1384   
   272. B(O  34,H  22)               59.1050  0.000004 -0.0092   59.0958   
   273. B(O  34,C   9)               58.8932  0.000006 -0.0090   58.8842   
   274. B(O  34,H  21)               53.3491  0.000001 -0.0066   53.3425   
   275. B(O  34,H  11)               53.6931  0.000004 -0.0083   53.6848   
   276. B(O  34,N   1)               57.4733  0.000003 -0.0086   57.4647   
   277. B(O  34,C   3)               53.1974  0.000004 -0.0078   53.1896   
   278. B(O  34,H  18)               57.4183  0.000004 -0.0081   57.4103   
   279. B(O  34,C   7)               56.8613  0.000003 -0.0083   56.8531   
   280. B(O  34,H  16)               56.7960  0.000005 -0.0091   56.7869   
   281. B(O  34,H  12)               52.9204  0.000004 -0.0075   52.9129   
   282. B(O  34,C   5)               56.5772  0.000006 -0.0088   56.5685   
   283. B(O  34,C   8)               52.8554  0.000001 -0.0067   52.8487   
   284. B(O  34,H  19)               52.5730  0.000002 -0.0063   52.5667   
   285. B(O  34,C   6)               55.5537  0.000005 -0.0083   55.5455   
   286. B(O  34,N   0)               55.3938  0.000003 -0.0084   55.3854   
   287. B(O  34,H  13)               52.2817  0.000005 -0.0080   52.2737   
   288. B(O  34,S  30)                1.4398  0.000038 -0.0001    1.4397   
   289. B(S  35,N   1)               54.6986 -0.000005 -0.0076   54.6910   
   290. B(S  35,H  17)               51.9071 -0.000004 -0.0075   51.8996   
   291. B(S  35,H  18)               54.5787 -0.000005 -0.0075   54.5712   
   292. B(S  35,H  19)               49.9522 -0.000005 -0.0062   49.9461   
   293. B(S  35,H  10)               51.6967 -0.000004 -0.0071   51.6895   
   294. B(S  35,H  16)               54.0810 -0.000004 -0.0076   54.0734   
   295. B(S  35,C   7)               54.0452 -0.000006 -0.0075   54.0377   
   296. B(S  35,H  15)               51.4972 -0.000005 -0.0062   51.4910   
   297. B(S  35,C   5)               53.8267 -0.000003 -0.0076   53.8192   
   298. B(S  35,H  13)               49.5758 -0.000004 -0.0067   49.5691   
   299. B(S  35,C   2)               51.3762 -0.000004 -0.0071   51.3692   
   300. B(S  35,H  20)               49.3662 -0.000005 -0.0061   49.3602   
   301. B(S  35,C   4)               51.1545 -0.000005 -0.0063   51.1483   
   302. B(S  35,H  11)               50.8873 -0.000005 -0.0069   50.8804   
   303. B(S  35,H  24)               56.6997 -0.000005 -0.0080   56.6917   
   304. B(S  35,H  21)               50.8040 -0.000005 -0.0061   50.7979   
   305. B(S  35,H  23)               56.4066 -0.000005 -0.0080   56.3987   
   306. B(S  35,H  22)               56.3795 -0.000004 -0.0080   56.3715   
   307. B(S  35,C   9)               56.1335 -0.000003 -0.0080   56.1255   
   308. B(S  35,C   6)               52.7354 -0.000004 -0.0074   52.7280   
   309. B(S  35,N   0)               52.6174 -0.000005 -0.0073   52.6101   
   310. B(S  35,C   3)               50.4824 -0.000004 -0.0068   50.4757   
   311. B(S  35,C  31)                1.8700 -0.000021  0.0005    1.8705   
   312. B(S  35,C   8)               50.2595 -0.000005 -0.0061   50.2533   
   313. B(S  35,O  27)                1.4389 -0.000028  0.0001    1.4390   
   314. B(S  35,H  14)               52.0599 -0.000005 -0.0062   52.0536   
   315. B(S  35,H  12)               50.1770 -0.000004 -0.0069   50.1702   
   316. B(N  36,C   3)               51.7665  0.000005 -0.0072   51.7593   
   317. B(N  36,C   8)               51.5219  0.000004 -0.0062   51.5157   
   318. B(N  36,C   6)               54.0570  0.000006 -0.0079   54.0491   
   319. B(N  36,N   0)               53.9172  0.000004 -0.0078   53.9094   
   320. B(N  36,H  12)               51.4781  0.000005 -0.0072   51.4709   
   321. B(N  36,H  19)               51.2312  0.000004 -0.0062   51.2250   
   322. B(N  36,H  14)               53.3370  0.000004 -0.0064   53.3306   
   323. B(N  36,H  24)               58.0114  0.000005 -0.0085   58.0028   
   324. B(N  36,H  23)               57.7125  0.000004 -0.0084   57.7041   
   325. B(N  36,H  22)               57.6652  0.000005 -0.0085   57.6567   
   326. B(N  36,H  17)               53.2398  0.000005 -0.0080   53.2318   
   327. B(N  36,C   9)               57.4356  0.000006 -0.0085   57.4272   
   328. B(N  36,H  10)               52.9673  0.000006 -0.0078   52.9595   
   329. B(N  36,H  13)               50.8510  0.000005 -0.0072   50.8439   
   330. B(N  36,H  15)               52.7486  0.000004 -0.0065   52.7421   
   331. B(N  36,N   1)               56.0042  0.000004 -0.0081   55.9961   
   332. B(N  36,H  20)               50.6187  0.000004 -0.0062   50.6125   
   333. B(N  36,C   2)               52.6639  0.000006 -0.0077   52.6562   
   334. B(N  36,H  18)               55.9169  0.000004 -0.0080   55.9089   
   335. B(N  36,C   4)               52.4230  0.000004 -0.0066   52.4165   
   336. B(N  36,S  35)                1.5754  0.000006 -0.0001    1.5754   
   337. B(N  36,C   7)               55.3699  0.000003 -0.0080   55.3619   
   338. B(N  36,H  16)               55.3542  0.000006 -0.0082   55.3461   
   339. B(N  36,S  30)                1.5818 -0.000015  0.0005    1.5823   
   340. B(N  36,H  11)               52.1846  0.000004 -0.0075   52.1771   
   341. B(N  36,C   5)               55.1173  0.000007 -0.0081   55.1092   
   342. B(N  36,H  21)               52.0545  0.000004 -0.0061   52.0484   
   343. B(F  37,H  11)               51.9074 -0.000001 -0.0063   51.9011   
   344. B(F  37,C   3)               51.6034 -0.000001 -0.0063   51.5971   
   345. B(F  37,C   8)               51.4986 -0.000001 -0.0058   51.4928   
   346. B(F  37,C   6)               53.7760  0.000001 -0.0073   53.7686   
   347. B(F  37,N   0)               53.6779 -0.000001 -0.0069   53.6710   
   348. B(F  37,H  12)               51.2899  0.000000 -0.0068   51.2831   
   349. B(F  37,H  19)               51.1872 -0.000000 -0.0063   51.1809   
   350. B(F  37,H  24)               57.7386  0.000000 -0.0077   57.7309   
   351. B(F  37,H  14)               53.2438 -0.000000 -0.0060   53.2379   
   352. B(F  37,H  23)               57.5163 -0.000000 -0.0078   57.5085   
   353. B(F  37,H  22)               57.4753 -0.000001 -0.0074   57.4678   
   354. B(F  37,C   9)               57.2123  0.000002 -0.0077   57.2046   
   355. B(F  37,H  17)               52.9310  0.000001 -0.0075   52.9235   
   356. B(F  37,H  10)               52.7679 -0.000001 -0.0061   52.7618   
   357. B(F  37,H  13)               50.6959 -0.000002 -0.0060   50.6899   
   358. B(F  37,H  15)               52.6870 -0.000001 -0.0053   52.6817   
   359. B(F  37,H  20)               50.6090 -0.000001 -0.0055   50.6035   
   360. B(F  37,N   1)               55.7664 -0.000001 -0.0073   55.7591   
   361. B(F  37,C  31)                1.3424 -0.000009  0.0001    1.3425   
   362. B(F  37,C   2)               52.4419  0.000000 -0.0065   52.4355   
   363. B(F  37,H  18)               55.6130  0.000001 -0.0077   55.6053   
   364. B(F  37,C   4)               52.3387 -0.000001 -0.0058   52.3329   
   365. B(F  37,H  16)               55.1739 -0.000001 -0.0068   55.1671   
   366. B(F  37,C   7)               55.0906 -0.000001 -0.0074   55.0832   
   367. B(F  37,H  21)               52.0858 -0.000001 -0.0057   52.0800   
   368. B(F  37,C   5)               54.9031  0.000001 -0.0070   54.8961   
   369. B(F  38,C   3)               54.4576  0.000001 -0.0063   54.4513   
   370. B(F  38,C   8)               54.2367 -0.000000 -0.0052   54.2315   
   371. B(F  38,H  12)               54.1906  0.000000 -0.0064   54.1842   
   372. B(F  38,H  19)               53.9680 -0.000000 -0.0051   53.9629   
   373. B(F  38,H  24)               60.7062 -0.000000 -0.0078   60.6984   
   374. B(F  38,H  23)               60.4319 -0.000000 -0.0075   60.4243   
   375. B(F  38,H  22)               60.3481  0.000001 -0.0078   60.3404   
   376. B(F  38,C   9)               60.1351  0.000002 -0.0077   60.1274   
   377. B(F  38,H  13)               53.5286  0.000001 -0.0063   53.5222   
   378. B(F  38,N   1)               58.7033 -0.000001 -0.0073   58.6960   
   379. B(F  38,H  18)               58.6482 -0.000001 -0.0071   58.6411   
   380. B(F  38,C   7)               58.0864 -0.000002 -0.0071   58.0793   
   381. B(F  38,H  16)               58.0169  0.000002 -0.0075   58.0095   
   382. B(F  38,H  20)               53.3202  0.000001 -0.0051   53.3150   
   383. B(F  38,C   5)               57.7979  0.000003 -0.0074   57.7905   
   384. B(F  38,C   6)               56.7664  0.000001 -0.0071   56.7593   
   385. B(F  38,N   0)               56.6037 -0.000000 -0.0071   56.5966   
   386. B(F  38,H  14)               56.0480  0.000000 -0.0055   56.0426   
   387. B(F  38,H  17)               55.9575 -0.000000 -0.0071   55.9504   
   388. B(F  38,C  33)                1.3399 -0.000023  0.0002    1.3400   
   389. B(F  38,H  10)               55.6156  0.000002 -0.0071   55.6085   
   390. B(F  38,H  15)               55.4242  0.000001 -0.0056   55.4186   
   391. B(F  38,C   2)               55.3345  0.000002 -0.0069   55.3276   
   392. B(F  38,C   4)               55.1211  0.000000 -0.0056   55.1155   
   393. B(F  38,H  11)               54.8480  0.000001 -0.0068   54.8412   
   394. B(F  38,H  21)               54.7716  0.000000 -0.0050   54.7666   
   395. B(O  39,C   6)               51.8053  0.000003 -0.0080   51.7973   
   396. B(O  39,H  11)               49.9153  0.000002 -0.0074   49.9079   
   397. B(O  39,N   0)               51.6666  0.000002 -0.0078   51.6588   
   398. B(O  39,H  21)               49.8997  0.000001 -0.0059   49.8938   
   399. B(O  39,N   1)               53.7598  0.000002 -0.0081   53.7517   
   400. B(O  39,C   3)               49.5380  0.000003 -0.0070   49.5309   
   401. B(O  39,H  18)               53.6707  0.000002 -0.0082   53.6625   
   402. B(O  39,C   8)               49.3468  0.000001 -0.0060   49.3408   
   403. B(O  39,H  12)               49.2511  0.000003 -0.0073   49.2439   
   404. B(O  39,H  14)               51.1383  0.000002 -0.0063   51.1320   
   405. B(O  39,H  17)               50.9850  0.000003 -0.0081   50.9769   
   406. B(O  39,C   7)               53.1223  0.000001 -0.0081   53.1142   
   407. B(O  39,H  19)               49.0593  0.000002 -0.0062   49.0531   
   408. B(O  39,H  16)               53.1120  0.000003 -0.0080   53.1040   
   409. B(O  39,C   5)               52.8717  0.000004 -0.0080   52.8637   
   410. B(O  39,H  13)               48.6194  0.000002 -0.0069   48.6125   
   411. B(O  39,H  10)               50.7142  0.000003 -0.0075   50.7067   
   412. B(O  39,H  20)               48.4423  0.000002 -0.0059   48.4364   
   413. B(O  39,S  35)                1.4388 -0.000011  0.0002    1.4390   
   414. B(O  39,H  24)               55.7568  0.000002 -0.0086   55.7482   
   415. B(O  39,H  15)               50.5461  0.000002 -0.0062   50.5399   
   416. B(O  39,H  23)               55.4886  0.000002 -0.0084   55.4802   
   417. B(O  39,H  22)               55.4281  0.000003 -0.0084   55.4197   
   418. B(O  39,C   2)               50.4117  0.000003 -0.0075   50.4042   
   419. B(O  39,C   9)               55.1956  0.000004 -0.0085   55.1872   
   420. B(O  39,C   4)               50.2214  0.000002 -0.0064   50.2150   
   421. A(C   2,N   0,O  27)           33.39  0.000000   -0.00     33.39   
   422. A(C   6,N   0,S  35)           94.17  0.000000   -0.00     94.17   
   423. A(C   6,N   0,F  26)           91.92  0.000001   -0.01     91.91   
   424. A(C   2,N   0,S  30)           31.98  0.000001   -0.01     31.97   
   425. A(C   2,N   0,O  39)           31.32  0.000001    0.00     31.32   
   426. A(C   5,N   0,C  31)          156.84  0.000002   -0.00    156.83   
   427. A(C   5,N   0,C  33)          154.35  0.000002   -0.01    154.34   
   428. A(C   6,N   0,O  25)           93.42  0.000001    0.01     93.43   
   429. A(O  34,N   0,F  37)            5.33 -0.000000    0.00      5.34   
   430. A(C   6,N   0,F  28)           94.71  0.000000    0.00     94.71   
   431. A(C   6,N   0,F  37)           93.35  0.000001   -0.02     93.34   
   432. A(C   2,N   0,O  25)           33.45  0.000000   -0.01     33.44   
   433. A(C   6,N   0,C  33)           94.89  0.000000    0.00     94.89   
   434. A(C   5,N   0,S  30)          153.89  0.000002   -0.01    153.87   
   435. A(C   5,N   0,C   6)          108.42 -0.000002    0.01    108.43   
   436. A(C   6,N   0,F  38)           96.10 -0.000000   -0.00     96.10   
   437. A(C   5,N   0,F  29)          157.78  0.000002   -0.00    157.78   
   438. A(C   5,N   0,F  28)          154.24  0.000002   -0.01    154.22   
   439. A(C   5,N   0,F  38)          153.49  0.000002   -0.01    153.48   
   440. A(C   5,N   0,F  26)          157.37  0.000002   -0.01    157.36   
   441. A(C   2,N   0,F  26)           34.38  0.000000    0.01     34.39   
   442. A(C   2,N   0,F  28)           31.92  0.000001   -0.01     31.92   
   443. A(C   2,N   0,S  35)           32.31  0.000001    0.00     32.31   
   444. A(C   6,N   0,O  34)           95.96  0.000000    0.01     95.97   
   445. A(C   2,N   0,N  36)           31.45  0.000001   -0.00     31.45   
   446. A(C   6,N   0,O  39)           95.02  0.000000   -0.01     95.01   
   447. A(C   6,N   0,F  29)           91.90  0.000001   -0.01     91.88   
   448. A(C   2,N   0,O  34)           31.08  0.000000   -0.01     31.07   
   449. A(C   6,N   0,S  30)           94.80  0.000000    0.00     94.80   
   450. A(C   2,N   0,F  37)           32.69  0.000000    0.01     32.71   
   451. A(C   6,N   0,O  27)           93.35  0.000000    0.00     93.35   
   452. A(C   5,N   0,S  35)          155.00  0.000002   -0.01    154.99   
   453. A(C   5,N   0,O  25)          154.84  0.000002   -0.02    154.82   
   454. A(C   2,N   0,F  38)           30.30  0.000001   -0.00     30.29   
   455. A(C   6,N   0,C  31)           92.76  0.000001   -0.01     92.74   
   456. A(C   2,N   0,C  31)           33.46  0.000000    0.01     33.47   
   457. A(C   6,N   0,F  32)           93.93  0.000000   -0.00     93.93   
   458. A(C   2,N   0,C  33)           31.60  0.000001   -0.01     31.60   
   459. A(C   2,N   0,C   5)          125.82  0.000001   -0.01    125.80   
   460. A(C   5,N   0,F  37)          156.73  0.000002    0.00    156.73   
   461. A(C   5,N   0,O  27)          155.17  0.000002   -0.01    155.16   
   462. A(C   2,N   0,F  32)           32.37  0.000001   -0.00     32.36   
   463. A(C   5,N   0,F  32)          155.62  0.000002   -0.01    155.61   
   464. A(C   5,N   0,O  34)          152.44  0.000002   -0.02    152.43   
   465. A(C   6,N   0,N  36)           95.10  0.000000   -0.00     95.10   
   466. A(C   2,N   0,C   6)          125.69  0.000001   -0.00    125.68   
   467. A(C   5,N   0,O  39)          154.56  0.000002   -0.00    154.55   
   468. A(C   5,N   0,N  36)          154.06  0.000002   -0.01    154.06   
   469. A(C   2,N   0,F  29)           34.24  0.000000    0.01     34.26   
   470. A(F  29,N   0,O  34)            5.61 -0.000000    0.00      5.61   
   471. A(C   5,N   1,O  27)           49.61 -0.000001   -0.00     49.60   
   472. A(C   5,N   1,C   9)          125.91  0.000001   -0.01    125.90   
   473. A(C   5,N   1,O  39)           47.72 -0.000001    0.01     47.73   
   474. A(C   9,N   1,O  27)          167.66 -0.000000   -0.00    167.65   
   475. A(C   9,N   1,N  36)          167.67 -0.000000    0.00    167.67   
   476. A(C   7,N   1,S  30)           61.79  0.000001    0.01     61.80   
   477. A(C   9,N   1,F  26)          170.00 -0.000000   -0.01    169.99   
   478. A(C   9,N   1,S  30)          166.99 -0.000000   -0.00    166.99   
   479. A(C   9,N   1,O  25)          167.13 -0.000000   -0.01    167.12   
   480. A(C   9,N   1,O  39)          168.53 -0.000000    0.01    168.54   
   481. A(C   5,N   1,F  28)           48.27 -0.000001   -0.00     48.27   
   482. A(C   5,N   1,C  33)           47.99 -0.000001   -0.00     47.99   
   483. A(C   5,N   1,F  29)           50.60 -0.000001    0.01     50.61   
   484. A(C   5,N   1,N  36)           47.80 -0.000001    0.00     47.80   
   485. A(C   9,N   1,F  38)          167.74  0.000000    0.00    167.74   
   486. A(C   5,N   1,F  38)           46.76 -0.000001   -0.00     46.76   
   487. A(C   7,N   1,F  28)           61.61  0.000001    0.01     61.62   
   488. A(C   5,N   1,O  34)           47.29 -0.000001   -0.01     47.28   
   489. A(C   7,N   1,N  36)           61.96  0.000001    0.00     61.96   
   490. A(C   7,N   1,O  25)           60.55  0.000001    0.01     60.56   
   491. A(C   9,N   1,O  34)          165.67 -0.000000   -0.00    165.67   
   492. A(C   5,N   1,F  37)           49.14 -0.000001    0.02     49.16   
   493. A(C   9,N   1,F  37)          170.79 -0.000000    0.00    170.80   
   494. A(C   7,N   1,C  33)           61.72  0.000001    0.01     61.72   
   495. A(F  29,N   1,O  34)            5.39 -0.000000    0.00      5.40   
   496. A(C   5,N   1,S  35)           48.65 -0.000001    0.00     48.65   
   497. A(C   5,N   1,O  25)           49.65 -0.000001   -0.01     49.65   
   498. A(C   9,N   1,C  33)          167.97 -0.000000   -0.00    167.97   
   499. A(C   9,N   1,S  35)          168.34 -0.000000    0.00    168.34   
   500. A(C   9,N   1,F  32)          169.25 -0.000000   -0.00    169.25   
   501. A(O  34,N   1,F  37)            5.14 -0.000000    0.00      5.14   
   502. A(C   7,N   1,C   9)          125.71 -0.000001    0.00    125.72   
   503. A(C   7,N   1,F  29)           58.71  0.000002   -0.01     58.70   
   504. A(C   7,N   1,O  34)           63.01  0.000001    0.01     63.03   
   505. A(C   7,N   1,F  26)           58.81  0.000001   -0.00     58.80   
   506. A(C   7,N   1,C  31)           59.56  0.000001   -0.01     59.55   
   507. A(C   7,N   1,S  35)           61.06  0.000001    0.00     61.06   
   508. A(C   5,N   1,F  26)           50.71 -0.000001    0.01     50.72   
   509. A(C   7,N   1,F  32)           60.69  0.000001    0.00     60.69   
   510. A(C   5,N   1,F  32)           48.79 -0.000001    0.00     48.79   
   511. A(C   7,N   1,O  39)           61.79  0.000001   -0.00     61.79   
   512. A(C   9,N   1,C  31)          170.13 -0.000000   -0.00    170.12   
   513. A(C   5,N   1,C   7)          108.38  0.000000    0.00    108.38   
   514. A(C   7,N   1,F  37)           60.01  0.000001   -0.01     60.00   
   515. A(C   7,N   1,O  27)           60.43  0.000001    0.01     60.43   
   516. A(C   9,N   1,F  29)          170.84 -0.000000   -0.00    170.84   
   517. A(C   5,N   1,C  31)           49.84 -0.000001    0.01     49.85   
   518. A(C   7,N   1,F  38)           62.80  0.000001    0.00     62.81   
   519. A(C   5,N   1,S  30)           48.25 -0.000001   -0.00     48.25   
   520. A(C   9,N   1,F  28)          167.53 -0.000000   -0.00    167.53   
   521. A(F  26,C   2,O  34)            5.11 -0.000000    0.00      5.12   
   522. A(N   0,C   2,C  33)          147.59 -0.000001    0.01    147.60   
   523. A(O  34,C   2,F  37)            5.47 -0.000000    0.00      5.47   
   524. A(C   3,C   2,F  29)           55.06 -0.000001   -0.01     55.05   
   525. A(H  11,C   2,O  39)           62.35 -0.000001    0.00     62.35   
   526. A(H  10,C   2,F  37)          106.84 -0.000000    0.02    106.85   
   527. A(F  29,C   2,O  34)            5.77 -0.000000    0.00      5.78   
   528. A(H  10,C   2,O  27)          107.58  0.000000   -0.01    107.57   
   529. A(N   0,C   2,C  31)          145.64 -0.000000   -0.01    145.63   
   530. A(C   3,C   2,S  30)           52.21 -0.000001    0.01     52.23   
   531. A(N   0,C   2,F  29)          144.82 -0.000000   -0.01    144.81   
   532. A(N   0,C   2,H  10)          106.67  0.000001    0.00    106.67   
   533. A(C   3,C   2,S  35)           53.43 -0.000001    0.01     53.44   
   534. A(C   3,C   2,O  39)           54.34 -0.000001    0.01     54.35   
   535. A(H  10,C   2,F  26)          108.61 -0.000000    0.01    108.62   
   536. A(C   3,C   2,O  25)           51.53 -0.000001    0.00     51.54   
   537. A(N   0,C   2,C   3)          112.25  0.000002   -0.07    112.18   
   538. A(H  10,C   2,C  31)          107.68 -0.000000    0.01    107.69   
   539. A(H  10,C   2,F  29)          108.48 -0.000001    0.01    108.49   
   540. A(C   3,C   2,H  10)          111.16  0.000005    0.01    111.18   
   541. A(H  11,C   2,F  29)           60.29 -0.000001    0.02     60.31   
   542. A(N   0,C   2,F  28)          147.29 -0.000001    0.01    147.29   
   543. A(N   0,C   2,F  38)          148.93 -0.000001    0.00    148.93   
   544. A(N   0,C   2,N  36)          147.71 -0.000001    0.00    147.71   
   545. A(C   3,C   2,O  27)           52.09 -0.000001    0.00     52.09   
   546. A(C   3,C   2,H  11)          111.57 -0.000005    0.01    111.57   
   547. A(N   0,C   2,S  35)          146.81 -0.000001   -0.00    146.81   
   548. A(C   3,C   2,C  33)           53.51 -0.000001    0.01     53.53   
   549. A(H  10,C   2,F  28)          106.01  0.000000   -0.01    106.00   
   550. A(H  10,C   2,O  25)          107.55  0.000000   -0.02    107.54   
   551. A(N   0,C   2,O  27)          145.69 -0.000000    0.00    145.70   
   552. A(H  11,C   2,F  26)           61.21 -0.000001    0.03     61.24   
   553. A(H  10,C   2,S  35)          106.52  0.000000   -0.00    106.51   
   554. A(N   0,C   2,F  32)          146.81 -0.000001    0.00    146.82   
   555. A(H  11,C   2,F  38)           62.98 -0.000001    0.00     62.98   
   556. A(C   3,C   2,N  36)           53.28 -0.000001    0.02     53.30   
   557. A(C   3,C   2,F  32)           54.41 -0.000001    0.01     54.42   
   558. A(H  11,C   2,S  35)           62.79 -0.000001    0.01     62.81   
   559. A(H  10,C   2,F  38)          104.40  0.000000   -0.01    104.39   
   560. A(N   0,C   2,O  25)          145.68 -0.000000    0.01    145.69   
   561. A(H  10,C   2,F  32)          106.52  0.000000   -0.00    106.51   
   562. A(H  11,C   2,C  31)           61.00 -0.000001    0.02     61.02   
   563. A(C   3,C   2,C  31)           54.70 -0.000001   -0.00     54.69   
   564. A(H  11,C   2,F  28)           63.63 -0.000001    0.01     63.64   
   565. A(N   0,C   2,F  26)          144.72 -0.000000   -0.01    144.71   
   566. A(H  11,C   2,O  25)           64.24 -0.000001    0.02     64.27   
   567. A(C   3,C   2,F  38)           54.26 -0.000001    0.02     54.28   
   568. A(H  10,C   2,O  39)          105.52  0.000000    0.00    105.52   
   569. A(H  11,C   2,F  37)           60.10 -0.000001    0.01     60.12   
   570. A(H  11,C   2,F  32)           61.80 -0.000001    0.01     61.81   
   571. A(H  11,C   2,O  34)           65.53 -0.000001    0.01     65.54   
   572. A(C   3,C   2,F  28)           52.84 -0.000001    0.01     52.86   
   573. A(N   0,C   2,F  37)          146.44 -0.000000   -0.02    146.42   
   574. A(H  10,C   2,S  30)          106.07  0.000000   -0.01    106.05   
   575. A(H  10,C   2,H  11)          107.86  0.000003    0.01    107.88   
   576. A(H  11,C   2,C  33)           63.08 -0.000001    0.01     63.09   
   577. A(H  10,C   2,N  36)          105.60  0.000000   -0.01    105.59   
   578. A(C   3,C   2,F  26)           54.10 -0.000001   -0.01     54.09   
   579. A(H  11,C   2,S  30)           64.23 -0.000001    0.01     64.25   
   580. A(N   0,C   2,O  34)          148.11 -0.000000    0.01    148.13   
   581. A(H  11,C   2,O  27)           63.67 -0.000001    0.02     63.70   
   582. A(N   0,C   2,S  30)          147.19 -0.000001    0.01    147.20   
   583. A(H  11,C   2,N  36)           63.37 -0.000001    0.01     63.38   
   584. A(H  10,C   2,O  34)          105.04  0.000000   -0.02    105.02   
   585. A(C   3,C   2,F  37)           55.95 -0.000001    0.00     55.95   
   586. A(H  10,C   2,C  33)          105.72  0.000000   -0.01    105.72   
   587. A(C   3,C   2,O  34)           51.41 -0.000001    0.02     51.44   
   588. A(N   0,C   2,H  11)          107.06 -0.000005    0.04    107.10   
   589. A(N   0,C   2,O  39)          147.81 -0.000001   -0.00    147.81   
   590. A(H  12,C   3,S  30)           73.69  0.000000    0.01     73.70   
   591. A(C   2,C   3,C  33)          125.19  0.000001   -0.01    125.18   
   592. A(C   2,C   3,O  25)          127.18  0.000001   -0.00    127.17   
   593. A(C   2,C   3,F  32)          124.28  0.000001   -0.01    124.27   
   594. A(C   2,C   3,F  28)          125.90  0.000001   -0.01    125.89   
   595. A(H  12,C   3,S  35)           73.20  0.000000   -0.01     73.19   
   596. A(C   4,C   3,S  35)          115.33 -0.000003    0.02    115.35   
   597. A(H  12,C   3,F  28)           73.71  0.000000    0.00     73.72   
   598. A(H  13,C   3,F  26)           35.55 -0.000000    0.02     35.56   
   599. A(C   2,C   3,N  36)          125.36  0.000001   -0.02    125.35   
   600. A(H  12,C   3,F  26)           71.02  0.000001   -0.02     71.00   
   601. A(C   4,C   3,F  26)          116.94 -0.000004    0.01    116.94   
   602. A(C   2,C   3,F  26)          124.54  0.000001    0.01    124.55   
   603. A(H  12,C   3,O  34)           74.77  0.000000    0.02     74.78   
   604. A(C   2,C   3,S  30)          126.48  0.000001   -0.01    126.47   
   605. A(H  13,C   3,C  33)           32.92  0.000001   -0.01     32.91   
   606. A(H  13,C   3,N  36)           32.82  0.000001   -0.00     32.81   
   607. A(H  13,C   3,O  39)           32.50  0.000001    0.01     32.51   
   608. A(C   4,C   3,H  12)          110.21 -0.000002   -0.01    110.20   
   609. A(H  12,C   3,N  36)           74.14  0.000000   -0.00     74.14   
   610. A(H  13,C   3,F  29)           35.27 -0.000001    0.02     35.29   
   611. A(F  29,C   3,O  34)            5.92 -0.000000    0.00      5.93   
   612. A(H  12,C   3,O  27)           72.16  0.000001    0.00     72.16   
   613. A(C   2,C   3,F  37)          122.65  0.000001   -0.00    122.65   
   614. A(H  13,C   3,F  37)           33.56 -0.000001    0.03     33.59   
   615. A(H  12,C   3,F  37)           72.77  0.000001   -0.03     72.75   
   616. A(C   4,C   3,F  29)          117.92 -0.000004    0.01    117.93   
   617. A(H  13,C   3,O  34)           32.81  0.000002   -0.02     32.78   
   618. A(C   4,C   3,F  32)          116.25 -0.000003    0.02    116.27   
   619. A(C   4,C   3,F  37)          118.04 -0.000004    0.03    118.06   
   620. A(H  12,C   3,O  25)           72.19  0.000001    0.01     72.20   
   621. A(C   2,C   3,S  35)          125.18  0.000001   -0.01    125.17   
   622. A(H  12,C   3,O  39)           74.19  0.000000   -0.01     74.18   
   623. A(C   4,C   3,O  27)          114.47 -0.000003    0.01    114.48   
   624. A(C   4,C   3,O  25)          113.82 -0.000003    0.01    113.83   
   625. A(H  12,C   3,F  29)           71.13  0.000001   -0.02     71.10   
   626. A(F  26,C   3,O  34)            5.22 -0.000000    0.00      5.22   
   627. A(H  13,C   3,O  25)           35.07  0.000001   -0.01     35.06   
   628. A(H  12,C   3,C  31)           71.96  0.000001   -0.02     71.94   
   629. A(C   2,C   3,C   4)          114.21  0.000002   -0.00    114.21   
   630. A(C   4,C   3,N  36)          114.70 -0.000003    0.03    114.73   
   631. A(C   2,C   3,C  31)          123.91  0.000001    0.00    123.91   
   632. A(O  34,C   3,F  37)            5.60 -0.000000    0.00      5.60   
   633. A(C   4,C   3,S  30)          113.81 -0.000003    0.02    113.83   
   634. A(C   4,C   3,O  39)          115.79 -0.000004    0.03    115.82   
   635. A(C   2,C   3,H  12)          109.57  0.000001   -0.01    109.57   
   636. A(H  12,C   3,H  13)          106.02 -0.000001    0.00    106.02   
   637. A(H  13,C   3,S  35)           33.64  0.000001    0.00     33.64   
   638. A(C   2,C   3,H  13)          106.56 -0.000009    0.02    106.57   
   639. A(C   4,C   3,F  28)          114.37 -0.000003    0.02    114.39   
   640. A(H  13,C   3,C  31)           34.54 -0.000000    0.02     34.56   
   641. A(H  12,C   3,C  33)           73.99  0.000000    0.00     73.99   
   642. A(C   4,C   3,C  33)          114.94 -0.000003    0.03    114.96   
   643. A(H  13,C   3,F  32)           33.50  0.000000    0.00     33.50   
   644. A(C   2,C   3,O  39)          124.23  0.000001   -0.02    124.22   
   645. A(C   2,C   3,F  38)          124.44  0.000001   -0.02    124.42   
   646. A(C   4,C   3,O  34)          112.47 -0.000004    0.03    112.50   
   647. A(H  12,C   3,F  38)           75.32  0.000000   -0.00     75.32   
   648. A(H  13,C   3,F  28)           33.34  0.000001   -0.01     33.34   
   649. A(H  12,C   3,F  32)           73.14  0.000001   -0.01     73.13   
   650. A(C   2,C   3,O  34)          127.30  0.000001   -0.02    127.28   
   651. A(C   2,C   3,O  27)          126.53  0.000001   -0.00    126.53   
   652. A(C   2,C   3,F  29)          123.51  0.000001    0.01    123.52   
   653. A(H  13,C   3,S  30)           33.52  0.000001   -0.01     33.51   
   654. A(H  13,C   3,O  27)           34.93  0.000001   -0.01     34.92   
   655. A(C   4,C   3,F  38)          115.02 -0.000003    0.03    115.06   
   656. A(C   4,C   3,C  31)          117.16 -0.000004    0.02    117.18   
   657. A(C   4,C   3,H  13)          109.90  0.000009   -0.00    109.90   
   658. A(H  13,C   3,F  38)           31.52  0.000001   -0.01     31.51   
   659. A(C   3,C   4,O  27)           63.96  0.000003   -0.01     63.95   
   660. A(C   8,C   4,S  30)           52.03  0.000001    0.01     52.04   
   661. A(C   3,C   4,H  15)          109.22  0.000003   -0.00    109.21   
   662. A(C   3,C   4,S  30)           64.70  0.000003   -0.02     64.68   
   663. A(C   3,C   4,O  39)           62.64  0.000003   -0.03     62.61   
   664. A(C   8,C   4,F  29)           55.18  0.000001   -0.02     55.17   
   665. A(C   3,C   4,C  31)           61.34  0.000003   -0.02     61.32   
   666. A(O  34,C   4,F  37)            5.57 -0.000000    0.00      5.57   
   667. A(H  15,C   4,F  32)          107.64 -0.000000    0.00    107.65   
   668. A(H  14,C   4,C  33)          146.11 -0.000000    0.01    146.12   
   669. A(H  15,C   4,O  39)          106.64 -0.000000    0.01    106.65   
   670. A(H  15,C   4,O  34)          106.15 -0.000000   -0.02    106.13   
   671. A(C   3,C   4,F  28)           64.21  0.000003   -0.02     64.19   
   672. A(C   8,C   4,S  35)           53.42  0.000001    0.00     53.42   
   673. A(C   3,C   4,S  35)           63.12  0.000003   -0.02     63.10   
   674. A(H  14,C   4,F  37)          145.38  0.000000   -0.03    145.35   
   675. A(C   8,C   4,F  32)           54.22  0.000001    0.00     54.22   
   676. A(H  14,C   4,O  39)          146.48 -0.000000   -0.01    146.47   
   677. A(H  15,C   4,S  30)          107.18 -0.000000   -0.01    107.17   
   678. A(H  14,C   4,S  35)          145.38 -0.000000   -0.00    145.38   
   679. A(H  14,C   4,O  34)          146.30 -0.000000    0.02    146.33   
   680. A(C   8,C   4,O  25)           51.40  0.000001   -0.00     51.40   
   681. A(C   3,C   4,O  25)           64.69  0.000003   -0.01     64.68   
   682. A(C   8,C   4,H  14)          109.09 -0.000003    0.01    109.10   
   683. A(H  15,C   4,F  38)          105.51  0.000000    0.00    105.51   
   684. A(H  14,C   4,F  26)          143.46  0.000000   -0.02    143.44   
   685. A(H  14,C   4,H  15)          106.55 -0.000000    0.00    106.55   
   686. A(C   3,C   4,H  14)          109.84 -0.000000    0.00    109.84   
   687. A(C   3,C   4,C   8)          112.41  0.000003   -0.02    112.40   
   688. A(H  14,C   4,S  30)          145.55 -0.000000    0.01    145.56   
   689. A(H  14,C   4,C  31)          144.44  0.000000   -0.02    144.42   
   690. A(C   8,C   4,H  15)          109.56 -0.000003    0.01    109.57   
   691. A(H  15,C   4,C  31)          108.81 -0.000001    0.02    108.83   
   692. A(H  15,C   4,F  28)          107.13 -0.000000   -0.01    107.12   
   693. A(H  15,C   4,S  35)          107.64 -0.000000    0.00    107.64   
   694. A(C   8,C   4,C  31)           54.72  0.000001   -0.01     54.71   
   695. A(C   8,C   4,O  39)           54.34  0.000000    0.01     54.35   
   696. A(F  29,C   4,O  34)            5.93 -0.000000    0.00      5.93   
   697. A(H  14,C   4,O  25)          144.02  0.000000    0.01    144.03   
   698. A(C   3,C   4,F  37)           60.49  0.000003   -0.02     60.46   
   699. A(C   3,C   4,O  34)           66.03  0.000003   -0.03     66.00   
   700. A(H  15,C   4,F  26)          109.74 -0.000000    0.02    109.76   
   701. A(H  14,C   4,F  28)          145.71 -0.000000    0.01    145.72   
   702. A(C   3,C   4,F  26)           61.58  0.000003   -0.01     61.58   
   703. A(C   8,C   4,F  37)           55.92  0.000001   -0.00     55.92   
   704. A(C   3,C   4,N  36)           63.79  0.000003   -0.03     63.76   
   705. A(F  26,C   4,O  34)            5.18 -0.000000    0.00      5.18   
   706. A(H  14,C   4,F  38)          147.49 -0.000000    0.00    147.50   
   707. A(C   8,C   4,O  34)           51.16  0.000000    0.02     51.18   
   708. A(C   8,C   4,F  38)           53.96  0.000001    0.02     53.97   
   709. A(C   3,C   4,F  38)           63.54  0.000003   -0.03     63.51   
   710. A(C   8,C   4,F  26)           54.11  0.000001   -0.02     54.09   
   711. A(C   8,C   4,F  28)           52.54  0.000001    0.01     52.55   
   712. A(H  14,C   4,N  36)          146.21 -0.000000    0.00    146.22   
   713. A(H  15,C   4,C  33)          106.84 -0.000000   -0.00    106.84   
   714. A(C   8,C   4,C  33)           53.27  0.000001    0.01     53.27   
   715. A(C   3,C   4,C  33)           63.62  0.000003   -0.03     63.59   
   716. A(H  15,C   4,F  29)          109.61 -0.000001    0.02    109.64   
   717. A(H  14,C   4,F  32)          145.50 -0.000000   -0.00    145.50   
   718. A(C   3,C   4,F  32)           62.32  0.000003   -0.02     62.30   
   719. A(H  14,C   4,F  29)          143.70  0.000001   -0.02    143.68   
   720. A(C   3,C   4,F  29)           60.56  0.000003   -0.01     60.55   
   721. A(H  15,C   4,N  36)          106.71 -0.000000    0.00    106.71   
   722. A(C   8,C   4,N  36)           53.16  0.000001    0.01     53.17   
   723. A(H  14,C   4,O  27)          144.14  0.000000    0.01    144.14   
   724. A(H  15,C   4,O  27)          108.71 -0.000000   -0.00    108.70   
   725. A(C   8,C   4,O  27)           52.13  0.000001   -0.00     52.12   
   726. A(H  15,C   4,F  37)          107.97 -0.000000    0.03    107.99   
   727. A(H  15,C   4,O  25)          108.67 -0.000001   -0.01    108.66   
   728. A(H  16,C   5,C  31)          104.56 -0.000001    0.00    104.57   
   729. A(N   0,C   5,C  31)           22.61 -0.000002    0.00     22.62   
   730. A(N   0,C   5,F  38)           25.92 -0.000002    0.01     25.93   
   731. A(H  16,C   5,F  38)          101.23  0.000000   -0.01    101.22   
   732. A(N   1,C   5,F  26)          128.22  0.000001   -0.01    128.21   
   733. A(H  16,C   5,O  25)          103.70 -0.000000   -0.01    103.69   
   734. A(N   1,C   5,O  25)          129.32  0.000001    0.01    129.32   
   735. A(N   1,C   5,F  28)          130.76  0.000001    0.00    130.77   
   736. A(H  16,C   5,O  27)          103.84 -0.000000   -0.01    103.83   
   737. A(H  16,C   5,S  35)          103.11 -0.000000   -0.00    103.11   
   738. A(N   1,C   5,H  16)          125.54  0.000001   -0.00    125.54   
   739. A(N   1,C   5,F  38)          132.28  0.000001    0.00    132.28   
   740. A(N   1,C   5,F  32)          130.21  0.000001   -0.00    130.21   
   741. A(N   0,C   5,C  33)           25.08 -0.000002    0.01     25.09   
   742. A(H  16,C   5,F  32)          103.37 -0.000000   -0.01    103.36   
   743. A(N   0,C   5,F  32)           23.84 -0.000002    0.01     23.85   
   744. A(H  16,C   5,F  29)          105.43 -0.000001    0.01    105.43   
   745. A(N   1,C   5,F  29)          128.30  0.000001   -0.01    128.28   
   746. A(N   0,C   5,F  29)           21.68 -0.000002    0.00     21.68   
   747. A(N   1,C   5,C  33)          131.02  0.000001    0.00    131.02   
   748. A(N   1,C   5,S  35)          130.29  0.000001   -0.00    130.28   
   749. A(N   0,C   5,O  25)           24.59 -0.000002    0.02     24.61   
   750. A(N   0,C   5,O  34)           26.93 -0.000002    0.02     26.95   
   751. A(N   1,C   5,O  34)          131.72  0.000001    0.01    131.72   
   752. A(N   1,C   5,S  30)          130.73  0.000001    0.00    130.74   
   753. A(N   0,C   5,S  30)           25.52 -0.000002    0.01     25.53   
   754. A(H  16,C   5,O  39)          102.34 -0.000000    0.00    102.34   
   755. A(N   0,C   5,H  16)          125.49 -0.000004    0.01    125.50   
   756. A(H  16,C   5,O  34)          101.20 -0.000000   -0.02    101.18   
   757. A(F  29,C   5,O  34)            5.52 -0.000000    0.00      5.52   
   758. A(N   0,C   5,S  35)           24.40 -0.000002    0.01     24.41   
   759. A(N   1,C   5,O  39)          131.21  0.000001   -0.01    131.21   
   760. A(N   0,C   5,O  39)           24.82 -0.000002    0.00     24.83   
   761. A(H  16,C   5,F  26)          105.34 -0.000001    0.00    105.34   
   762. A(N   0,C   5,F  26)           22.10 -0.000002    0.01     22.11   
   763. A(N   1,C   5,C  31)          129.09  0.000001   -0.01    129.08   
   764. A(N   0,C   5,F  28)           25.20 -0.000002    0.01     25.21   
   765. A(H  16,C   5,S  30)          102.40  0.000000   -0.01    102.38   
   766. A(O  34,C   5,F  37)            5.23 -0.000000    0.00      5.24   
   767. A(N   0,C   5,O  27)           24.23 -0.000002    0.01     24.24   
   768. A(H  16,C   5,N  36)          102.18 -0.000000   -0.01    102.17   
   769. A(N   1,C   5,N  36)          131.17  0.000001   -0.00    131.17   
   770. A(N   0,C   5,N  36)           25.33 -0.000002    0.01     25.34   
   771. A(H  16,C   5,F  28)          102.50  0.000000   -0.01    102.49   
   772. A(H  16,C   5,C  33)          102.37 -0.000000   -0.01    102.36   
   773. A(H  16,C   5,F  37)          104.03 -0.000001    0.01    104.04   
   774. A(N   1,C   5,F  37)          129.81  0.000001   -0.02    129.79   
   775. A(N   0,C   5,F  37)           22.72 -0.000002   -0.00     22.72   
   776. A(N   0,C   5,N   1)          108.96  0.000003   -0.01    108.95   
   777. A(N   1,C   5,O  27)          129.30  0.000001    0.00    129.31   
   778. A(H  17,C   6,F  38)           40.85  0.000000   -0.00     40.85   
   779. A(H  17,C   6,O  27)           38.80  0.000000    0.00     38.80   
   780. A(C   7,C   6,O  27)          163.06  0.000002   -0.01    163.06   
   781. A(N   0,C   6,O  27)           85.15 -0.000000   -0.00     85.15   
   782. A(N   0,C   6,F  38)           82.52  0.000000    0.00     82.52   
   783. A(H  17,C   6,F  29)           36.64  0.000001   -0.01     36.63   
   784. A(C   7,C   6,F  29)          163.70  0.000002   -0.02    163.68   
   785. A(N   0,C   6,F  29)           86.59 -0.000001    0.01     86.60   
   786. A(N   0,C   6,H  17)          122.17  0.000001   -0.00    122.17   
   787. A(H  17,C   6,F  26)           36.83  0.000001   -0.01     36.83   
   788. A(C   7,C   6,F  26)          163.16  0.000002   -0.02    163.14   
   789. A(N   0,C   6,F  26)           86.63 -0.000001    0.01     86.64   
   790. A(C   7,C   6,O  39)          165.71  0.000001   -0.01    165.70   
   791. A(H  17,C   6,F  28)           39.80  0.000000    0.00     39.80   
   792. A(C   7,C   6,O  25)          162.68  0.000002   -0.00    162.67   
   793. A(C   7,C   6,N  36)          165.02  0.000001   -0.01    165.01   
   794. A(O  34,C   6,F  37)            5.30 -0.000000    0.00      5.30   
   795. A(H  17,C   6,O  39)           39.89  0.000000   -0.01     39.88   
   796. A(C   7,C   6,F  28)          164.38  0.000001   -0.00    164.37   
   797. A(N   0,C   6,F  28)           83.93 -0.000000   -0.00     83.93   
   798. A(H  17,C   6,F  37)           37.85  0.000001   -0.02     37.83   
   799. A(C   7,C   6,F  37)          165.32  0.000002   -0.02    165.30   
   800. A(N   0,C   6,F  37)           85.18 -0.000001    0.02     85.20   
   801. A(C   7,C   6,F  38)          166.27  0.000001   -0.00    166.27   
   802. A(C   7,C   6,F  32)          164.85  0.000001   -0.01    164.84   
   803. A(C   7,C   6,C  31)          164.18  0.000002   -0.02    164.16   
   804. A(H  17,C   6,F  32)           38.67  0.000000   -0.00     38.67   
   805. A(H  17,C   6,C  33)           39.84  0.000000   -0.00     39.84   
   806. A(N   0,C   6,C  33)           83.72 -0.000000   -0.00     83.72   
   807. A(H  17,C   6,C  31)           37.53  0.000001   -0.01     37.52   
   808. A(N   0,C   6,C  31)           85.76 -0.000001    0.01     85.78   
   809. A(N   0,C   6,F  32)           84.68 -0.000000    0.00     84.68   
   810. A(H  17,C   6,O  34)           41.47  0.000000    0.01     41.48   
   811. A(C   7,C   6,O  34)          164.17  0.000001    0.00    164.17   
   812. A(N   0,C   6,O  34)           82.62 -0.000000   -0.01     82.62   
   813. A(H  17,C   6,O  25)           38.95  0.000000    0.01     38.96   
   814. A(N   0,C   6,O  25)           85.15 -0.000001   -0.01     85.15   
   815. A(C   7,C   6,H  17)          130.63  0.000000    0.01    130.64   
   816. A(F  29,C   6,O  34)            5.53 -0.000000    0.00      5.54   
   817. A(H  17,C   6,S  30)           40.11  0.000000    0.00     40.11   
   818. A(C   7,C   6,S  30)          164.06  0.000001   -0.00    164.05   
   819. A(H  17,C   6,S  35)           39.24  0.000000   -0.00     39.23   
   820. A(C   7,C   6,S  35)          164.50  0.000001   -0.01    164.50   
   821. A(N   0,C   6,S  35)           84.34 -0.000000    0.00     84.34   
   822. A(N   0,C   6,S  30)           83.78 -0.000000   -0.00     83.77   
   823. A(N   0,C   6,C   7)          107.20 -0.000001   -0.01    107.19   
   824. A(N   0,C   6,N  36)           83.44 -0.000000    0.00     83.45   
   825. A(C   7,C   6,C  33)          164.97  0.000001   -0.00    164.97   
   826. A(H  17,C   6,N  36)           40.16  0.000000   -0.00     40.16   
   827. A(N   0,C   6,O  39)           83.46 -0.000000    0.01     83.47   
   828. A(H  18,C   7,O  34)          120.73  0.000001    0.01    120.74   
   829. A(H  18,C   7,F  32)          118.96  0.000001    0.00    118.96   
   830. A(O  34,C   7,F  37)            5.18 -0.000000    0.00      5.18   
   831. A(N   1,C   7,S  35)          117.66 -0.000001   -0.00    117.66   
   832. A(C   6,C   7,F  29)           15.89 -0.000002    0.02     15.91   
   833. A(C   6,C   7,F  28)           15.27 -0.000001    0.00     15.27   
   834. A(N   1,C   7,F  29)          120.03 -0.000002    0.01    120.04   
   835. A(H  18,C   7,F  38)          121.04  0.000000    0.00    121.04   
   836. A(N   1,C   7,F  38)          115.99 -0.000001   -0.00    115.98   
   837. A(C   6,C   7,O  27)           16.51 -0.000002    0.01     16.52   
   838. A(N   1,C   7,O  27)          118.29 -0.000001   -0.01    118.29   
   839. A(H  18,C   7,C  33)          119.83  0.000001    0.01    119.83   
   840. A(C   6,C   7,C  33)           14.68 -0.000001    0.00     14.68   
   841. A(N   1,C   7,C  33)          117.08 -0.000001   -0.01    117.08   
   842. A(C   6,C   7,F  32)           14.80 -0.000001    0.00     14.80   
   843. A(N   1,C   7,F  32)          118.12 -0.000001   -0.00    118.12   
   844. A(H  18,C   7,F  28)          119.57  0.000001    0.01    119.58   
   845. A(H  18,C   7,O  27)          118.37  0.000001    0.01    118.37   
   846. A(C   6,C   7,S  35)           15.11 -0.000001    0.01     15.12   
   847. A(F  29,C   7,O  34)            5.40 -0.000000    0.00      5.40   
   848. A(C   6,C   7,O  34)           15.46 -0.000001   -0.00     15.46   
   849. A(N   1,C   7,O  34)          115.75 -0.000001   -0.01    115.74   
   850. A(N   1,C   7,O  25)          118.24 -0.000001   -0.01    118.23   
   851. A(H  18,C   7,F  29)          117.16  0.000001   -0.01    117.15   
   852. A(H  18,C   7,S  30)          119.68  0.000001    0.01    119.69   
   853. A(C   6,C   7,S  30)           15.57 -0.000001    0.00     15.57   
   854. A(N   1,C   7,S  30)          116.98 -0.000001   -0.01    116.97   
   855. A(H  18,C   7,O  39)          120.16  0.000001   -0.00    120.16   
   856. A(C   6,C   7,O  39)           13.93 -0.000001    0.01     13.94   
   857. A(N   1,C   7,O  39)          116.90 -0.000001    0.00    116.90   
   858. A(C   6,C   7,F  38)           13.41 -0.000001    0.00     13.41   
   859. A(H  18,C   7,F  26)          117.06  0.000001   -0.01    117.05   
   860. A(C   6,C   7,F  26)           16.44 -0.000002    0.02     16.45   
   861. A(N   1,C   7,F  26)          119.98 -0.000001    0.00    119.98   
   862. A(H  18,C   7,N  36)          120.09  0.000001    0.00    120.09   
   863. A(C   6,C   7,N  36)           14.62 -0.000001    0.01     14.63   
   864. A(N   1,C   7,N  36)          116.78 -0.000001   -0.00    116.78   
   865. A(C   6,C   7,O  25)           16.91 -0.000002    0.00     16.92   
   866. A(N   1,C   7,C   6)          107.05 -0.000000    0.00    107.05   
   867. A(H  18,C   7,O  25)          118.29  0.000001    0.01    118.30   
   868. A(N   1,C   7,F  28)          117.21 -0.000001   -0.01    117.21   
   869. A(H  18,C   7,F  37)          118.57  0.000001   -0.01    118.56   
   870. A(C   6,C   7,F  37)           14.32 -0.000001    0.02     14.34   
   871. A(N   1,C   7,F  37)          118.75 -0.000002    0.01    118.76   
   872. A(C   6,C   7,H  18)          130.81  0.000000   -0.01    130.81   
   873. A(H  18,C   7,S  35)          119.24  0.000001   -0.00    119.24   
   874. A(H  18,C   7,C  31)          117.94  0.000001   -0.01    117.93   
   875. A(C   6,C   7,C  31)           15.43 -0.000002    0.02     15.45   
   876. A(N   1,C   7,C  31)          119.19 -0.000002    0.01    119.20   
   877. A(N   1,C   7,H  18)          122.14 -0.000000    0.00    122.14   
   878. A(H  21,C   8,F  38)          118.88 -0.000000    0.01    118.90   
   879. A(H  20,C   8,F  38)           32.60  0.000001   -0.01     32.59   
   880. A(H  19,C   8,F  38)           75.20  0.000000    0.00     75.20   
   881. A(C   4,C   8,F  38)          124.74 -0.000001   -0.02    124.72   
   882. A(H  21,C   8,F  32)          120.15 -0.000000    0.00    120.15   
   883. A(H  20,C   8,F  32)           34.74  0.000001    0.00     34.74   
   884. A(H  19,C   8,F  32)           73.07  0.000000   -0.00     73.07   
   885. A(C   4,C   8,F  32)          124.47 -0.000001   -0.00    124.47   
   886. A(H  21,C   8,C  33)          118.82 -0.000000    0.01    118.83   
   887. A(H  20,C   8,C  33)           33.97  0.000001   -0.01     33.96   
   888. A(H  19,C   8,C  33)           73.83  0.000000    0.00     73.84   
   889. A(C   4,C   8,C  33)          125.44 -0.000001   -0.01    125.43   
   890. A(H  21,C   8,F  26)          120.98  0.000000   -0.01    120.97   
   891. A(C   4,C   8,F  26)          124.52 -0.000001    0.02    124.54   
   892. A(H  21,C   8,S  35)          119.43 -0.000000    0.00    119.43   
   893. A(H  19,C   8,S  35)           73.06  0.000001   -0.00     73.06   
   894. A(H  19,C   8,F  26)           70.97  0.000001   -0.01     70.95   
   895. A(H  20,C   8,N  36)           33.83  0.000001   -0.00     33.82   
   896. A(H  19,C   8,N  36)           73.97  0.000000    0.00     73.98   
   897. A(C   4,C   8,N  36)          125.48 -0.000001   -0.01    125.47   
   898. A(H  21,C   8,F  37)          122.08 -0.000000    0.01    122.08   
   899. A(H  20,C   8,F  37)           35.07  0.000000    0.02     35.09   
   900. A(H  19,C   8,F  37)           72.85  0.000001   -0.03     72.82   
   901. A(C   4,C   8,F  37)          122.67 -0.000001    0.00    122.68   
   902. A(H  21,C   8,F  29)          122.07 -0.000000   -0.01    122.06   
   903. A(H  20,C   8,S  35)           34.74  0.000001   -0.00     34.74   
   904. A(H  20,C   8,F  29)           36.72  0.000000    0.02     36.74   
   905. A(H  19,C   8,F  29)           71.17  0.000001   -0.02     71.14   
   906. A(C   4,C   8,F  29)          123.38 -0.000001    0.02    123.39   
   907. A(H  21,C   8,O  27)          118.61  0.000000   -0.01    118.60   
   908. A(H  20,C   8,O  27)           35.88  0.000001   -0.01     35.87   
   909. A(H  19,C   8,O  27)           71.93  0.000001    0.01     71.93   
   910. A(H  21,C   8,N  36)          118.71 -0.000000    0.01    118.72   
   911. A(C   4,C   8,O  27)          126.49 -0.000001    0.00    126.49   
   912. A(H  20,C   8,H  21)          107.77 -0.000004    0.01    107.77   
   913. A(F  26,C   8,O  34)            5.29 -0.000000    0.00      5.29   
   914. A(O  34,C   8,F  37)            5.69 -0.000000    0.00      5.70   
   915. A(C  31,C   8,O  34)            5.09  0.000000    0.00      5.09   
   916. A(F  29,C   8,O  34)            6.09 -0.000000    0.00      6.09   
   917. A(H  21,C   8,O  34)          116.40 -0.000000    0.01    116.41   
   918. A(H  20,C   8,O  34)           33.47  0.000001   -0.02     33.45   
   919. A(H  19,C   8,O  34)           74.44  0.000001    0.02     74.46   
   920. A(C   4,C   8,O  34)          127.55 -0.000000   -0.02    127.54   
   921. A(H  21,C   8,O  25)          117.79  0.000000   -0.01    117.78   
   922. A(H  20,C   8,O  25)           35.94  0.000000   -0.02     35.92   
   923. A(H  19,C   8,H  21)          107.77  0.000008   -0.01    107.76   
   924. A(H  19,C   8,O  25)           71.91  0.000001    0.01     71.92   
   925. A(C   4,C   8,O  25)          127.30 -0.000001    0.00    127.30   
   926. A(C   4,C   8,H  21)          111.04 -0.000002    0.00    111.05   
   927. A(H  21,C   8,F  28)          118.20  0.000000    0.00    118.21   
   928. A(H  20,C   8,F  28)           34.31  0.000001   -0.01     34.30   
   929. A(H  19,C   8,F  28)           73.51  0.000000    0.01     73.52   
   930. A(C   4,C   8,F  28)          126.20 -0.000001   -0.01    126.19   
   931. A(H  21,C   8,O  39)          119.93 -0.000000    0.01    119.94   
   932. A(H  19,C   8,H  20)          107.80  0.000001   -0.00    107.80   
   933. A(H  20,C   8,O  39)           33.69  0.000001    0.01     33.70   
   934. A(H  21,C   8,C  31)          121.24 -0.000000   -0.00    121.24   
   935. A(H  20,C   8,C  31)           35.90  0.000000    0.01     35.92   
   936. A(H  19,C   8,O  39)           74.12  0.000000   -0.01     74.11   
   937. A(H  19,C   8,C  31)           71.94  0.000001   -0.02     71.93   
   938. A(C   4,C   8,O  39)          124.22 -0.000001   -0.01    124.21   
   939. A(H  21,C   8,S  30)          117.77  0.000000    0.00    117.77   
   940. A(C   4,C   8,C  31)          123.87 -0.000001    0.01    123.88   
   941. A(H  20,C   8,S  30)           34.39  0.000001   -0.01     34.38   
   942. A(C   4,C   8,H  20)          111.12 -0.000002   -0.00    111.11   
   943. A(H  19,C   8,S  30)           73.44  0.000000    0.01     73.45   
   944. A(C   4,C   8,S  30)          126.66 -0.000001   -0.01    126.65   
   945. A(C   4,C   8,H  19)          111.18 -0.000000    0.00    111.18   
   946. A(C   4,C   8,S  35)          125.19 -0.000001   -0.00    125.18   
   947. A(H  20,C   8,F  26)           36.86  0.000000    0.01     36.87   
   948. A(N   1,C   9,C  33)           11.74  0.000000    0.00     11.74   
   949. A(H  24,C   9,F  28)          121.68 -0.000001    0.00    121.69   
   950. A(H  22,C   9,F  28)          102.02 -0.000000   -0.01    102.01   
   951. A(N   1,C   9,F  28)           12.17  0.000000    0.00     12.17   
   952. A(H  23,C   9,F  38)          105.33 -0.000001    0.01    105.34   
   953. A(H  22,C   9,F  38)          100.80 -0.000000   -0.00    100.80   
   954. A(N   1,C   9,F  38)           11.96 -0.000000   -0.00     11.96   
   955. A(H  23,C   9,O  25)          102.13 -0.000001    0.00    102.13   
   956. A(H  22,C   9,F  32)          102.86 -0.000001   -0.00    102.85   
   957. A(N   1,C   9,F  32)           10.49  0.000000    0.00     10.49   
   958. A(O  34,C   9,F  37)            5.02 -0.000000    0.00      5.03   
   959. A(H  23,C   9,C  33)          104.28 -0.000001    0.01    104.29   
   960. A(F  29,C   9,O  34)            5.28 -0.000000    0.00      5.28   
   961. A(H  24,C   9,O  34)          123.46 -0.000001    0.00    123.46   
   962. A(H  23,C   9,O  34)          102.98 -0.000001    0.01    102.99   
   963. A(N   1,C   9,O  34)           13.98  0.000000    0.00     13.98   
   964. A(H  24,C   9,O  25)          122.07 -0.000001    0.01    122.08   
   965. A(H  22,C   9,O  25)          103.13 -0.000001   -0.01    103.12   
   966. A(N   1,C   9,O  25)           12.56  0.000000    0.01     12.56   
   967. A(H  24,C   9,S  30)          122.21 -0.000001    0.00    122.21   
   968. A(H  22,C   9,S  30)          101.88 -0.000000   -0.01    101.87   
   969. A(H  22,C   9,F  37)          103.47 -0.000001    0.01    103.49   
   970. A(H  24,C   9,F  26)          119.25 -0.000001    0.01    119.26   
   971. A(H  23,C   9,F  26)          103.61 -0.000001   -0.01    103.60   
   972. A(H  22,C   9,F  26)          104.71 -0.000001    0.00    104.72   
   973. A(N   1,C   9,F  26)            9.75  0.000000    0.01      9.75   
   974. A(H  22,C   9,C  33)          101.89 -0.000000   -0.00    101.88   
   975. A(H  24,C   9,N  36)          121.48 -0.000001   -0.00    121.47   
   976. A(H  23,C   9,N  36)          104.21 -0.000001    0.01    104.22   
   977. A(H  22,C   9,N  36)          101.66 -0.000001   -0.00    101.66   
   978. A(N   1,C   9,N  36)           12.02  0.000000   -0.00     12.01   
   979. A(H  24,C   9,F  37)          118.44 -0.000000   -0.00    118.44   
   980. A(H  23,C   9,F  37)          105.69 -0.000001   -0.01    105.69   
   981. A(N   1,C   9,F  37)            8.97  0.000000   -0.00      8.97   
   982. A(H  24,C   9,F  32)          119.99 -0.000001    0.00    120.00   
   983. A(H  23,C   9,F  28)          103.65 -0.000001    0.01    103.65   
   984. A(H  24,C   9,C  31)          119.16 -0.000001    0.00    119.16   
   985. A(H  22,C   9,C  31)          103.96 -0.000001    0.01    103.97   
   986. A(N   1,C   9,C  31)            9.62  0.000000    0.00      9.62   
   987. A(H  23,C   9,H  24)          109.92  0.000002   -0.00    109.92   
   988. A(H  22,C   9,H  24)          109.46  0.000001   -0.00    109.46   
   989. A(N   1,C   9,H  24)          109.54 -0.000001    0.00    109.54   
   990. A(H  22,C   9,H  23)          109.44 -0.000001    0.00    109.44   
   991. A(H  22,C   9,O  34)          100.72 -0.000001   -0.01    100.71   
   992. A(H  24,C   9,S  35)          120.88 -0.000001    0.00    120.88   
   993. A(H  23,C   9,S  35)          104.00 -0.000001    0.00    104.00   
   994. A(H  22,C   9,S  35)          102.55 -0.000001    0.00    102.55   
   995. A(N   1,C   9,S  35)           11.36  0.000000   -0.00     11.36   
   996. A(H  24,C   9,O  27)          121.55 -0.000001    0.01    121.56   
   997. A(N   1,C   9,H  23)          109.46 -0.000000   -0.00    109.46   
   998. A(H  23,C   9,O  27)          102.60 -0.000001    0.00    102.60   
   999. A(H  22,C   9,O  27)          103.22 -0.000001   -0.00    103.22   
  1000. A(N   1,C   9,O  27)           12.02  0.000000    0.00     12.03   
  1001. A(H  24,C   9,F  29)          118.45 -0.000000    0.00    118.45   
  1002. A(H  23,C   9,F  29)          104.41 -0.000001   -0.01    104.40   
  1003. A(H  22,C   9,F  29)          104.78 -0.000001    0.01    104.79   
  1004. A(N   1,C   9,F  29)            8.92  0.000000    0.00      8.92   
  1005. A(N   1,C   9,H  22)          108.99 -0.000001    0.01    109.00   
  1006. A(H  24,C   9,O  39)          120.55 -0.000001   -0.00    120.55   
  1007. A(H  23,C   9,O  39)          105.07 -0.000001    0.00    105.08   
  1008. A(H  22,C   9,O  39)          101.80 -0.000001    0.01    101.80   
  1009. A(N   1,C   9,O  39)           11.16  0.000000   -0.01     11.16   
  1010. A(H  23,C   9,F  32)          104.64 -0.000001    0.00    104.65   
  1011. A(H  24,C   9,F  38)          121.21 -0.000001   -0.00    121.21   
  1012. A(H  23,C   9,S  30)          103.21 -0.000001    0.01    103.22   
  1013. A(N   1,C   9,S  30)           12.69  0.000000    0.00     12.69   
  1014. A(H  24,C   9,C  33)          121.21 -0.000001    0.00    121.21   
  1015. A(H  23,C   9,C  31)          104.45 -0.000001   -0.01    104.45   
  1016. A(C   2,O  25,S  30)           83.65 -0.000003   -0.01     83.64   
  1017. A(C   9,O  25,S  30)           85.15 -0.000003   -0.01     85.13   
  1018. A(C   4,O  25,S  30)           84.22 -0.000003    0.01     84.23   
  1019. A(N   1,O  25,S  30)           85.16 -0.000003   -0.01     85.15   
  1020. A(C   7,O  25,S  30)           86.21 -0.000003   -0.01     86.19   
  1021. A(C   5,O  25,S  30)           84.15 -0.000003   -0.01     84.14   
  1022. A(C   3,O  25,S  30)           84.22 -0.000003   -0.00     84.22   
  1023. A(C   6,O  25,S  30)           85.83 -0.000003   -0.01     85.81   
  1024. A(C   8,O  25,S  30)           84.74 -0.000003    0.02     84.76   
  1025. A(N   0,O  25,S  30)           84.51 -0.000003   -0.01     84.50   
  1026. A(C   6,F  26,C  31)           45.34 -0.000000   -0.00     45.33   
  1027. A(C   3,F  26,C  31)           44.10 -0.000000    0.01     44.11   
  1028. A(N   0,F  26,C  31)           44.12 -0.000000    0.00     44.12   
  1029. A(C   8,F  26,C  31)           45.26 -0.000000    0.03     45.29   
  1030. A(C   9,F  26,C  31)           44.85 -0.000000    0.00     44.85   
  1031. A(N   1,F  26,C  31)           44.80 -0.000000    0.00     44.80   
  1032. A(C   2,F  26,C  31)           43.29 -0.000000    0.00     43.29   
  1033. A(C   7,F  26,C  31)           45.74 -0.000000   -0.00     45.74   
  1034. A(C   5,F  26,C  31)           43.85 -0.000000    0.00     43.85   
  1035. A(C   4,F  26,C  31)           44.44 -0.000000    0.02     44.47   
  1036. A(C   6,O  27,S  35)          107.02  0.000001    0.01    107.03   
  1037. A(N   1,O  27,S  35)          106.88  0.000001    0.01    106.89   
  1038. A(N   0,O  27,S  35)          106.20  0.000001    0.01    106.22   
  1039. A(C   7,O  27,S  35)          107.43  0.000001    0.01    107.44   
  1040. A(C   3,O  27,S  35)          106.73  0.000001    0.02    106.75   
  1041. A(C   5,O  27,S  35)          106.15  0.000001    0.02    106.17   
  1042. A(C   8,O  27,S  35)          108.76  0.000001    0.04    108.80   
  1043. A(C   9,O  27,S  35)          107.05  0.000001    0.01    107.06   
  1044. A(C   2,O  27,S  35)          105.54  0.000001    0.02    105.55   
  1045. A(C   4,O  27,S  35)          107.60  0.000001    0.03    107.63   
  1046. A(C   9,F  28,C  33)           30.33 -0.000001    0.01     30.33   
  1047. A(N   1,F  28,C  33)           30.13 -0.000001    0.01     30.14   
  1048. A(C   7,F  28,C  33)           30.33 -0.000001    0.00     30.34   
  1049. A(C   5,F  28,C  33)           29.73 -0.000001    0.01     29.74   
  1050. A(C   6,F  28,C  33)           30.02 -0.000001    0.00     30.03   
  1051. A(N   0,F  28,C  33)           29.63 -0.000001    0.01     29.64   
  1052. A(C   2,F  28,C  33)           29.26 -0.000001    0.01     29.27   
  1053. A(C   4,F  28,C  33)           31.63 -0.000001    0.02     31.65   
  1054. A(C   3,F  28,C  33)           30.49 -0.000001    0.01     30.51   
  1055. A(C   8,F  28,C  33)           32.87 -0.000001    0.02     32.89   
  1056. A(C   6,F  29,C   8)            5.09  0.000000   -0.01      5.08   
  1057. A(C   6,F  29,C  31)          140.79  0.000005   -0.01    140.78   
  1058. A(N   1,F  29,C  31)          139.83  0.000005   -0.01    139.82   
  1059. A(N   0,F  29,C  31)          139.43  0.000005   -0.01    139.41   
  1060. A(C   3,F  29,C  31)          138.09  0.000005   -0.01    138.09   
  1061. A(C   7,F  29,C   8)            5.14  0.000000   -0.01      5.13   
  1062. A(C   7,F  29,C  31)          141.01  0.000005   -0.01    141.00   
  1063. A(C   5,F  29,C  31)          138.89  0.000005   -0.01    138.87   
  1064. A(C   8,F  29,C  31)          136.27  0.000004    0.01    136.28   
  1065. A(C   9,F  29,C  31)          139.64  0.000005   -0.01    139.63   
  1066. A(C   2,F  29,C  31)          138.65  0.000005   -0.02    138.63   
  1067. A(C   4,F  29,C  31)          136.94  0.000004    0.00    136.94   
  1068. A(O  34,S  30,N  36)          111.08 -0.000002    0.02    111.10   
  1069. A(C  33,S  30,N  36)           98.91  0.000002    0.01     98.92   
  1070. A(O  25,S  30,N  36)          116.91  0.000006   -0.07    116.85   
  1071. A(C   2,S  30,N  36)           39.29 -0.000000   -0.02     39.27   
  1072. A(C   2,S  30,O  34)           99.52  0.000001   -0.06     99.46   
  1073. A(C   9,S  30,N  36)           40.47 -0.000000   -0.02     40.44   
  1074. A(C   2,S  30,C  33)          137.80  0.000001    0.01    137.81   
  1075. A(C   9,S  30,C  33)          138.79  0.000001    0.00    138.79   
  1076. A(C   2,S  30,O  25)           94.82  0.000004    0.01     94.83   
  1077. A(C   9,S  30,O  25)           93.45  0.000004    0.01     93.46   
  1078. A(N   1,S  30,O  25)           93.40  0.000004    0.01     93.42   
  1079. A(O  25,S  30,O  34)          118.84 -0.000003    0.02    118.86   
  1080. A(N   1,S  30,N  36)           40.25 -0.000000   -0.03     40.22   
  1081. A(N   1,S  30,O  34)          100.15  0.000001   -0.05    100.10   
  1082. A(C   4,S  30,N  36)           41.75 -0.000001   -0.01     41.74   
  1083. A(N   1,S  30,C  33)          138.53  0.000001    0.00    138.53   
  1084. A(C   4,S  30,O  34)           97.51  0.000001   -0.04     97.46   
  1085. A(C   4,S  30,C  33)          140.41  0.000001    0.01    140.42   
  1086. A(C   4,S  30,O  25)           94.25  0.000004   -0.01     94.24   
  1087. A(O  25,S  30,C  33)          104.33 -0.000004    0.05    104.38   
  1088. A(C   7,S  30,O  34)          101.21  0.000001   -0.05    101.16   
  1089. A(C   7,S  30,C  33)          138.43  0.000001   -0.00    138.43   
  1090. A(C   7,S  30,O  25)           92.34  0.000004    0.01     92.35   
  1091. A(C   5,S  30,N  36)           39.82 -0.000000   -0.02     39.80   
  1092. A(C   5,S  30,O  34)           99.45  0.000001   -0.06     99.40   
  1093. A(C   5,S  30,C  33)          138.29  0.000001    0.00    138.30   
  1094. A(C   5,S  30,O  25)           94.39  0.000004    0.01     94.40   
  1095. A(C   7,S  30,N  36)           40.46 -0.000000   -0.03     40.43   
  1096. A(C   3,S  30,N  36)           40.57 -0.000001   -0.02     40.56   
  1097. A(C   3,S  30,O  34)           98.81  0.000001   -0.05     98.76   
  1098. A(C   3,S  30,C  33)          139.10  0.000001    0.01    139.11   
  1099. A(C   3,S  30,O  25)           94.23  0.000004    0.00     94.23   
  1100. A(C   6,S  30,N  36)           40.12 -0.000000   -0.03     40.09   
  1101. A(C   6,S  30,O  34)          101.17  0.000001   -0.05    101.12   
  1102. A(C  33,S  30,O  34)          103.27  0.000001   -0.02    103.25   
  1103. A(C   6,S  30,C  33)          138.15  0.000001   -0.00    138.15   
  1104. A(C   6,S  30,O  25)           92.69  0.000004    0.01     92.70   
  1105. A(C   8,S  30,N  36)           43.03 -0.000001   -0.01     43.03   
  1106. A(C   8,S  30,O  34)           96.75  0.000000   -0.04     96.71   
  1107. A(C   8,S  30,C  33)          141.72  0.000001    0.01    141.73   
  1108. A(C   8,S  30,O  25)           93.70  0.000004   -0.02     93.68   
  1109. A(N   0,S  30,N  36)           39.70 -0.000000   -0.02     39.68   
  1110. A(N   0,S  30,O  34)          100.04  0.000001   -0.06     99.98   
  1111. A(N   0,S  30,C  33)          138.07  0.000001    0.00    138.07   
  1112. A(N   0,S  30,O  25)           94.00  0.000004    0.01     94.01   
  1113. A(C   9,S  30,O  34)           99.85  0.000001   -0.05     99.80   
  1114. A(C   5,C  31,S  35)           71.44 -0.000002   -0.01     71.43   
  1115. A(C   5,C  31,F  29)           40.18 -0.000004    0.01     40.19   
  1116. A(C   5,C  31,F  26)          135.18  0.000000   -0.00    135.18   
  1117. A(F  29,C  31,F  37)          107.67  0.000004   -0.01    107.65   
  1118. A(F  26,C  31,F  37)          108.07 -0.000002   -0.00    108.07   
  1119. A(C   2,C  31,F  37)          111.19  0.000003   -0.00    111.19   
  1120. A(C   2,C  31,S  35)           71.41 -0.000002   -0.02     71.40   
  1121. A(C   2,C  31,F  29)           40.37 -0.000004    0.01     40.39   
  1122. A(C   2,C  31,F  26)          135.70  0.000000   -0.00    135.70   
  1123. A(F  29,C  31,S  35)          109.76 -0.000008    0.00    109.76   
  1124. A(F  26,C  31,S  35)          112.06 -0.000003    0.03    112.09   
  1125. A(C   4,C  31,F  37)          113.42  0.000003    0.01    113.44   
  1126. A(C   4,C  31,S  35)           69.14 -0.000002   -0.00     69.14   
  1127. A(C   4,C  31,F  29)           42.04 -0.000004   -0.00     42.04   
  1128. A(C   4,C  31,F  26)          134.52  0.000000   -0.02    134.50   
  1129. A(C   9,C  31,F  37)          112.43  0.000003   -0.01    112.43   
  1130. A(C   9,C  31,S  35)           71.89 -0.000002   -0.01     71.88   
  1131. A(C   9,C  31,F  29)           39.48 -0.000004    0.01     39.49   
  1132. A(C   9,C  31,F  26)          134.20  0.000000   -0.00    134.20   
  1133. A(F  26,C  31,F  29)          107.88  0.000004   -0.01    107.87   
  1134. A(C   6,C  31,F  37)          112.38  0.000003   -0.01    112.37   
  1135. A(C   6,C  31,S  35)           73.04 -0.000002   -0.01     73.04   
  1136. A(C   6,C  31,F  29)           38.29 -0.000005    0.01     38.30   
  1137. A(C   6,C  31,F  26)          133.64  0.000000    0.00    133.64   
  1138. A(N   0,C  31,F  37)          111.73  0.000003   -0.01    111.72   
  1139. A(N   0,C  31,S  35)           71.96 -0.000002   -0.01     71.95   
  1140. A(N   0,C  31,F  29)           39.63 -0.000004    0.01     39.64   
  1141. A(N   0,C  31,F  26)          134.88  0.000000   -0.00    134.88   
  1142. A(C   3,C  31,F  37)          112.47  0.000003    0.00    112.47   
  1143. A(C   3,C  31,S  35)           70.51 -0.000002   -0.01     70.51   
  1144. A(C   3,C  31,F  29)           40.90 -0.000004    0.01     40.91   
  1145. A(C   3,C  31,F  26)          134.85  0.000000   -0.01    134.84   
  1146. A(C   8,C  31,F  37)          114.67  0.000003    0.02    114.68   
  1147. A(C   8,C  31,S  35)           68.20 -0.000003    0.01     68.21   
  1148. A(C   8,C  31,F  29)           42.69 -0.000004   -0.01     42.67   
  1149. A(N   1,C  31,F  37)          112.29  0.000003   -0.01    112.28   
  1150. A(C   8,C  31,F  26)          133.67  0.000000   -0.03    133.64   
  1151. A(N   1,C  31,S  35)           72.13 -0.000002   -0.01     72.12   
  1152. A(N   1,C  31,F  29)           39.27 -0.000004    0.01     39.28   
  1153. A(N   1,C  31,F  26)          134.22  0.000000   -0.00    134.22   
  1154. A(C   7,C  31,F  37)          112.72  0.000003   -0.01    112.71   
  1155. A(C   7,C  31,S  35)           73.13 -0.000002   -0.01     73.13   
  1156. A(C   7,C  31,F  29)           38.10 -0.000004    0.01     38.11   
  1157. A(C   7,C  31,F  26)          133.25  0.000000    0.00    133.25   
  1158. A(S  35,C  31,F  37)          111.25  0.000006   -0.01    111.24   
  1159. A(C   5,C  31,F  37)          111.69  0.000003   -0.00    111.69   
  1160. A(C   3,F  32,C  33)           91.29 -0.000001    0.01     91.30   
  1161. A(C   8,F  32,C  33)           89.07 -0.000002    0.02     89.09   
  1162. A(C   9,F  32,C  33)           92.47 -0.000001    0.00     92.48   
  1163. A(N   1,F  32,C  33)           92.73 -0.000001    0.00     92.73   
  1164. A(C   7,F  32,C  33)           93.66 -0.000001    0.01     93.66   
  1165. A(C   5,F  32,C  33)           92.11 -0.000001    0.00     92.12   
  1166. A(C   6,F  32,C  33)           93.61 -0.000001    0.01     93.62   
  1167. A(N   0,F  32,C  33)           92.62 -0.000001    0.00     92.63   
  1168. A(C   2,F  32,C  33)           92.15 -0.000001    0.00     92.15   
  1169. A(C   4,F  32,C  33)           89.97 -0.000001    0.01     89.98   
  1170. A(C   3,C  33,F  38)           92.50  0.000002   -0.01     92.50   
  1171. A(C   3,C  33,F  32)           87.29  0.000001   -0.01     87.29   
  1172. A(C   3,C  33,S  30)           39.61 -0.000001   -0.01     39.60   
  1173. A(C   3,C  33,F  28)          148.79  0.000001   -0.01    148.77   
  1174. A(C   8,C  33,F  38)           93.23  0.000002    0.01     93.24   
  1175. A(C   8,C  33,F  32)           89.51  0.000002   -0.02     89.50   
  1176. A(C   8,C  33,S  30)           37.06 -0.000001   -0.01     37.05   
  1177. A(C   8,C  33,F  28)          146.36  0.000001   -0.02    146.34   
  1178. A(C   9,C  33,F  38)           93.13  0.000002   -0.01     93.12   
  1179. A(C   9,C  33,F  32)           86.25  0.000001   -0.01     86.25   
  1180. A(N   1,C  33,F  38)           93.17  0.000002   -0.01     93.16   
  1181. A(N   1,C  33,F  32)           85.96  0.000001   -0.01     85.96   
  1182. A(N   1,C  33,S  30)           40.26 -0.000001   -0.00     40.26   
  1183. A(N   1,C  33,F  28)          149.21  0.000001   -0.01    149.20   
  1184. A(C   7,C  33,F  38)           94.16  0.000002   -0.01     94.15   
  1185. A(C   7,C  33,F  32)           85.02  0.000001   -0.01     85.01   
  1186. A(C   7,C  33,S  30)           40.34 -0.000001    0.00     40.34   
  1187. A(C   7,C  33,F  28)          148.99  0.000001   -0.00    148.99   
  1188. A(C   5,C  33,F  38)           92.24  0.000002   -0.01     92.23   
  1189. A(C   5,C  33,F  32)           86.56  0.000001   -0.00     86.55   
  1190. A(C   5,C  33,S  30)           40.48 -0.000001   -0.00     40.47   
  1191. A(C   5,C  33,F  28)          149.60  0.000001   -0.01    149.60   
  1192. A(S  30,C  33,F  32)          111.70  0.000001   -0.00    111.69   
  1193. A(F  28,C  33,F  32)          107.75 -0.000002    0.02    107.76   
  1194. A(F  28,C  33,S  30)          109.42  0.000001   -0.01    109.41   
  1195. A(C   6,C  33,F  38)           93.83  0.000002   -0.01     93.81   
  1196. A(C   6,C  33,F  32)           85.04  0.000001   -0.01     85.03   
  1197. A(C   6,C  33,S  30)           40.59 -0.000001    0.00     40.59   
  1198. A(C   6,C  33,F  28)          149.30  0.000001   -0.00    149.29   
  1199. A(N   0,C  33,F  38)           92.59  0.000002   -0.01     92.58   
  1200. A(N   0,C  33,F  32)           86.02  0.000001   -0.00     86.02   
  1201. A(N   0,C  33,S  30)           40.67 -0.000001   -0.00     40.67   
  1202. A(N   0,C  33,F  28)          149.70  0.000001   -0.01    149.69   
  1203. A(C   9,C  33,S  30)           40.03 -0.000001   -0.00     40.03   
  1204. A(C   9,C  33,F  28)          149.02  0.000001   -0.01    149.02   
  1205. A(C   2,C  33,F  38)           91.82  0.000002   -0.01     91.81   
  1206. A(C   2,C  33,F  32)           86.46  0.000001   -0.00     86.46   
  1207. A(C   2,C  33,S  30)           40.90 -0.000001   -0.01     40.89   
  1208. A(C   2,C  33,F  28)          150.06  0.000001   -0.01    150.05   
  1209. A(C   4,C  33,F  38)           92.60  0.000002    0.00     92.60   
  1210. A(C   4,C  33,F  32)           88.63  0.000002   -0.01     88.62   
  1211. A(C   4,C  33,S  30)           38.35 -0.000001   -0.01     38.34   
  1212. A(C   4,C  33,F  28)          147.63  0.000001   -0.02    147.62   
  1213. A(F  32,C  33,F  38)          108.06  0.000001   -0.01    108.05   
  1214. A(S  30,C  33,F  38)          112.03  0.000001   -0.01    112.02   
  1215. A(F  28,C  33,F  38)          107.72 -0.000003    0.01    107.73   
  1216. A(C   2,O  34,S  30)           78.98 -0.000001    0.06     79.04   
  1217. A(C   9,O  34,S  30)           78.77 -0.000001    0.05     78.82   
  1218. A(C   4,O  34,S  30)           80.97 -0.000001    0.04     81.01   
  1219. A(N   1,O  34,S  30)           78.44 -0.000001    0.05     78.49   
  1220. A(C   7,O  34,S  30)           77.36 -0.000001    0.05     77.41   
  1221. A(C   5,O  34,S  30)           79.11 -0.000001    0.06     79.17   
  1222. A(C   3,O  34,S  30)           79.65 -0.000001    0.05     79.70   
  1223. A(C   6,O  34,S  30)           77.38 -0.000001    0.05     77.43   
  1224. A(N   0,O  34,S  30)           78.50 -0.000001    0.06     78.55   
  1225. A(C   8,O  34,S  30)           81.70 -0.000001    0.04     81.74   
  1226. A(C   3,S  35,O  39)           48.35 -0.000000   -0.01     48.35   
  1227. A(C   3,S  35,N  36)          144.08  0.000003   -0.02    144.05   
  1228. A(C   3,S  35,C  31)          107.49  0.000002    0.01    107.49   
  1229. A(C   3,S  35,O  27)           71.70 -0.000000   -0.02     71.68   
  1230. A(C  31,S  35,N  36)          104.46 -0.000006    0.02    104.48   
  1231. A(O  27,S  35,N  36)          115.70 -0.000001    0.02    115.72   
  1232. A(C   8,S  35,O  39)           50.00 -0.000000    0.01     50.01   
  1233. A(C   8,S  35,N  36)          142.72  0.000002   -0.00    142.72   
  1234. A(C   7,S  35,O  39)           49.51  0.000000   -0.02     49.49   
  1235. A(C   7,S  35,N  36)          146.78  0.000003   -0.03    146.75   
  1236. A(C   8,S  35,C  31)          109.82  0.000003   -0.01    109.81   
  1237. A(C   7,S  35,C  31)          104.97  0.000002    0.00    104.97   
  1238. A(C   7,S  35,O  27)           71.11 -0.000000   -0.01     71.11   
  1239. A(C   8,S  35,O  27)           69.69 -0.000000   -0.04     69.65   
  1240. A(O  27,S  35,C  31)          104.05  0.000007   -0.02    104.03   
  1241. A(C   5,S  35,O  39)           47.84 -0.000000   -0.02     47.82   
  1242. A(C   5,S  35,N  36)          144.52  0.000003   -0.03    144.49   
  1243. A(C   5,S  35,C  31)          106.67  0.000002    0.01    106.69   
  1244. A(C   5,S  35,O  27)           72.38 -0.000000   -0.02     72.36   
  1245. A(C   2,S  35,O  39)           47.31 -0.000000   -0.02     47.29   
  1246. A(C   2,S  35,N  36)          144.31  0.000003   -0.03    144.28   
  1247. A(C   2,S  35,C  31)          106.61  0.000002    0.02    106.62   
  1248. A(C   2,S  35,O  27)           72.91 -0.000000   -0.02     72.90   
  1249. A(C   4,S  35,O  39)           48.95 -0.000000    0.00     48.95   
  1250. A(C   9,S  35,O  39)           48.76 -0.000000   -0.02     48.75   
  1251. A(C   4,S  35,N  36)          143.11  0.000002   -0.01    143.09   
  1252. A(C   9,S  35,N  36)          145.30  0.000003   -0.03    145.27   
  1253. A(C   9,S  35,C  31)          106.29  0.000002    0.01    106.30   
  1254. A(C   9,S  35,O  27)           71.55 -0.000000   -0.01     71.53   
  1255. A(C   4,S  35,C  31)          108.90  0.000003    0.00    108.90   
  1256. A(C   4,S  35,O  27)           70.86 -0.000000   -0.03     70.83   
  1257. A(C   6,S  35,O  39)           49.13  0.000000   -0.02     49.11   
  1258. A(C   6,S  35,N  36)          146.56  0.000003   -0.03    146.53   
  1259. A(C   6,S  35,C  31)          105.01  0.000002    0.01    105.02   
  1260. A(C   6,S  35,O  27)           71.48 -0.000000   -0.01     71.47   
  1261. A(N  36,S  35,O  39)          108.62  0.000002    0.00    108.62   
  1262. A(C  31,S  35,O  39)          102.77 -0.000002    0.00    102.77   
  1263. A(N   0,S  35,O  39)           48.05 -0.000000   -0.02     48.03   
  1264. A(N   0,S  35,N  36)          145.11  0.000003   -0.03    145.08   
  1265. A(N   0,S  35,C  31)          106.10  0.000002    0.01    106.12   
  1266. A(N   0,S  35,O  27)           72.29 -0.000000   -0.01     72.28   
  1267. A(O  27,S  35,O  39)          119.18 -0.000001   -0.02    119.15   
  1268. A(N   1,S  35,O  39)           48.70 -0.000000   -0.02     48.68   
  1269. A(N   1,S  35,N  36)          145.51  0.000003   -0.03    145.48   
  1270. A(N   1,S  35,C  31)          106.00  0.000002    0.01    106.01   
  1271. A(N   1,S  35,O  27)           71.67 -0.000000   -0.01     71.66   
  1272. A(S  30,N  36,S  35)          127.57 -0.000000    0.03    127.61   
  1273. A(C   6,N  36,S  35)           32.52 -0.000003    0.03     32.55   
  1274. A(C   6,N  36,S  30)          138.79  0.000000    0.03    138.83   
  1275. A(N   0,N  36,S  35)           33.93 -0.000003    0.03     33.96   
  1276. A(N   0,N  36,S  30)          139.22  0.000001    0.02    139.25   
  1277. A(C   3,N  36,S  35)           34.90 -0.000003    0.02     34.92   
  1278. A(C   3,N  36,S  30)          138.29  0.000001    0.02    138.31   
  1279. A(C   9,N  36,S  35)           33.81 -0.000003    0.03     33.84   
  1280. A(C   9,N  36,S  30)          138.51  0.000001    0.02    138.53   
  1281. A(C   8,N  36,S  35)           36.21 -0.000002    0.00     36.22   
  1282. A(C   8,N  36,S  30)          135.77  0.000001    0.01    135.77   
  1283. A(N   1,N  36,S  35)           33.57 -0.000003    0.03     33.60   
  1284. A(N   1,N  36,S  30)          138.70  0.000001    0.03    138.73   
  1285. A(C   7,N  36,S  35)           32.33 -0.000003    0.03     32.35   
  1286. A(C   7,N  36,S  30)          138.47  0.000000    0.03    138.51   
  1287. A(C   2,N  36,S  35)           34.69 -0.000003    0.03     34.72   
  1288. A(C   2,N  36,S  30)          139.62  0.000001    0.02    139.64   
  1289. A(C   5,N  36,S  35)           34.53 -0.000003    0.03     34.56   
  1290. A(C   5,N  36,S  30)          139.13  0.000001    0.02    139.15   
  1291. A(C   4,N  36,S  35)           35.86 -0.000002    0.01     35.87   
  1292. A(C   4,N  36,S  30)          137.10  0.000001    0.01    137.11   
  1293. A(C   6,F  37,C  31)           66.29 -0.000003    0.01     66.30   
  1294. A(N   0,F  37,C  31)           66.94 -0.000003    0.01     66.95   
  1295. A(C   3,F  37,C  31)           66.16 -0.000003   -0.00     66.15   
  1296. A(C   9,F  37,C  31)           66.32 -0.000003    0.00     66.33   
  1297. A(C   8,F  37,C  31)           63.98 -0.000003   -0.02     63.96   
  1298. A(N   1,F  37,C  31)           66.43 -0.000003    0.01     66.44   
  1299. A(C   7,F  37,C  31)           65.99 -0.000003    0.01     66.00   
  1300. A(C   2,F  37,C  31)           67.44 -0.000003    0.00     67.44   
  1301. A(C   5,F  37,C  31)           67.00 -0.000003    0.00     67.01   
  1302. A(C   4,F  37,C  31)           65.23 -0.000003   -0.01     65.21   
  1303. A(C   8,F  38,C  33)           85.36 -0.000002   -0.01     85.35   
  1304. A(C   9,F  38,C  33)           85.59 -0.000002    0.01     85.60   
  1305. A(N   1,F  38,C  33)           85.53 -0.000002    0.01     85.54   
  1306. A(C   7,F  38,C  33)           84.52 -0.000002    0.01     84.53   
  1307. A(C   5,F  38,C  33)           86.43 -0.000002    0.01     86.44   
  1308. A(C   6,F  38,C  33)           84.83 -0.000002    0.01     84.84   
  1309. A(N   0,F  38,C  33)           86.05 -0.000002    0.01     86.06   
  1310. A(C   2,F  38,C  33)           86.79 -0.000002    0.01     86.80   
  1311. A(C   4,F  38,C  33)           86.01 -0.000002   -0.00     86.01   
  1312. A(C   3,F  38,C  33)           86.09 -0.000002    0.01     86.09   
  1313. A(C   2,O  39,S  35)          131.49  0.000000    0.02    131.51   
  1314. A(C   6,O  39,C   8)            5.02  0.000000   -0.01      5.02   
  1315. A(C   6,O  39,S  35)          129.67  0.000000    0.02    129.69   
  1316. A(C   4,O  39,S  35)          129.81  0.000000   -0.00    129.81   
  1317. A(N   1,O  39,S  35)          130.15  0.000000    0.02    130.17   
  1318. A(N   0,O  39,S  35)          130.76  0.000000    0.02    130.78   
  1319. A(C   7,O  39,S  35)          129.31  0.000000    0.02    129.33   
  1320. A(C   3,O  39,S  35)          130.40  0.000000    0.01    130.41   
  1321. A(C   5,O  39,S  35)          131.01  0.000000    0.02    131.02   
  1322. A(C   8,O  39,S  35)          128.72  0.000000   -0.01    128.71   
  1323. A(C   9,O  39,S  35)          130.11  0.000000    0.02    130.13   
  1324. D(C   3,C   2,N   0,C   6)     71.15  0.000001   -0.13     71.02   
  1325. D(C   3,C   2,N   0,C   5)   -105.18 -0.000000   -0.11   -105.29   
  1326. D(H  10,C   2,N   0,C   5)     16.80  0.000007   -0.13     16.67   
  1327. D(C   4,C   3,C   2,H  10)    -57.68 -0.000002   -0.04    -57.72   
  1328. D(H  12,C   3,C   2,N   0)    -62.48  0.000003   -0.06    -62.54   
  1329. D(C   4,C   3,C   2,N   0)     61.71  0.000003   -0.08     61.63   
  1330. D(C   8,C   4,C   3,C   2)    177.02  0.000001    0.01    177.04   
  1331. D(C   8,C   4,C   3,H  12)    -59.13  0.000002   -0.00    -59.14   
  1332. D(H  14,C   4,C   3,C   2)    -61.32 -0.000000    0.02    -61.30   
  1333. D(H  16,C   5,N   1,C   7)    179.85  0.000009   -0.04    179.81   
  1334. D(N   1,C   5,N   0,C   6)      0.28 -0.000000   -0.02      0.26   
  1335. D(H  16,C   5,N   0,C   2)     -2.87 -0.000008    0.01     -2.85   
  1336. D(N   1,C   5,N   0,C   2)    177.14  0.000001   -0.03    177.11   
  1337. D(N   0,C   5,N   1,C   9)    179.42  0.000001   -0.01    179.41   
  1338. D(N   0,C   5,N   1,C   7)     -0.16  0.000001    0.01     -0.15   
  1339. D(C   7,C   6,N   0,C   5)     -0.29 -0.000000    0.02     -0.27   
  1340. D(H  17,C   6,N   0,C   2)      3.20 -0.000002    0.02      3.22   
  1341. D(C   7,C   6,N   0,C   2)   -177.16 -0.000001    0.04   -177.12   
  1342. D(N   1,C   7,C   6,N   0)      0.19  0.000001   -0.01      0.18   
  1343. D(H  18,C   7,C   6,N   0)   -179.37 -0.000004    0.01   -179.36   
  1344. D(C   6,C   7,N   1,C   5)     -0.03 -0.000001    0.00     -0.02   
  1345. D(H  18,C   7,N   1,C   5)    179.58  0.000004   -0.02    179.56   
  1346. D(N   1,C   7,C   6,H  17)    179.80  0.000002    0.00    179.80   
  1347. D(C   6,C   7,N   1,C   9)   -179.60 -0.000001    0.02   -179.58   
  1348. D(H  19,C   8,C   4,H  14)    -62.12 -0.000002    0.01    -62.11   
  1349. D(H  20,C   8,C   4,C   3)    -60.10 -0.000001    0.01    -60.09   
  1350. D(H  19,C   8,C   4,C   3)     59.97 -0.000001    0.01     59.98   
  1351. D(H  22,C   9,N   1,C   7)   -179.16 -0.000000   -0.00   -179.16   
  1352. D(H  23,C   9,N   1,C   5)    121.01 -0.000003    0.02    121.03   
  1353. D(H  22,C   9,N   1,C   5)      1.34 -0.000001    0.02      1.36   
  1354. D(S  30,O  25,N   0,C   2)      8.16  0.000001    0.25      8.41   
  1355. D(S  30,O  25,C   7,N   1)     30.23 -0.000000    0.23     30.46   
  1356. D(S  30,O  25,C   7,C   6)    -21.27  0.000000    0.15    -21.12   
  1357. D(S  30,O  25,C   8,C   4)    -66.31 -0.000001    0.44    -65.87   
  1358. D(S  30,O  25,C   5,N   0)   -128.27  0.000000    0.22   -128.06   
  1359. D(S  30,O  25,C   9,H  22)     27.12 -0.000000    0.23     27.35   
  1360. D(S  30,O  25,C   6,N   0)     22.28  0.000000    0.23     22.51   
  1361. D(S  30,O  25,N   1,C   7)   -149.73 -0.000000    0.23   -149.50   
  1362. D(S  30,O  25,C   3,C   2)    -63.88 -0.000002    0.41    -63.47   
  1363. D(S  30,O  25,C   8,H  19)   -169.55 -0.000001    0.43   -169.12   
  1364. D(S  30,O  25,C   4,C   3)    -89.91 -0.000002    0.42    -89.49   
  1365. D(S  30,O  25,N   0,C   5)     51.68  0.000000    0.22     51.90   
  1366. D(S  30,O  25,C   3,C   4)     89.94 -0.000002    0.42     90.36   
  1367. D(S  30,O  25,C   5,N   1)   -166.99  0.000001    0.21   -166.78   
  1368. D(S  30,O  25,C   2,C   3)    116.00 -0.000002    0.41    116.41   
  1369. D(S  30,O  25,C   4,C   8)    113.58 -0.000001    0.44    114.02   
  1370. D(S  30,O  25,C   2,N   0)   -171.82  0.000001    0.25   -171.57   
  1371. D(S  30,O  25,C   9,N   1)    -92.24 -0.000001    0.17    -92.07   
  1372. D(S  30,O  25,N   1,C   5)     12.99  0.000001    0.21     13.20   
  1373. D(S  30,O  25,C   6,C   7)    158.72  0.000000    0.15    158.87   
  1374. D(C  31,F  26,C   6,N   0)     32.69 -0.000000    0.25     32.94   
  1375. D(C  31,F  26,C   4,C   8)    126.12 -0.000001    0.43    126.55   
  1376. D(C  31,F  26,C   4,C   3)    -75.95 -0.000002    0.45    -75.50   
  1377. D(C  31,F  26,C   5,N   0)   -120.43  0.000000    0.28   -120.15   
  1378. D(C  31,F  26,C   3,C   2)    -52.69 -0.000002    0.42    -52.27   
  1379. D(C  31,F  26,C   5,N   1)   -153.31  0.000000    0.23   -153.08   
  1380. D(C  31,F  26,C   2,C   3)    126.17 -0.000002    0.43    126.59   
  1381. D(C  31,F  26,C   3,C   4)    102.57 -0.000002    0.46    103.03   
  1382. D(C  31,F  26,N   1,C   7)   -140.11 -0.000000    0.26   -139.85   
  1383. D(C  31,F  26,C   2,N   0)   -156.18 -0.000000    0.27   -155.90   
  1384. D(C  31,F  26,N   0,C   2)     23.44 -0.000000    0.27     23.71   
  1385. D(C  31,F  26,N   1,C   5)     26.20  0.000000    0.23     26.43   
  1386. D(C  31,F  26,N   0,C   5)     59.10  0.000000    0.28     59.37   
  1387. D(C  31,F  26,C   8,C   4)    -52.78 -0.000001    0.43    -52.35   
  1388. D(C  31,F  26,C   8,H  19)   -155.88 -0.000001    0.44   -155.44   
  1389. D(C  31,F  26,C   7,C   6)     -1.47  0.000000    0.17     -1.31   
  1390. D(C  31,F  26,C   7,N   1)     39.13 -0.000000    0.25     39.38   
  1391. D(C  31,F  26,C   9,N   1)    -79.58 -0.000001    0.26    -79.32   
  1392. D(C  31,F  26,C   9,H  22)     37.73 -0.000000    0.25     37.98   
  1393. D(C  31,F  26,C   6,C   7)    178.51  0.000000    0.17    178.68   
  1394. D(S  35,O  27,C   6,C   7)   -165.13  0.000001    0.19   -164.94   
  1395. D(S  35,O  27,C   7,N   1)     64.78 -0.000000    0.27     65.05   
  1396. D(S  35,O  27,C   6,N   0)     57.16  0.000000    0.27     57.43   
  1397. D(S  35,O  27,C   9,H  22)     61.34 -0.000000    0.26     61.61   
  1398. D(S  35,O  27,C   5,N   0)    -95.04  0.000000    0.26    -94.78   
  1399. D(S  35,O  27,C   7,C   6)     14.90  0.000001    0.19     15.09   
  1400. D(S  35,O  27,C   8,C   4)    -33.44 -0.000001    0.47    -32.97   
  1401. D(S  35,O  27,C   8,H  19)   -136.82 -0.000001    0.47   -136.35   
  1402. D(S  35,O  27,C   9,N   1)    -58.78 -0.000001    0.22    -58.56   
  1403. D(S  35,O  27,C   4,C   3)    -56.61 -0.000002    0.46    -56.14   
  1404. D(S  35,O  27,C   2,C   3)    150.11 -0.000002    0.44    150.56   
  1405. D(S  35,O  27,C   2,N   0)   -136.73  0.000000    0.28   -136.45   
  1406. D(S  35,O  27,N   1,C   7)   -115.58 -0.000000    0.26   -115.31   
  1407. D(S  35,O  27,C   3,C   2)    -30.09 -0.000002    0.44    -29.64   
  1408. D(S  35,O  27,N   1,C   5)     47.94  0.000000    0.24     48.18   
  1409. D(S  35,O  27,C   3,C   4)    123.80 -0.000002    0.46    124.26   
  1410. D(S  35,O  27,N   0,C   5)     85.13  0.000000    0.26     85.39   
  1411. D(S  35,O  27,C   4,C   8)    146.81 -0.000001    0.47    147.28   
  1412. D(S  35,O  27,C   5,N   1)   -132.30  0.000000    0.24   -132.06   
  1413. D(S  35,O  27,N   0,C   2)     43.44  0.000000    0.28     43.73   
  1414. D(C  33,F  28,C   8,H  19)   -114.77 -0.000001    0.31   -114.46   
  1415. D(C  33,F  28,C   7,C   6)     28.12  0.000000    0.08     28.20   
  1416. D(C  33,F  28,C   6,N   0)     72.06 -0.000000    0.15     72.21   
  1417. D(C  33,F  28,C   7,N   1)     78.92 -0.000001    0.14     79.06   
  1418. D(C  33,F  28,C   5,N   1)   -113.34 -0.000000    0.13   -113.21   
  1419. D(C  33,F  28,C   9,H  22)     78.55 -0.000001    0.15     78.69   
  1420. D(C  33,F  28,C   3,C   4)    142.60 -0.000002    0.33    142.93   
  1421. D(C  33,F  28,C   9,N   1)    -47.71  0.000001    0.09    -47.62   
  1422. D(C  33,F  28,N   1,C   7)    -99.10 -0.000001    0.14    -98.95   
  1423. D(C  33,F  28,C   2,N   0)   -117.36 -0.000000    0.18   -117.18   
  1424. D(C  33,F  28,N   0,C   5)    100.15  0.000000    0.13    100.29   
  1425. D(C  33,F  28,N   0,C   2)     61.40 -0.000000    0.18     61.58   
  1426. D(C  33,F  28,N   1,C   5)     65.12 -0.000000    0.13     65.25   
  1427. D(C  33,F  28,C   5,N   0)    -78.88  0.000000    0.13    -78.74   
  1428. D(C  33,F  28,C   4,C   8)    169.37 -0.000001    0.33    169.70   
  1429. D(C  33,F  28,C   8,C   4)    -10.27 -0.000001    0.32     -9.95   
  1430. D(C  33,F  28,C   4,C   3)    -35.99 -0.000002    0.32    -35.67   
  1431. D(C  33,F  28,C   2,C   3)    170.14 -0.000002    0.33    170.47   
  1432. D(C  33,F  28,C   3,C   2)     -9.50 -0.000002    0.32     -9.18   
  1433. D(C  33,F  28,C   6,C   7)   -151.59  0.000000    0.08   -151.51   
  1434. D(C  31,F  29,N   1,C   7)    160.23 -0.000000    0.27    160.50   
  1435. D(C  31,F  29,C   6,C   7)    122.69 -0.000000    0.19    122.89   
  1436. D(C  31,F  29,C   4,C   3)   -139.54 -0.000002    0.45   -139.09   
  1437. D(C  31,F  29,C   4,C   8)     62.67 -0.000001    0.42     63.10   
  1438. D(C  31,F  29,C   5,N   0)    178.59 -0.000000    0.29    178.88   
  1439. D(C  31,F  29,C   3,C   4)     41.55 -0.000002    0.46     42.01   
  1440. D(C  31,F  29,C   5,N   1)    148.53  0.000000    0.23    148.77   
  1441. D(C  31,F  29,C   3,C   2)   -113.60 -0.000002    0.41   -113.19   
  1442. D(C  31,F  29,C   6,N   0)    -25.69 -0.000000    0.27    -25.42   
  1443. D(C  31,F  29,C   2,C   3)     67.88 -0.000002    0.42     68.30   
  1444. D(C  31,F  29,C   7,N   1)    -20.29 -0.000001    0.27    -20.02   
  1445. D(C  31,F  29,C   7,C   6)    -57.73 -0.000000    0.19    -57.54   
  1446. D(C   8,F  29,C   6,N   0)    -54.29  0.000002   -0.13    -54.42   
  1447. D(C  31,F  29,N   1,C   5)    -32.15  0.000000    0.24    -31.91   
  1448. D(C  31,F  29,C   2,N   0)    146.97 -0.000000    0.27    147.24   
  1449. D(C  31,F  29,N   0,C   5)     -1.42 -0.000000    0.29     -1.14   
  1450. D(C  31,F  29,N   0,C   2)    -33.62 -0.000000    0.28    -33.34   
  1451. D(C  31,F  29,C   9,H  22)    -22.04 -0.000001    0.26    -21.77   
  1452. D(C  31,F  29,C   9,N   1)   -141.40 -0.000002    0.30   -141.10   
  1453. D(C   6,F  29,C   8,C   4)     35.37  0.000001    0.05     35.42   
  1454. D(C  31,F  29,C   8,H  19)    137.88 -0.000002    0.43    138.32   
  1455. D(C  31,F  29,C   8,C   4)   -118.67 -0.000002    0.42   -118.25   
  1456. D(C   8,F  29,C   7,N   1)    -43.93  0.000000   -0.11    -44.05   
  1457. D(O  34,S  30,O  25,C   8)    -99.79 -0.000002    0.05    -99.74   
  1458. D(C  33,S  30,O  25,C   3)    143.24  0.000001    0.03    143.28   
  1459. D(C  33,S  30,O  25,C   8)    145.93  0.000001    0.03    145.96   
  1460. D(C  33,S  30,C   9,N   1)    -34.91  0.000002    0.07    -34.84   
  1461. D(O  25,S  30,C   9,H  22)   -153.02 -0.000000    0.23   -152.80   
  1462. D(O  25,S  30,C   9,N   1)     81.53  0.000001    0.17     81.69   
  1463. D(C  33,S  30,C   8,C   4)     -4.07 -0.000001    0.36     -3.71   
  1464. D(O  25,S  30,C   4,C   3)     89.37 -0.000001    0.42     89.79   
  1465. D(O  25,S  30,C   7,C   6)    156.84  0.000001    0.16    157.00   
  1466. D(C  33,S  30,C   5,N   0)    -68.02  0.000002    0.11    -67.90   
  1467. D(O  25,S  30,C   6,N   0)   -157.66  0.000000    0.23   -157.43   
  1468. D(O  25,S  30,C   6,C   7)    -23.16  0.000001    0.16    -23.01   
  1469. D(O  25,S  30,C   5,N   1)     13.29  0.000001    0.21     13.50   
  1470. D(C  33,S  30,C   6,N   0)     87.27  0.000001    0.13     87.40   
  1471. D(O  25,S  30,C   5,N   0)     49.32  0.000001    0.21     49.53   
  1472. D(O  25,S  30,C   7,N   1)   -150.15 -0.000000    0.23   -149.93   
  1473. D(C  33,S  30,C   4,C   3)    -29.27 -0.000001    0.34    -28.93   
  1474. D(O  25,S  30,C   8,C   4)    114.77 -0.000001    0.43    115.20   
  1475. D(O  25,S  30,C   8,H  19)     10.37 -0.000001    0.42     10.79   
  1476. D(C  33,S  30,C   7,N   1)     95.05  0.000001    0.13     95.18   
  1477. D(C  33,S  30,C   3,C   2)     -0.52 -0.000001    0.32     -0.20   
  1478. D(O  25,S  30,C   3,C   4)    -90.74 -0.000001    0.42    -90.32   
  1479. D(O  25,S  30,C   3,C   2)    117.16 -0.000002    0.41    117.57   
  1480. D(O  25,S  30,C   4,C   8)    -65.32 -0.000001    0.43    -64.88   
  1481. D(C  33,S  30,C   2,N   0)   -109.06  0.000001    0.16   -108.90   
  1482. D(O  25,S  30,C   2,N   0)      8.51  0.000001    0.26      8.77   
  1483. D(O  25,S  30,N   1,C   5)   -166.72  0.000001    0.21   -166.51   
  1484. D(O  25,S  30,N   1,C   7)     29.88 -0.000000    0.23     30.10   
  1485. D(C  33,S  30,N   0,C   2)     71.81  0.000002    0.16     71.97   
  1486. D(O  25,S  30,C   2,C   3)    -62.93 -0.000002    0.41    -62.53   
  1487. D(O  25,S  30,N   0,C   5)   -130.71  0.000001    0.21   -130.50   
  1488. D(O  25,S  30,N   0,C   2)   -171.50  0.000001    0.26   -171.24   
  1489. D(C  33,S  30,N   1,C   5)     77.06  0.000001    0.11     77.18   
  1490. D(S  35,C  31,F  29,C   8)    -13.74 -0.000005    0.06    -13.68   
  1491. D(F  26,C  31,F  29,C   3)   -139.42  0.000001    0.00   -139.41   
  1492. D(F  26,C  31,F  29,C   8)   -136.09  0.000001    0.03   -136.06   
  1493. D(S  35,C  31,F  26,C   8)    -80.38  0.000007   -0.03    -80.41   
  1494. D(F  29,C  31,C   9,N   1)     35.35 -0.000001    0.28     35.63   
  1495. D(F  26,C  31,C   9,H  22)   -142.42 -0.000000    0.25   -142.17   
  1496. D(F  26,C  31,C   9,N   1)     94.88 -0.000001    0.27     95.15   
  1497. D(F  29,C  31,F  26,C   3)     36.93 -0.000003    0.00     36.93   
  1498. D(F  29,C  31,C   8,C   4)     61.94 -0.000002    0.42     62.36   
  1499. D(F  26,C  31,C   8,H  19)     23.97 -0.000001    0.44     24.41   
  1500. D(F  29,C  31,F  26,C   8)     40.55 -0.000003   -0.01     40.53   
  1501. D(F  29,C  31,C   7,N   1)    159.88 -0.000001    0.27    160.16   
  1502. D(F  26,C  31,C   7,N   1)   -141.23 -0.000000    0.25   -140.98   
  1503. D(F  26,C  31,C   5,N   1)     27.04  0.000000    0.23     27.28   
  1504. D(F  26,C  31,C   6,N   0)   -147.28 -0.000000    0.25   -147.02   
  1505. D(F  29,C  31,C   5,N   0)     -1.35 -0.000000    0.27     -1.08   
  1506. D(F  29,C  31,C   6,N   0)    154.28 -0.000000    0.27    154.55   
  1507. D(F  26,C  31,C   5,N   0)     57.55 -0.000000    0.27     57.82   
  1508. D(F  29,C  31,C   4,C   3)     40.09 -0.000002    0.45     40.54   
  1509. D(F  26,C  31,C   4,C   8)    -53.28 -0.000001    0.43    -52.85   
  1510. D(F  26,C  31,C   7,C   6)    178.43  0.000000    0.18    178.61   
  1511. D(F  26,C  31,C   6,C   7)     -1.58  0.000000    0.18     -1.40   
  1512. D(F  26,C  31,C   4,C   3)    103.50 -0.000002    0.45    103.95   
  1513. D(F  26,C  31,C   8,C   4)    127.80 -0.000001    0.42    128.22   
  1514. D(F  29,C  31,C   3,C   2)     67.02 -0.000002    0.42     67.44   
  1515. D(F  26,C  31,C   3,C   4)    -77.95 -0.000002    0.46    -77.49   
  1516. D(F  26,C  31,C   3,C   2)    127.87 -0.000002    0.42    128.28   
  1517. D(F  26,C  31,N   0,C   2)   -155.95 -0.000000    0.27   -155.68   
  1518. D(F  29,C  31,N   1,C   5)    147.45  0.000000    0.24    147.69   
  1519. D(F  26,C  31,N   1,C   5)   -153.44  0.000000    0.23   -153.21   
  1520. D(F  29,C  31,N   0,C   2)    145.60 -0.000000    0.28    145.88   
  1521. D(F  26,C  31,N   1,C   7)     39.52 -0.000000    0.25     39.77   
  1522. D(F  26,C  31,N   0,C   5)   -122.92 -0.000000    0.27   -122.65   
  1523. D(F  26,C  31,C   2,C   3)    -53.25 -0.000002    0.42    -52.83   
  1524. D(F  29,C  31,C   2,N   0)    -33.80 -0.000000    0.28    -33.53   
  1525. D(F  26,C  31,C   2,N   0)     24.42 -0.000000    0.28     24.70   
  1526. D(C  33,F  32,C   9,H  22)    -40.74 -0.000000    0.12    -40.61   
  1527. D(C  33,F  32,C   9,N   1)   -167.67  0.000001    0.08   -167.59   
  1528. D(C  33,F  32,C   8,H  19)    122.17 -0.000001    0.32    122.49   
  1529. D(C  33,F  32,C   7,C   6)    -82.34  0.000001    0.06    -82.29   
  1530. D(C  33,F  32,C   7,N   1)    -38.52  0.000000    0.12    -38.40   
  1531. D(C  33,F  32,C   6,C   7)     97.68  0.000001    0.06     97.74   
  1532. D(C  33,F  32,C   6,N   0)    -44.70  0.000000    0.13    -44.58   
  1533. D(C  33,F  32,C   5,N   1)    128.03  0.000000    0.11    128.13   
  1534. D(C  33,F  32,C   4,C   8)     46.59 -0.000001    0.32     46.91   
  1535. D(C  33,F  32,C   2,N   0)    125.08  0.000000    0.15    125.23   
  1536. D(C  33,F  32,C   3,C   2)   -130.87 -0.000002    0.30   -130.57   
  1537. D(C  33,F  32,C   2,C   3)     49.16 -0.000002    0.30     49.46   
  1538. D(C  33,F  32,C   3,C   4)     21.94 -0.000001    0.32     22.26   
  1539. D(C  33,F  32,N   1,C   7)    141.52 -0.000000    0.12    141.64   
  1540. D(C  33,F  32,C   4,C   3)   -158.07 -0.000001    0.32   -157.75   
  1541. D(C  33,F  32,C   8,C   4)   -133.40 -0.000001    0.32   -133.08   
  1542. D(C  33,F  32,C   5,N   0)    158.63  0.000001    0.12    158.75   
  1543. D(C  33,F  32,N   1,C   5)    -52.01  0.000001    0.11    -51.90   
  1544. D(C  33,F  32,N   0,C   5)    -21.37  0.000001    0.12    -21.26   
  1545. D(C  33,F  32,N   0,C   2)    -54.95  0.000000    0.15    -54.80   
  1546. D(S  30,C  33,F  28,C   3)     -6.01 -0.000001    0.00     -6.00   
  1547. D(S  30,C  33,F  28,C   8)     -3.93 -0.000000   -0.02     -3.96   
  1548. D(S  30,C  33,C   9,N   1)    141.86  0.000002    0.07    141.93   
  1549. D(F  28,C  33,C   9,N   1)    129.98  0.000001    0.09    130.07   
  1550. D(S  30,C  33,C   8,C   4)    176.00 -0.000001    0.35    176.35   
  1551. D(F  28,C  33,C   8,H  19)     65.03 -0.000001    0.31     65.34   
  1552. D(S  30,C  33,C   7,N   1)    -85.57  0.000001    0.13    -85.44   
  1553. D(F  28,C  33,C   7,C   6)   -150.67  0.000000    0.08   -150.59   
  1554. D(F  28,C  33,C   7,N   1)   -101.42 -0.000001    0.14   -101.27   
  1555. D(S  30,C  33,C   6,N   0)    -92.60  0.000001    0.13    -92.46   
  1556. D(F  28,C  33,C   6,C   7)     29.61  0.000000    0.08     29.69   
  1557. D(F  28,C  33,C   6,N   0)   -107.87 -0.000000    0.15   -107.72   
  1558. D(S  30,C  33,C   5,N   0)    109.54  0.000001    0.11    109.66   
  1559. D(F  28,C  33,C   5,N   1)     67.18 -0.000000    0.13     67.32   
  1560. D(F  28,C  33,C   5,N   0)     99.74 -0.000000    0.13     99.87   
  1561. D(S  30,C  33,C   4,C   3)    150.44 -0.000001    0.34    150.78   
  1562. D(F  28,C  33,C   4,C   8)    -10.53 -0.000001    0.32    -10.20   
  1563. D(F  28,C  33,C   4,C   3)    143.80 -0.000002    0.32    144.12   
  1564. D(S  30,C  33,C   3,C   2)    179.49 -0.000001    0.31    179.80   
  1565. D(F  28,C  33,C   3,C   4)    -37.60 -0.000002    0.33    -37.27   
  1566. D(F  28,C  33,C   3,C   2)    170.59 -0.000002    0.31    170.90   
  1567. D(S  30,C  33,C   2,N   0)     72.87  0.000001    0.16     73.03   
  1568. D(F  28,C  33,C   2,C   3)     -9.78 -0.000002    0.33     -9.45   
  1569. D(F  28,C  33,C   8,C   4)    169.83 -0.000001    0.31    170.14   
  1570. D(F  28,C  33,C   2,N   0)     63.59 -0.000000    0.18     63.77   
  1571. D(S  30,C  33,N   1,C   5)   -101.88  0.000002    0.11   -101.76   
  1572. D(F  28,C  33,N   1,C   7)     80.55 -0.000001    0.14     80.70   
  1573. D(F  28,C  33,C   9,H  22)   -101.59 -0.000001    0.15   -101.44   
  1574. D(F  28,C  33,N   1,C   5)   -114.34 -0.000000    0.13   -114.21   
  1575. D(S  30,C  33,N   0,C   2)   -106.24  0.000001    0.16   -106.08   
  1576. D(F  28,C  33,N   0,C   5)    -81.23 -0.000000    0.13    -81.09   
  1577. D(F  32,C  33,F  28,C   8)    117.69  0.000001   -0.02    117.67   
  1578. D(F  28,C  33,N   0,C   2)   -117.64 -0.000000    0.18   -117.46   
  1579. D(S  30,C  33,F  32,C   8)    -30.42  0.000001    0.02    -30.40   
  1580. D(F  28,C  33,F  32,C   3)   -152.11 -0.000001    0.01   -152.10   
  1581. D(F  28,C  33,F  32,C   8)   -150.62 -0.000001    0.02   -150.60   
  1582. D(F  32,C  33,S  30,O  25)    -58.37 -0.000002   -0.10    -58.47   
  1583. D(F  28,C  33,S  30,O  34)    -64.03  0.000002   -0.12    -64.14   
  1584. D(F  28,C  33,S  30,O  25)     60.84 -0.000002   -0.08     60.76   
  1585. D(C   3,O  34,S  30,O  25)     99.82  0.000004   -0.02     99.80   
  1586. D(C   8,O  34,S  30,O  25)     98.01  0.000004   -0.04     97.97   
  1587. D(S  30,O  34,C   9,H  22)    147.18 -0.000002    0.24    147.43   
  1588. D(S  30,O  34,C   9,N   1)     19.54 -0.000001    0.16     19.70   
  1589. D(S  30,O  34,C   8,C   4)     55.35 -0.000003    0.45     55.80   
  1590. D(S  30,O  34,C   7,C   6)     91.74 -0.000003    0.18     91.92   
  1591. D(S  30,O  34,C   7,N   1)    150.21 -0.000002    0.24    150.45   
  1592. D(S  30,O  34,C   6,C   7)    -88.18 -0.000003    0.18    -88.00   
  1593. D(S  30,O  34,C   6,N   0)    142.32 -0.000002    0.25    142.57   
  1594. D(S  30,O  34,C   5,N   1)    -47.42 -0.000002    0.23    -47.19   
  1595. D(S  30,O  34,C   5,N   0)     -9.95 -0.000001    0.21     -9.74   
  1596. D(S  30,O  34,C   4,C   8)   -124.49 -0.000003    0.45   -124.04   
  1597. D(S  30,O  34,C   4,C   3)     28.87 -0.000003    0.43     29.30   
  1598. D(S  30,O  34,C   3,C   4)   -151.01 -0.000003    0.43   -150.58   
  1599. D(S  30,O  34,C   3,C   2)     58.19 -0.000004    0.43     58.61   
  1600. D(S  30,O  34,C   2,C   3)   -121.61 -0.000004    0.43   -121.18   
  1601. D(S  30,O  34,C   8,H  19)    -49.67 -0.000003    0.43    -49.23   
  1602. D(S  30,O  34,C   2,N   0)    -53.04 -0.000002    0.28    -52.76   
  1603. D(S  30,O  34,N   1,C   7)    -29.66 -0.000002    0.24    -29.42   
  1604. D(S  30,O  34,N   1,C   5)    132.43 -0.000002    0.23    132.66   
  1605. D(C   8,O  34,S  30,C  33)   -147.15 -0.000002    0.02   -147.13   
  1606. D(S  30,O  34,N   0,C   5)    170.03 -0.000001    0.21    170.24   
  1607. D(S  30,O  34,N   0,C   2)    126.83 -0.000002    0.28    127.11   
  1608. D(N  36,S  35,C  31,F  26)    -65.06 -0.000001   -0.01    -65.07   
  1609. D(O  27,S  35,C  31,F  26)     56.69 -0.000002    0.01     56.70   
  1610. D(N  36,S  35,O  27,C   8)   -139.77 -0.000003    0.01   -139.76   
  1611. D(C  31,S  35,O  27,C   3)    104.09  0.000001    0.01    104.10   
  1612. D(C  31,S  35,C   9,N   1)     15.51 -0.000006    0.26     15.77   
  1613. D(O  27,S  35,C   9,H  22)   -118.94 -0.000000    0.26   -118.68   
  1614. D(O  27,S  35,C   9,N   1)    115.24  0.000001    0.23    115.47   
  1615. D(O  27,S  35,C   8,H  19)     42.85 -0.000001    0.46     43.31   
  1616. D(O  27,S  35,C   8,C   4)    147.18 -0.000001    0.46    147.64   
  1617. D(C  31,S  35,C   7,N   1)    144.06 -0.000007    0.29    144.35   
  1618. D(O  27,S  35,C   7,C   6)   -163.72  0.000001    0.21   -163.51   
  1619. D(O  27,S  35,C   7,N   1)   -115.92 -0.000000    0.26   -115.65   
  1620. D(C  31,S  35,C   6,N   0)    137.19 -0.000007    0.29    137.48   
  1621. D(O  27,S  35,C   6,C   7)     16.25  0.000001    0.20     16.45   
  1622. D(O  27,S  35,C   6,N   0)   -122.72  0.000000    0.27   -122.45   
  1623. D(C  31,S  35,C   5,N   0)    -18.10 -0.000006    0.28    -17.82   
  1624. D(O  27,S  35,C   5,N   1)     48.61  0.000000    0.25     48.85   
  1625. D(O  27,S  35,C   5,N   0)     81.72  0.000000    0.26     81.98   
  1626. D(C  31,S  35,C   4,C   3)     23.97 -0.000008    0.49     24.46   
  1627. D(O  27,S  35,C   4,C   8)    -32.55 -0.000001    0.46    -32.09   
  1628. D(O  27,S  35,C   4,C   3)    122.75 -0.000002    0.47    123.22   
  1629. D(C  31,S  35,C   3,C   2)     51.05 -0.000009    0.46     51.51   
  1630. D(O  27,S  35,C   3,C   4)    -56.81 -0.000002    0.46    -56.34   
  1631. D(O  27,S  35,C   3,C   2)    150.48 -0.000002    0.44    150.91   
  1632. D(C  31,S  35,C   2,N   0)    -55.10 -0.000007    0.32    -54.78   
  1633. D(C  31,S  35,C   8,C   4)     49.03 -0.000008    0.49     49.53   
  1634. D(O  27,S  35,C   2,C   3)    -29.31 -0.000002    0.43    -28.87   
  1635. D(O  27,S  35,C   2,N   0)     44.87  0.000000    0.29     45.17   
  1636. D(C  31,S  35,N   1,C   5)    129.02 -0.000006    0.27    129.30   
  1637. D(C  31,S  35,O  27,C   8)    106.27  0.000001   -0.01    106.26   
  1638. D(O  27,S  35,N   1,C   7)     63.70 -0.000000    0.26     63.96   
  1639. D(O  27,S  35,N   1,C   5)   -131.13  0.000000    0.25   -130.88   
  1640. D(C  31,S  35,N   0,C   2)    125.11 -0.000007    0.32    125.43   
  1641. D(O  27,S  35,C  31,F  29)    -63.14  0.000001    0.00    -63.14   
  1642. D(O  27,S  35,N   0,C   5)    -98.09  0.000000    0.26    -97.83   
  1643. D(O  27,S  35,N   0,C   2)   -134.93  0.000000    0.29   -134.64   
  1644. D(C   8,N  36,S  35,O  27)     89.78 -0.000000   -0.04     89.74   
  1645. D(S  30,N  36,S  35,C  31)     84.85  0.000003   -0.01     84.84   
  1646. D(S  30,N  36,S  35,O  27)    -28.87 -0.000001   -0.01    -28.88   
  1647. D(C   8,N  36,S  30,O  25)    -64.04  0.000002   -0.06    -64.10   
  1648. D(S  35,N  36,S  30,C  33)   -127.17  0.000000   -0.07   -127.24   
  1649. D(S  35,N  36,C   9,N   1)     41.05 -0.000000    0.23     41.28   
  1650. D(S  30,N  36,C   9,H  22)   -102.13 -0.000006    0.34   -101.79   
  1651. D(S  30,N  36,C   9,N   1)    129.09 -0.000005    0.29    129.38   
  1652. D(S  30,N  36,C   8,H  19)     63.51 -0.000006    0.50     64.01   
  1653. D(S  30,N  36,C   8,C   4)    168.40 -0.000006    0.51    168.91   
  1654. D(S  35,N  36,C   7,N   1)    172.46 -0.000001    0.28    172.74   
  1655. D(S  30,N  36,C   7,N   1)   -101.24 -0.000006    0.34   -100.90   
  1656. D(S  35,N  36,C   6,N   0)    166.09 -0.000001    0.29    166.37   
  1657. D(S  30,N  36,C   6,C   7)     28.28 -0.000005    0.29     28.57   
  1658. D(S  30,N  36,C   6,N   0)   -107.90 -0.000006    0.34   -107.55   
  1659. D(S  35,N  36,C   5,N   0)     11.10 -0.000001    0.26     11.35   
  1660. D(S  30,N  36,C   5,N   1)     66.04 -0.000006    0.33     66.37   
  1661. D(S  30,N  36,C   5,N   0)     99.05 -0.000005    0.33     99.38   
  1662. D(S  35,N  36,C   4,C   3)     49.96 -0.000003    0.45     50.41   
  1663. D(S  30,N  36,C   4,C   8)    -11.89 -0.000007    0.52    -11.37   
  1664. D(S  30,N  36,C   4,C   3)    142.27 -0.000007    0.52    142.79   
  1665. D(S  30,N  36,C   7,C   6)   -151.91 -0.000005    0.29   -151.63   
  1666. D(S  35,N  36,C   3,C   2)     79.98 -0.000003    0.44     80.42   
  1667. D(S  30,N  36,C   3,C   4)    -38.76 -0.000007    0.53    -38.23   
  1668. D(S  30,N  36,C   3,C   2)    169.61 -0.000008    0.51    170.12   
  1669. D(S  35,N  36,C   8,C   4)     73.99 -0.000003    0.45     74.44   
  1670. D(S  35,N  36,C   2,N   0)    -25.31 -0.000001    0.30    -25.00   
  1671. D(S  30,N  36,C   2,C   3)    -10.67 -0.000008    0.52    -10.15   
  1672. D(S  30,N  36,C   2,N   0)     62.12 -0.000006    0.39     62.50   
  1673. D(S  35,N  36,S  30,O  25)    -16.04 -0.000001   -0.03    -16.07   
  1674. D(S  35,N  36,N   1,C   5)    157.51 -0.000001    0.26    157.77   
  1675. D(S  30,N  36,N   1,C   7)     80.17 -0.000006    0.34     80.50   
  1676. D(S  30,N  36,N   1,C   5)   -115.04 -0.000005    0.33   -114.71   
  1677. D(S  35,N  36,N   0,C   2)    154.16 -0.000001    0.31    154.47   
  1678. D(S  30,N  36,N   0,C   5)    -81.64 -0.000005    0.33    -81.31   
  1679. D(S  30,N  36,N   0,C   2)   -118.74 -0.000006    0.38   -118.36   
  1680. D(C   8,F  37,C  31,F  29)    -45.36  0.000003    0.02    -45.34   
  1681. D(C   8,F  37,C  31,F  26)   -161.64 -0.000002    0.04   -161.60   
  1682. D(C  31,F  37,C   9,H  22)   -113.10 -0.000002    0.28   -112.83   
  1683. D(C  31,F  37,C   8,H  19)     48.10 -0.000003    0.48     48.58   
  1684. D(C  31,F  37,C   8,C   4)    152.66 -0.000003    0.46    153.12   
  1685. D(C  31,F  37,C   7,C   6)   -147.92 -0.000001    0.22   -147.70   
  1686. D(C  31,F  37,C   7,N   1)   -110.74 -0.000002    0.28   -110.46   
  1687. D(C  31,F  37,C   6,C   7)     32.00 -0.000001    0.22     32.22   
  1688. D(C  31,F  37,C   6,N   0)   -116.09 -0.000002    0.28   -115.81   
  1689. D(C  31,F  37,C   5,N   1)     57.02 -0.000002    0.25     57.28   
  1690. D(C  31,F  37,C   5,N   0)     83.53 -0.000002    0.29     83.81   
  1691. D(C  31,F  37,C   4,C   8)    -27.04 -0.000003    0.46    -26.58   
  1692. D(C  31,F  37,C   4,C   3)    128.74 -0.000004    0.49    129.23   
  1693. D(C  31,F  37,C   3,C   4)    -50.74 -0.000004    0.49    -50.26   
  1694. D(C  31,F  37,C   3,C   2)    156.00 -0.000004    0.43    156.44   
  1695. D(C  31,F  37,C   2,C   3)    -23.75 -0.000004    0.43    -23.32   
  1696. D(C  31,F  37,C   2,N   0)     55.18 -0.000002    0.30     55.48   
  1697. D(C  31,F  37,C   9,N   1)    117.98 -0.000002    0.31    118.29   
  1698. D(C  31,F  37,N   1,C   7)     68.75 -0.000002    0.28     69.03   
  1699. D(C  31,F  37,N   1,C   5)   -122.60 -0.000002    0.26   -122.34   
  1700. D(C  31,F  37,N   0,C   5)    -96.24 -0.000002    0.29    -95.95   
  1701. D(C   3,F  37,C  31,F  26)   -159.67 -0.000002    0.02   -159.65   
  1702. D(C  31,F  37,N   0,C   2)   -124.52 -0.000002    0.30   -124.22   
  1703. D(C   3,F  38,C  33,F  28)    155.88  0.000001   -0.01    155.87   
  1704. D(C   8,F  38,C  33,S  30)     32.92  0.000000   -0.00     32.92   
  1705. D(C   8,F  38,C  33,F  28)    153.31  0.000000   -0.01    153.30   
  1706. D(C  33,F  38,C   9,N   1)     77.12  0.000001    0.07     77.19   
  1707. D(C  33,F  38,C   8,H  19)     14.37 -0.000002    0.32     14.69   
  1708. D(C  33,F  38,C   8,C   4)    120.13 -0.000002    0.33    120.46   
  1709. D(C  33,F  38,C   7,N   1)   -146.26 -0.000001    0.13   -146.13   
  1710. D(C  33,F  38,C   6,C   7)    -16.58  0.000001    0.07    -16.51   
  1711. D(C  33,F  38,C   6,N   0)   -152.54 -0.000001    0.13   -152.41   
  1712. D(C  33,F  38,C   5,N   1)     19.55 -0.000000    0.12     19.67   
  1713. D(C  33,F  38,C   5,N   0)     49.56 -0.000000    0.11     49.67   
  1714. D(C  33,F  38,C   4,C   8)    -59.78 -0.000002    0.33    -59.46   
  1715. D(C  33,F  38,C   4,C   3)     92.96 -0.000002    0.33     93.29   
  1716. D(C  33,F  38,C   3,C   4)    -86.94 -0.000002    0.33    -86.62   
  1717. D(C  33,F  38,C   7,C   6)    163.42  0.000001    0.07    163.49   
  1718. D(C  33,F  38,C   3,C   2)    122.73 -0.000003    0.30    123.03   
  1719. D(C  33,F  38,C   2,C   3)    -57.20 -0.000003    0.30    -56.90   
  1720. D(C  33,F  38,C   2,N   0)     15.91 -0.000000    0.17     16.08   
  1721. D(C  33,F  38,C   9,H  22)   -148.60 -0.000001    0.13   -148.47   
  1722. D(C  33,F  38,N   1,C   7)     33.69 -0.000001    0.13     33.81   
  1723. D(C  33,F  38,N   1,C   5)   -160.43 -0.000000    0.12   -160.31   
  1724. D(C  33,F  38,N   0,C   5)   -130.41 -0.000000    0.11   -130.30   
  1725. D(C  33,F  38,N   0,C   2)   -164.07 -0.000000    0.17   -163.90   
  1726. D(C   8,O  39,S  35,C  31)   -105.29 -0.000005    0.01   -105.28   
  1727. D(C   8,O  39,S  35,O  27)      9.01  0.000002   -0.02      8.99   
  1728. D(S  35,O  39,C   9,H  22)   -131.72 -0.000003    0.30   -131.42   
  1729. D(C   6,O  39,C   8,C   4)     36.55  0.000001    0.04     36.59   
  1730. D(S  35,O  39,C   8,H  19)     34.25 -0.000003    0.48     34.72   
  1731. D(S  35,O  39,C   8,C   4)    139.37 -0.000003    0.47    139.84   
  1732. D(S  35,O  39,C   7,C   6)   -177.73 -0.000002    0.25   -177.47   
  1733. D(S  35,O  39,C   7,N   1)   -130.57 -0.000003    0.29   -130.27   
  1734. D(C   8,O  39,C   6,N   0)    -55.56  0.000002   -0.14    -55.71   
  1735. D(S  35,O  39,C   6,C   7)      2.29 -0.000002    0.25      2.54   
  1736. D(S  35,O  39,C   6,N   0)   -136.77 -0.000002    0.30   -136.47   
  1737. D(S  35,O  39,C   5,N   1)     37.08 -0.000002    0.29     37.37   
  1738. D(S  35,O  39,C   5,N   0)     67.25 -0.000002    0.29     67.55   
  1739. D(S  35,O  39,C   4,C   8)    -41.40 -0.000003    0.48    -40.92   
  1740. D(S  35,O  39,C   4,C   3)    112.72 -0.000004    0.49    113.21   
  1741. D(S  35,O  39,C   3,C   4)    -68.51 -0.000004    0.50    -68.01   
  1742. D(S  35,O  39,C   3,C   2)    139.89 -0.000004    0.46    140.35   
  1743. D(S  35,O  39,C   2,C   3)    -40.92 -0.000004    0.47    -40.45   
  1744. D(S  35,O  39,C   2,N   0)     33.71 -0.000002    0.34     34.05   
  1745. D(S  35,O  39,C   9,N   1)     97.08 -0.000001    0.27     97.35   
  1746. D(S  35,O  39,N   1,C   7)     50.27 -0.000002    0.29     50.56   
  1747. D(S  35,O  39,N   1,C   5)   -143.47 -0.000002    0.28   -143.18   
  1748. D(S  35,O  39,N   0,C   5)   -113.24 -0.000002    0.29   -112.95   
  1749. D(C   3,O  39,S  35,O  27)     12.14  0.000002   -0.04     12.10   
  1750. D(S  35,O  39,N   0,C   2)   -146.71 -0.000002    0.34   -146.37   
    ----------------------------------------------------------------------------

Geometry step timings:
Preparation and reading OPT file:      0.003 s ( 0.165 %)
Internal coordinates            :      0.000 s ( 0.007 %)
B/P matrices and projection     :      0.494 s (27.520 %)
Hessian update/contruction      :      0.053 s ( 2.968 %)
Making the step                 :      1.224 s (68.168 %)
Converting the step to Cartesian:      0.011 s ( 0.587 %)
Storing new data                :      0.000 s ( 0.002 %)
Checking convergence            :      0.002 s ( 0.103 %)
Final printing                  :      0.009 s ( 0.479 %)
Total time                      :      1.795 s

Time for energy+gradient        :     25.535 s
Time for complete geometry iter :     28.396 s

         *************************************************************
         *                GEOMETRY OPTIMIZATION CYCLE   3            *
         *************************************************************
---------------------------------
CARTESIAN COORDINATES (ANGSTROEM)
---------------------------------
  N    -33.957533  -22.376976   -8.059839
  N    -35.732355  -23.591035   -7.778566
  C    -32.682370  -21.870990   -8.603081
  C    -31.485267  -22.312270   -7.767825
  C    -31.291952  -23.825780   -7.701118
  C    -34.680008  -23.372372   -8.568224
  C    -34.564231  -21.946267   -6.901448
  C    -35.677140  -22.704189   -6.725671
  C    -30.042786  -24.218663   -6.916116
  C    -36.775576  -24.594611   -7.996823
  H    -32.608201  -22.243125   -9.624888
  H    -32.761436  -20.785114   -8.647463
  H    -31.569497  -21.897222   -6.758743
  H    -30.603910  -21.843908   -8.214168
  H    -32.168184  -24.292532   -7.237625
  H    -31.226844  -24.226195   -8.718997
  H    -34.451413  -23.913342   -9.469872
  H    -34.162634  -21.143839   -6.309055
  H    -36.427161  -22.683430   -5.955188
  H    -30.093021  -23.856152   -5.887159
  H    -29.143630  -23.801446   -7.373319
  H    -29.926595  -25.302082   -6.881769
  H    -36.544029  -25.155277   -8.898452
  H    -36.809213  -25.273378   -7.146854
  H    -37.737810  -24.099856   -8.114588
  O     12.687975    5.403947    2.116254
  F     10.221407    7.228093    1.928205
  O      9.897540    4.299982    1.367784
  F     14.803617    7.121674    0.875874
  F      8.240065    6.812975    1.149712
  S     12.887357    5.315921    0.693157
  C      9.549898    6.844188    0.838317
  F     12.836703    7.983040    0.565736
  C     13.635808    6.961702    0.227136
  O     13.839110    4.364083    0.182477
  S     10.096084    5.161085    0.232109
  N     11.592373    5.369638   -0.214482
  F      9.721200    7.781082   -0.107851
  F     13.883931    7.046641   -1.086980
  O      9.288296    4.968711   -0.943182

----------------------------
CARTESIAN COORDINATES (A.U.)
----------------------------
  NO LB      ZA    FRAG     MASS         X           Y           Z
   0 N     7.0000    0    14.007  -64.170437  -42.286356  -15.230889
   1 N     7.0000    0    14.007  -67.524364  -44.580596  -14.699359
   2 C     6.0000    0    12.011  -61.760729  -41.330181  -16.257467
   3 C     6.0000    0    12.011  -59.498532  -42.164080  -14.679061
   4 C     6.0000    0    12.011  -59.133219  -45.024200  -14.553004
   5 C     6.0000    0    12.011  -65.535718  -44.167382  -16.191597
   6 C     6.0000    0    12.011  -65.316931  -41.472434  -13.041847
   7 C     6.0000    0    12.011  -67.420024  -42.904700  -12.709676
   8 C     6.0000    0    12.011  -56.772638  -45.766641  -13.069565
   9 C     6.0000    0    12.011  -69.495767  -46.477079  -15.111806
  10 H     1.0000    0     1.008  -61.620569  -42.033414  -18.188403
  11 H     1.0000    0     1.008  -61.910141  -39.278173  -16.341336
  12 H     1.0000    0     1.008  -59.657703  -41.379753  -12.772173
  13 H     1.0000    0     1.008  -57.833008  -41.279004  -15.522529
  14 H     1.0000    0     1.008  -60.789059  -45.906232  -13.677129
  15 H     1.0000    0     1.008  -59.010184  -45.780874  -16.476517
  16 H     1.0000    0     1.008  -65.103735  -45.189668  -17.895465
  17 H     1.0000    0     1.008  -64.558021  -39.956066  -11.922387
  18 H     1.0000    0     1.008  -68.837358  -42.865470  -11.253674
  19 H     1.0000    0     1.008  -56.867567  -45.081595  -11.125118
  20 H     1.0000    0     1.008  -55.073479  -44.978215  -13.933553
  21 H     1.0000    0     1.008  -56.553068  -47.814006  -13.004658
  22 H     1.0000    0     1.008  -69.058207  -47.536584  -16.815637
  23 H     1.0000    0     1.008  -69.559331  -47.759764  -13.505596
  24 H     1.0000    0     1.008  -71.314125  -45.542128  -15.334350
  25 O     8.0000    0    15.999   23.976799   10.211979    3.999140
  26 F     9.0000    0    18.998   19.315660   13.659116    3.643779
  27 O     8.0000    0    15.999   18.703640    8.125788    2.584738
  28 F     9.0000    0    18.998   27.974782   13.458013    1.655162
  29 F     9.0000    0    18.998   15.571466   12.874656    2.172641
  30 S    16.0000    0    32.060   24.353575   10.045636    1.309877
  31 C     6.0000    0    12.011   18.046692   12.933641    1.584189
  32 F     9.0000    0    18.998   24.257853   15.085759    1.069086
  33 C     6.0000    0    12.011   25.767943   13.155710    0.429225
  34 O     8.0000    0    15.999   26.152128    8.246922    0.344832
  35 S    16.0000    0    32.060   19.078834    9.753038    0.438623
  36 N     7.0000    0    14.007   21.906410   10.147146   -0.405311
  37 F     9.0000    0    18.998   18.370405   14.704113   -0.203808
  38 F     9.0000    0    18.998   26.236827   13.316221   -2.054095
  39 O     8.0000    0    15.999   17.552337    9.389503   -1.782356

--------------------------------
INTERNAL COORDINATES (ANGSTROEM)
--------------------------------
 N      0   0   0     0.000000000000     0.00000000     0.00000000
 N      1   0   0     2.168651041380     0.00000000     0.00000000
 C      1   2   0     1.475524858929   161.26131627     0.00000000
 C      3   1   2     1.524938367149   112.18071966   259.95243699
 C      4   3   1     1.527263358299   114.20849180    61.62798949
 C      1   2   3     1.330879173086    35.56730205     7.32533278
 C      1   2   6     1.376758458444    72.86423234   180.25788991
 C      7   1   2     1.357906457359   107.18542673   359.88814245
 C      5   4   3     1.526760893006   112.39769598   177.03687923
 C      2   1   3     1.463937281777   161.37722834   351.16680460
 H      3   1   2     1.089988419734   106.67053340    21.91261256
 H      3   1   2     1.089654820284   107.09869563   137.21447359
 H      4   3   1     1.094351463694   109.56539529   297.46141997
 H      4   3   1     1.093332800788   106.57369191   183.16915885
 H      5   4   3     1.095658078732   109.84120068   298.70087527
 H      5   4   3     1.095741407254   109.21323923    55.21363205
 H      6   1   2     1.076045501475   125.50453406   180.04296214
 H      7   1   2     1.075220601587   122.17071642   180.22475856
 H      8   7   1     1.075456528547   130.80873730   180.63899281
 H      9   5   4     1.092103716706   111.18496620    59.97868827
 H      9   5   4     1.091598079558   111.11468047   299.90920317
 H      9   5   4     1.090173075234   111.04728315   179.96187458
 H     10   2   1     1.086689484873   108.99901234     2.44319985
 H     10   2   1     1.088257889396   109.46074109   122.11134269
 H     10   2   1     1.088367699840   109.54375850   242.70092137
 O     21   9   5    51.893064681067   143.37080033   125.05141546
 F     26  21   9     3.073569669229    71.09002481   285.25258579
 O     27  26  21     2.998798775284    61.22310338   355.62616961
 F     26  21   9     2.994172380697   144.75624622   201.92856787
 F     27  26  21     2.168891479779   129.90243640   345.26524905
 S     26  21   9     1.439689443400    84.05734753   187.89480229
 C     27  26  21     1.336474285055   106.41729851   313.46289150
 F     29  26  21     2.169536684677    69.29203692    63.03858497
 C     33  29  26     1.340279755237    36.19878536   290.84520040
 O     31  26  21     1.439660743549   118.85618973   260.35720681
 S     28  27  26     1.438984631301    63.14623105   264.47733315
 N     36  28  27     1.575378769498   115.72147343    91.22483611
 F     32  27  26     1.342514689760   108.06914930   252.95939870
 F     34  33  29     1.340030191727   108.04985038   243.84511155
 O     36  28  27     1.439040855677   119.15166087   223.64441535

---------------------------
INTERNAL COORDINATES (A.U.)
---------------------------
 N      0   0   0     0.000000000000     0.00000000     0.00000000
 N      1   0   0     4.098156548252     0.00000000     0.00000000
 C      1   2   0     2.788337887169   161.26131627     0.00000000
 C      3   1   2     2.881715885020   112.18071966   259.95243699
 C      4   3   1     2.886109481559   114.20849180    61.62798949
 C      1   2   3     2.514997154473    35.56730205     7.32533278
 C      1   2   6     2.601696439018    72.86423234   180.25788991
 C      7   1   2     2.566071319891   107.18542673   359.88814245
 C      5   4   3     2.885159959762   112.39769598   177.03687923
 C      2   1   3     2.766440539796   161.37722834   351.16680460
 H      3   1   2     2.059779602443   106.67053340    21.91261256
 H      3   1   2     2.059149190844   107.09869563   137.21447359
 H      4   3   1     2.068024560637   109.56539529   297.46141997
 H      4   3   1     2.066099566723   106.57369191   183.16915885
 H      5   4   3     2.070493705221   109.84120068   298.70087527
 H      5   4   3     2.070651173307   109.21323923    55.21363205
 H      6   1   2     2.033431305426   125.50453406   180.04296214
 H      7   1   2     2.031872470550   122.17071642   180.22475856
 H      8   7   1     2.032318307891   130.80873730   180.63899281
 H      9   5   4     2.063776934412   111.18496620    59.97868827
 H      9   5   4     2.062821418679   111.11468047   299.90920317
 H      9   5   4     2.060128550768   111.04728315   179.96187458
 H     10   2   1     2.053545519022   108.99901234     2.44319985
 H     10   2   1     2.056509374038   109.46074109   122.11134269
 H     10   2   1     2.056716885704   109.54375850   242.70092137
 O     21   9   5    98.063680497078   143.37080033   125.05141546
 F     26  21   9     5.808204928370    71.09002481   285.25258579
 O     27  26  21     5.666908416026    61.22310338   355.62616961
 F     26  21   9     5.658165797268   144.75624622   201.92856787
 F     27  26  21     4.098610910978   129.90243640   345.26524905
 S     26  21   9     2.720618765924    84.05734753   187.89480229
 C     27  26  21     2.525570383782   106.41729851   313.46289150
 F     29  26  21     4.099830171534    69.29203692    63.03858497
 C     33  29  26     2.532761680237    36.19878536   290.84520040
 O     31  26  21     2.720564531066   118.85618973   260.35720681
 S     28  27  26     2.719286864080    63.14623105   264.47733315
 N     36  28  27     2.977034431544   115.72147343    91.22483611
 F     32  27  26     2.536985094412   108.06914930   252.95939870
 F     34  33  29     2.532290073549   108.04985038   243.84511155
 O     36  28  27     2.719393112754   119.15166087   223.64441535



           ************************************************************
           *        Program running with 30 parallel MPI-processes    *
           *              working on a common directory               *
           ************************************************************
------------------------------------------------------------------------------
                   ___                                                        
                  /   \      - P O W E R E D   B Y -                         
                 /     \                                                     
                 |  |  |   _    _      __       _____    __    __             
                 |  |  |  | |  | |    /  \     |  _  \  |  |  /  |          
                  \  \/   | |  | |   /    \    | | | |  |  | /  /          
                 / \  \   | |__| |  /  /\  \   | |_| |  |  |/  /          
                |  |  |   |  __  | /  /__\  \  |    /   |      \           
                |  |  |   | |  | | |   __   |  |    \   |  |\   \          
                \     /   | |  | | |  |  |  |  | |\  \  |  | \   \       
                 \___/    |_|  |_| |__|  |__|  |_| \__\ |__|  \__/        
                                                                              
                      - O R C A' S   B I G   F R I E N D -                    
                                      &                                       
                       - I N T E G R A L  F E E D E R -                       
                                                                              
 v1 FN, 2020, v2 2021, v3 2022-2024                                           
------------------------------------------------------------------------------


----------------------
SHARK INTEGRAL PACKAGE
----------------------

Number of atoms                             ...     40
Number of basis functions                   ...    877
Number of shells                            ...    339
Maximum angular momentum                    ...      3
Integral batch strategy                     ... SHARK/LIBINT Hybrid
RI-J (if used) integral strategy            ... SPLIT-RIJ (Revised 2003 algorithm where possible)
Printlevel                                  ...      1
Contraction scheme used                     ... SEGMENTED contraction
Prescreening option                         ... SCHWARTZ
   Thresh                                   ... 2.500e-11
   Tcut                                     ... 2.500e-12
   Tpresel                                  ... 2.500e-12 
Coulomb Range Separation                    ... NOT USED
Exchange Range Separation                   ... NOT USED
Multipole approximations                    ... NOT USED
Finite Nucleus Model                        ... NOT USED
CABS basis                                  ... NOT available
Auxiliary Coulomb fitting basis             ... AVAILABLE
   # of basis functions in Aux-J            ...   1394
   # of shells in Aux-J                     ...    454
   Maximum angular momentum in Aux-J        ...      4
Auxiliary J/K fitting basis                 ... NOT available
Auxiliary Correlation fitting basis         ... NOT available
Auxiliary 'external' fitting basis          ... NOT available

Checking pre-screening integrals            ... done (  0.0 sec) Dimension = 339
Check shell pair data                       ... done (  0.0 sec)
Shell pair information
Shell pair cut-off parameter TPreSel        ...   2.5e-12
Total number of shell pairs                 ...     57630
Shell pairs after pre-screening             ...     23190
Total number of primitive shell pairs       ...    183333
Primitive shell pairs kept                  ...     51010
          la=0 lb=0:   5702 shell pairs
          la=1 lb=0:   6569 shell pairs
          la=1 lb=1:   1992 shell pairs
          la=2 lb=0:   3211 shell pairs
          la=2 lb=1:   2009 shell pairs
          la=2 lb=2:    541 shell pairs
          la=3 lb=0:   1541 shell pairs
          la=3 lb=1:    983 shell pairs
          la=3 lb=2:    507 shell pairs
          la=3 lb=3:    135 shell pairs

Calculating one electron integrals          ... done (  0.1 sec)
Calculating RI/J V-Matrix + Cholesky decomp.... done (  0.1 sec)
Calculating Nuclear repulsion               ... done (  0.0 sec) ENN=   2254.688375790018 Eh

Diagonalization of the overlap matrix:
Smallest eigenvalue                        ... 8.156e-05
Time for diagonalization                   ...    0.096 sec
Threshold for overlap eigenvalues          ... 1.000e-07
Number of eigenvalues below threshold      ... 0
Time for construction of square roots      ...    0.055 sec
Total time needed                          ...    0.158 sec

-------------------
DFT GRID GENERATION
-------------------

General Integration Accuracy     IntAcc      ... 4.388
Radial Grid Type                 RadialGrid  ... OptM3 with GC (2021)
Angular Grid (max. ang.)         AngularGrid ... 4 (Lebedev-302)
Angular grid pruning method      GridPruning ... 4 (adaptive)
Weight generation scheme         WeightScheme... mBecke (2022)
Basis function cutoff            BFCut       ... 1.0000e-11
Integration weight cutoff        WCut        ... 1.0000e-14
Partially contracted basis set               ... off
Rotationally invariant grid construction     ... off
Angular grids for H and He will be reduced by one unit

Total number of grid points                  ...   201659
Total number of batches                      ...     3171
Average number of points per batch           ...       63
Average number of grid points per atom       ...     5041

--------------------
COSX GRID GENERATION
--------------------

GRIDX 1
-------
General Integration Accuracy     IntAcc      ... 3.816
Radial Grid Type                 RadialGrid  ... OptM3 with GC (2021)
Angular Grid (max. ang.)         AngularGrid ... 1 (Lebedev-50)
Angular grid pruning method      GridPruning ... 4 (adaptive)
Weight generation scheme         WeightScheme... mBecke (2022)
Basis function cutoff            BFCut       ... 1.0000e-11
Integration weight cutoff        WCut        ... 1.0000e-14
Partially contracted basis set               ... on
Rotationally invariant grid construction     ... off
Angular grids for H and He will be reduced by one unit

Total number of grid points                  ...    27643
Total number of batches                      ...      239
Average number of points per batch           ...      115
Average number of grid points per atom       ...      691
UseSFitting                                  ... on

GRIDX 2
-------
General Integration Accuracy     IntAcc      ... 4.020
Radial Grid Type                 RadialGrid  ... OptM3 with GC (2021)
Angular Grid (max. ang.)         AngularGrid ... 2 (Lebedev-110)
Angular grid pruning method      GridPruning ... 4 (adaptive)
Weight generation scheme         WeightScheme... mBecke (2022)
Basis function cutoff            BFCut       ... 1.0000e-11
Integration weight cutoff        WCut        ... 1.0000e-14
Partially contracted basis set               ... on
Rotationally invariant grid construction     ... off
Angular grids for H and He will be reduced by one unit

Total number of grid points                  ...    56710
Total number of batches                      ...      466
Average number of points per batch           ...      121
Average number of grid points per atom       ...     1418
UseSFitting                                  ... on

GRIDX 3
-------
General Integration Accuracy     IntAcc      ... 4.338
Radial Grid Type                 RadialGrid  ... OptM3 with GC (2021)
Angular Grid (max. ang.)         AngularGrid ... 3 (Lebedev-194)
Angular grid pruning method      GridPruning ... 4 (adaptive)
Weight generation scheme         WeightScheme... mBecke (2022)
Basis function cutoff            BFCut       ... 1.0000e-11
Integration weight cutoff        WCut        ... 1.0000e-14
Partially contracted basis set               ... on
Rotationally invariant grid construction     ... off
Angular grids for H and He will be reduced by one unit

Total number of grid points                  ...   125761
Total number of batches                      ...     1001
Average number of points per batch           ...      125
Average number of grid points per atom       ...     3144
UseSFitting                                  ... on
Initializing property integral containers    ... done (  0.0 sec)

SHARK setup successfully completed in   2.4 seconds

Maximum memory used throughout the entire STARTUP-calculation: 74.6 MB


           ************************************************************
           *        Program running with 30 parallel MPI-processes    *
           *              working on a common directory               *
           ************************************************************
Occupation numbers will be reassigned to an Aufbau configuration
             **** ENERGY FILE WAS UPDATED (complex.en.tmp) ****
Finished Guess after   1.4 sec
Maximum memory used throughout the entire GUESS-calculation: 66.9 MB


           ************************************************************
           *        Program running with 30 parallel MPI-processes    *
           *              working on a common directory               *
           ************************************************************
----------------------------------------D-I-I-S--------------------------------------------
Iteration    Energy (Eh)           Delta-E    RMSDP     MaxDP     DIISErr   Damp  Time(sec)
-------------------------------------------------------------------------------------------
               ***  Starting incremental Fock matrix formation  ***
                              *** Initializing SOSCF ***
---------------------------------------S-O-S-C-F--------------------------------------
Iteration    Energy (Eh)           Delta-E    RMSDP     MaxDP     MaxGrad    Time(sec)
--------------------------------------------------------------------------------------
    1    -2250.3913713518827535     0.00e+00  1.63e-05  1.13e-03  1.48e-04     2.3
               *** Restarting incremental Fock matrix formation ***
    2    -2250.3914647667847930    -9.34e-05  5.84e-06  3.98e-04  1.63e-04     1.9
    3    -2250.3914715135028928    -6.75e-06  3.89e-06  2.88e-04  8.31e-05     1.4
    4    -2250.3914711258717034     3.88e-07  1.93e-06  1.84e-04  1.22e-04     1.4
    5    -2250.3914722737340526    -1.15e-06  3.30e-07  3.34e-05  1.20e-05     1.3
    6    -2250.3914722595914100     1.41e-08  1.83e-07  1.99e-05  1.57e-05     1.1
    7    -2250.3914722767799503    -1.72e-08  6.33e-08  4.34e-06  7.69e-07     1.1
                  *** Gradient check signals convergence ***

               *****************************************************
               *                     SUCCESS                       *
               *           SCF CONVERGED AFTER   7 CYCLES          *
               *****************************************************

Recomputing exchange energy using gridx3       ... done (    2.268 sec)
Old exchange energy                            :    -44.134556556 Eh
New exchange energy                            :    -44.134550926 Eh
Exchange energy change after final integration :      0.000005630 Eh
Total energy after final integration           :  -2250.391466647 Eh
             **** ENERGY FILE WAS UPDATED (complex.en.tmp) ****

----------------
TOTAL SCF ENERGY
----------------

Total Energy       :      -2250.39146664660529 Eh          -61236.26500 eV

Components:
Nuclear Repulsion  :       2254.68837579001820 Eh           61353.18984 eV
Electronic Energy  :      -4505.07984806679815 Eh         -122589.45499 eV
One Electron Energy:      -7591.84111424172443 Eh         -206584.49927 eV
Two Electron Energy:       3086.76126617492673 Eh           83995.04428 eV

Virial components:
Potential Energy   :      -4494.02381796126247 Eh         -122288.60512 eV
Kinetic Energy     :       2243.63235131465672 Eh           61052.34012 eV
Virial Ratio       :          2.00301257705078

DFT components:
N(Alpha)           :      107.000057847825 electrons
N(Beta)            :      107.000057847825 electrons
N(Total)           :      214.000115695651 electrons
E(X)               :     -175.611647629335 Eh       
E(C)               :       -9.203010980881 Eh       
E(XC)              :     -184.814658610215 Eh       

---------------
SCF CONVERGENCE
---------------

  Last Energy change         ...    1.7189e-08  Tolerance :   1.0000e-08
  Last MAX-Density change    ...    4.3434e-06  Tolerance :   1.0000e-07
  Last RMS-Density change    ...    6.3309e-08  Tolerance :   5.0000e-09
  Last DIIS Error            ...    2.7345e-03  Tolerance :   5.0000e-07
  Last Orbital Gradient      ...    7.6864e-07  Tolerance :   1.0000e-05
  Last Orbital Rotation      ...    1.6225e-06  Tolerance :   1.0000e-05


Total SCF time: 0 days 0 hours 0 min 13 sec 
Finished LeanSCF after  14.0 sec

Maximum memory used throughout the entire LEANSCF-calculation: 98.1 MB


-------------------------------------------------------------------------------
                          DFT DISPERSION CORRECTION                            
                                                                               
                                DFTD4 V3.4.0                                   
-------------------------------------------------------------------------------
-------------------------   ----------------
Dispersion correction           -0.073108650
-------------------------   ----------------


-------------------------   --------------------
FINAL SINGLE POINT ENERGY     -2250.464575297034
-------------------------   --------------------



           ************************************************************
           *        Program running with 30 parallel MPI-processes    *
           *              working on a common directory               *
           ************************************************************
------------------------------------------------------------------------------
                         ORCA SCF GRADIENT CALCULATION
------------------------------------------------------------------------------

Nuc. rep. gradient        (SHARK) ... done (  0.0 sec)
HCore & Overlap gradient  (SHARK) ... done (  0.1 sec)
Split-RIJ-J gradient      (SHARK) ... done (  0.8 sec)
COSX-gradient                     ... done (  5.8 sec)
XC gradient                       ... done (  0.9 sec)
Dispersion correction             ... done (  0.0 sec)

-------------------
DISPERSION GRADIENT
-------------------

   1   N   :   -0.000253119    0.000339390   -0.000125216
   2   N   :   -0.000403735   -0.000133350    0.000020983
   3   C   :    0.000316741    0.000505668   -0.000425889
   4   C   :    0.000592197    0.000291039   -0.000058285
   5   C   :    0.000658429   -0.000399377    0.000050508
   6   C   :   -0.000457373   -0.000043638   -0.000218306
   7   C   :   -0.000425688    0.000380406    0.000339481
   8   C   :   -0.000349269    0.000142579    0.000329042
   9   C   :    0.000411830   -0.000307707    0.000203317
  10   C   :   -0.000537270   -0.000492126   -0.000099281
  11   H   :    0.000057078    0.000103337   -0.000177406
  12   H   :    0.000065082    0.000185479   -0.000097125
  13   H   :    0.000149066    0.000099295    0.000065726
  14   H   :    0.000123850    0.000098850   -0.000047735
  15   H   :    0.000227176   -0.000183977    0.000080446
  16   H   :    0.000179878   -0.000134355   -0.000044167
  17   H   :   -0.000077712   -0.000110681   -0.000228538
  18   H   :   -0.000079404    0.000181252    0.000180857
  19   H   :   -0.000103279    0.000052248    0.000164605
  20   H   :    0.000102241   -0.000081509    0.000078214
  21   H   :    0.000106222   -0.000073440    0.000039136
  22   H   :    0.000073120   -0.000072375    0.000041027
  23   H   :   -0.000115451   -0.000122323   -0.000042982
  24   H   :   -0.000114254   -0.000135930    0.000004612
  25   H   :   -0.000146164   -0.000088629   -0.000032987
  26   O   :    0.000490012   -0.000316328    0.000815500
  27   F   :   -0.000462823    0.000532385    0.000474368
  28   O   :   -0.000500049   -0.000702714    0.000298221
  29   F   :    0.000401464    0.000315388    0.000046772
  30   F   :   -0.000402022    0.000286953    0.000160436
  31   S   :    0.001386294   -0.000350867    0.000117906
  32   C   :   -0.000719676    0.000293809    0.000063703
  33   F   :    0.000444469    0.000671058   -0.000024169
  34   C   :    0.000626589    0.000276467   -0.000077304
  35   O   :    0.000525665   -0.000591751   -0.000091674
  36   S   :   -0.001307789   -0.000402162   -0.000211897
  37   N   :    0.000031736   -0.000554046   -0.000558349
  38   F   :   -0.000427404    0.000567293   -0.000120217
  39   F   :    0.000343811    0.000330869   -0.000351082
  40   O   :   -0.000430470   -0.000356481   -0.000542252

Difference to translation invariance:
           :   -0.0000000000   -0.0000000000   -0.0000000000

Difference to rotation invariance:
           :    0.0000000000   -0.0000000000    0.0000000000

Norm of the Dispersion gradient    ...    0.0039883078
RMS gradient                       ...    0.0003640810
MAX gradient                       ...    0.0013862942

------------------
CARTESIAN GRADIENT
------------------

   1   N   :    0.000043571   -0.000178128    0.000094454
   2   N   :   -0.000094200   -0.000042586    0.000080502
   3   C   :   -0.000053483    0.000049329    0.000036875
   4   C   :   -0.000132854   -0.000054657   -0.000031134
   5   C   :    0.000094421    0.000068977    0.000027594
   6   C   :    0.000033753    0.000146650    0.000033593
   7   C   :   -0.000008137   -0.000001574   -0.000050333
   8   C   :    0.000031063   -0.000113387   -0.000094338
   9   C   :    0.000000288    0.000055048   -0.000068730
  10   C   :    0.000102466    0.000088092   -0.000033305
  11   H   :   -0.000018096   -0.000025668   -0.000017098
  12   H   :    0.000049009   -0.000027052    0.000012978
  13   H   :   -0.000027746   -0.000015441   -0.000004981
  14   H   :   -0.000040039   -0.000013713   -0.000000595
  15   H   :   -0.000070420   -0.000025136    0.000029354
  16   H   :    0.000010034    0.000006805   -0.000015014
  17   H   :   -0.000001381   -0.000020252   -0.000003734
  18   H   :    0.000001718    0.000000712   -0.000002858
  19   H   :    0.000025373    0.000003030   -0.000035139
  20   H   :    0.000000526   -0.000022608   -0.000012466
  21   H   :   -0.000052437   -0.000016184    0.000024919
  22   H   :   -0.000015993    0.000028187    0.000006276
  23   H   :   -0.000002337    0.000023701    0.000010466
  24   H   :    0.000019823    0.000029637   -0.000004723
  25   H   :    0.000026032    0.000007306    0.000002906
  26   O   :   -0.000136396   -0.000026012    0.000098794
  27   F   :   -0.000061160    0.000057071   -0.000048141
  28   O   :   -0.000030814   -0.000021396    0.000074604
  29   F   :   -0.000088467    0.000003887   -0.000043769
  30   F   :   -0.000171467    0.000046034    0.000030976
  31   S   :    0.000393541   -0.000106893    0.000003010
  32   C   :    0.000167777   -0.000016416    0.000103697
  33   F   :   -0.000033054    0.000041902   -0.000017282
  34   C   :    0.000157155   -0.000026671    0.000089296
  35   O   :    0.000029714    0.000106981    0.000042498
  36   S   :    0.000032404    0.000005084   -0.000019203
  37   N   :   -0.000154550    0.000018310   -0.000033564
  38   F   :    0.000007483    0.000021594   -0.000024360
  39   F   :    0.000039878    0.000023348   -0.000089362
  40   O   :   -0.000072998   -0.000077915   -0.000152666

Difference to translation invariance:
           :    0.0000000003    0.0000000001    0.0000000000

Difference to rotation invariance:
           :   -0.0000755737   -0.0007902694    0.0003034016

Norm of the Cartesian gradient     ...    0.0007872313
RMS gradient                       ...    0.0000718641
MAX gradient                       ...    0.0003935413

-------
TIMINGS
-------

Total SCF gradient time     ....        7.696 sec

Densities                   ....       0.023 sec  (  0.3%)
One electron gradient       ....       0.131 sec  (  1.7%)
RI-J Coulomb gradient       ....       0.752 sec  (  9.8%)
COSX gradient               ....       5.829 sec  ( 75.7%)
XC gradient                 ....       0.932 sec  ( 12.1%)

Maximum memory used throughout the entire SCFGRAD-calculation: 117.6 MB
------------------------------------------------------------------------------
                         ORCA GEOMETRY RELAXATION STEP
------------------------------------------------------------------------------

Reading the OPT-File                    .... done
Getting information on internals        .... done
Copying old internal coords+grads       .... done
Making the new internal coordinates     .... (2022 redundants) done
Validating the new internal coordinates .... (2022 redundants) done
Calculating the B-matrix                .... done
Calculating the G,G- and P matrices     .... done
Transforming gradient to internals      .... done
Projecting the internal gradient        .... done
Number of atoms                         ....  40
Number of internal coordinates          .... 1750
Current Energy                          .... -2250.464575297 Eh
Current gradient norm                   ....     0.000787231 Eh/bohr
Maximum allowed component of the step   ....  0.300
Current trust radius                    ....  0.450
Updating the Hessian (BFGS)             .... done
Forming the augmented Hessian           .... done
Diagonalizing the augmented Hessian     .... done
Last element of RFO vector              ....  0.754553772
Lowest eigenvalues of augmented Hessian:
 -0.000005575  0.000004223  0.000239456  0.001365919  0.001477408
Length of the computed step             ....  0.869703721
Warning: the length of the step is outside the trust region - taking restricted step instead
The input lambda is                     ....    -0.001000
The lambda equations have not converged!
Evaluating lambda by bisection method.
   iter   5 best     0.000845 lambda    -0.156250
   iter  10 best     0.004585 lambda    -0.004883
   iter  15 best     0.045289 lambda    -0.000153
   iter  20 best     0.342992 lambda    -0.000014
   iter  25 best     0.449190 lambda    -0.000011
   iter  30 best     0.450143 lambda    -0.000011
   iter  35 best     0.450005 lambda    -0.000011
   iter  40 best     0.450000 lambda    -0.000011
   iter  45 best     0.450000 lambda    -0.000011
The output lambda is                    ....    -0.000011
The final length of the internal step   ....  0.450000000
Converting the step to Cartesian space:
 Initial RMS(Int)=    0.0107570575
Transforming coordinates:
 Iter   0:  RMS(Cart)=    0.0072041851 RMS(Int)=    0.0107568962
done
Storing new coordinates                 .... done
The predicted energy change is          ....    -0.000002856
Previously predicted energy change      ....    -0.000003469
Actually observed energy change         ....    -0.000003671
Ratio of predicted to observed change   ....     1.058112497
New trust radius                        ....     0.675000000

                                .--------------------.
          ----------------------|Geometry convergence|-------------------------
          Item                value                   Tolerance       Converged
          ---------------------------------------------------------------------
          Energy change      -0.0000036709            0.0000010000      NO
          RMS gradient        0.0000091536            0.0000300000      YES
          MAX gradient        0.0001164112            0.0001000000      NO
          RMS step            0.0107570575            0.0006000000      NO
          MAX step            0.0250084391            0.0010000000      NO
          ........................................................
          Max(Bonds)      0.0132      Max(Angles)    0.03
          Max(Dihed)        0.23      Max(Improp)    0.00
          ---------------------------------------------------------------------

The optimization has not yet converged - more geometry cycles are needed


    ---------------------------------------------------------------------------
                         Redundant Internal Coordinates
                            (Angstroem and degrees)

        Definition                    Value    dE/dq     Step     New-Value
    ----------------------------------------------------------------------------
     1. B(C   2,N   0)                1.4755 -0.000002  0.0001    1.4756   
     2. B(C   3,C   2)                1.5249 -0.000069  0.0001    1.5250   
     3. B(C   4,C   3)                1.5273 -0.000078  0.0000    1.5273   
     4. B(C   5,N   0)                1.3309 -0.000010 -0.0000    1.3309   
     5. B(C   5,N   1)                1.3337 -0.000009  0.0000    1.3338   
     6. B(C   6,N   0)                1.3768 -0.000052  0.0000    1.3768   
     7. B(C   7,N   1)                1.3777 -0.000046  0.0000    1.3777   
     8. B(C   7,C   6)                1.3579  0.000003  0.0000    1.3579   
     9. B(C   8,C   4)                1.5268 -0.000049  0.0000    1.5268   
    10. B(C   9,N   1)                1.4639 -0.000007  0.0000    1.4640   
    11. B(H  10,C   2)                1.0900  0.000013 -0.0000    1.0900   
    12. B(H  10,N   0)                2.0707  0.000001  0.0000    2.0708   
    13. B(H  11,C   2)                1.0897 -0.000026  0.0000    1.0897   
    14. B(H  11,N   0)                2.0760 -0.000008  0.0001    2.0762   
    15. B(H  12,C   3)                1.0944  0.000008  0.0000    1.0944   
    16. B(H  13,C   3)                1.0933  0.000008  0.0000    1.0933   
    17. B(H  14,C   4)                1.0957  0.000024 -0.0000    1.0956   
    18. B(H  15,C   4)                1.0957  0.000022  0.0000    1.0957   
    19. B(H  16,C   5)                1.0760  0.000013 -0.0000    1.0760   
    20. B(H  16,N   1)                2.1460 -0.000004 -0.0000    2.1460   
    21. B(H  17,C   6)                1.0752  0.000011  0.0000    1.0752   
    22. B(H  17,N   0)                2.1513 -0.000034  0.0000    2.1513   
    23. B(H  18,N   1)                2.1520 -0.000046  0.0000    2.1521   
    24. B(H  18,C   7)                1.0755 -0.000001  0.0000    1.0755   
    25. B(H  19,C   8)                1.0921 -0.000017  0.0000    1.0921   
    26. B(H  20,C   8)                1.0916 -0.000008  0.0000    1.0916   
    27. B(H  21,C   8)                1.0902 -0.000017  0.0000    1.0902   
    28. B(H  22,C   9)                1.0867 -0.000014 -0.0000    1.0867   
    29. B(H  23,C   9)                1.0883 -0.000009  0.0000    1.0883   
    30. B(H  24,C   9)                1.0884  0.000000  0.0000    1.0884   
    31. B(O  25,N   1)               57.2987 -0.000004 -0.0120   57.2867   
    32. B(O  25,C   5)               56.4443 -0.000006 -0.0121   56.4322   
    33. B(O  25,C   7)               56.6342  0.000001 -0.0119   56.6222   
    34. B(O  25,H  13)               52.1857  0.000005 -0.0123   52.1734   
    35. B(O  25,H  10)               54.3503  0.000002 -0.0123   54.3380   
    36. B(O  25,C   9)               58.7267 -0.000009 -0.0120   58.7147   
    37. B(O  25,C   3)               53.0769  0.000011 -0.0122   53.0647   
    38. B(O  25,H  11)               53.5479 -0.000000 -0.0120   53.5359   
    39. B(O  25,H  23)               58.9650 -0.000009 -0.0119   58.9531   
    40. B(O  25,N   0)               55.2371  0.000001 -0.0120   55.2250   
    41. B(O  25,H  22)               58.9829 -0.000005 -0.0121   58.9708   
    42. B(O  25,H  20)               51.8931  0.000003 -0.0122   51.8809   
    43. B(O  25,H  15)               54.0727 -0.000000 -0.0122   54.0605   
    44. B(O  25,C   2)               54.0120 -0.000004 -0.0122   53.9998   
    45. B(O  25,C   6)               55.3365 -0.000002 -0.0120   55.3245   
    46. B(O  25,H  24)               59.3119 -0.000005 -0.0119   59.3000   
    47. B(O  25,H  18)               57.1520 -0.000006 -0.0119   57.1401   
    48. B(O  25,H  20)               51.8931  0.000003 -0.0122   51.8809   
    49. B(O  25,H  12)               52.7527  0.000001 -0.0122   52.7405   
    50. B(O  25,C   4)               53.7121 -0.000012 -0.0121   53.7000   
    51. B(O  25,H  16)               56.7086 -0.000001 -0.0122   56.6963   
    52. B(O  25,H  19)               52.4445 -0.000003 -0.0120   52.4324   
    53. B(O  25,H  17)               54.5046 -0.000006 -0.0119   54.4927   
    54. B(O  25,H  14)               54.6027  0.000001 -0.0121   54.5906   
    55. B(O  25,H  21)               53.2900 -0.000006 -0.0122   53.2778   
    56. B(O  25,C   8)               52.7731 -0.000001 -0.0121   52.7610   
    57. B(F  26,H  13)               51.1347  0.000002 -0.0121   51.1226   
    58. B(F  26,H  19)               51.5030  0.000002 -0.0123   51.4907   
    59. B(F  26,C   2)               52.8999 -0.000006 -0.0120   52.8879   
    60. B(F  26,C   6)               54.1743 -0.000001 -0.0120   54.1623   
    61. B(F  26,N   0)               54.1110  0.000000 -0.0120   54.0990   
    62. B(F  26,H  24)               58.1583 -0.000007 -0.0119   58.1464   
    63. B(F  26,C   8)               51.8491  0.000002 -0.0122   51.8368   
    64. B(F  26,N   1)               56.1764 -0.000003 -0.0120   56.1644   
    65. B(F  26,H  15)               53.1102 -0.000001 -0.0119   53.0983   
    66. B(F  26,H  12)               51.6742  0.000001 -0.0123   51.6619   
    67. B(F  26,H  21)               52.4184  0.000000 -0.0123   52.4061   
    68. B(F  26,H  14)               53.6138  0.000002 -0.0122   53.6016   
    69. B(F  26,H  10)               53.2579  0.000000 -0.0119   53.2460   
    70. B(F  26,C   9)               57.6186 -0.000008 -0.0120   57.6066   
    71. B(F  26,H  16)               55.6360 -0.000000 -0.0120   55.6240   
    72. B(F  26,H  22)               57.9043 -0.000004 -0.0120   57.8923   
    73. B(F  26,C   7)               55.4753  0.000003 -0.0121   55.4632   
    74. B(F  26,H  18)               55.9726 -0.000004 -0.0121   55.9605   
    75. B(F  26,H  11)               52.3842 -0.000004 -0.0118   52.3725   
    76. B(F  26,H  20)               50.9800  0.000004 -0.0122   50.9678   
    77. B(F  26,C   5)               55.3417 -0.000006 -0.0120   55.3297   
    78. B(F  26,H  23)               57.8842 -0.000005 -0.0121   57.8722   
    79. B(F  26,C   4)               52.7297 -0.000012 -0.0121   52.7177   
    80. B(F  26,C   3)               52.0201  0.000011 -0.0121   52.0080   
    81. B(F  26,H  17)               53.3176 -0.000006 -0.0121   53.3055   
    82. B(O  27,C   8)               49.7711 -0.000000 -0.0123   49.7588   
    83. B(O  27,C   3)               50.0421  0.000010 -0.0124   50.0296   
    84. B(O  27,H  14)               51.5859  0.000002 -0.0123   51.5736   
    85. B(O  27,H  12)               49.7177  0.000002 -0.0124   49.7053   
    86. B(O  27,C   9)               55.6864 -0.000008 -0.0122   55.6742   
    87. B(O  27,H  17)               51.4550 -0.000005 -0.0122   51.4429   
    88. B(O  27,H  24)               56.2636 -0.000005 -0.0121   56.2515   
    89. B(O  27,H  19)               49.4434 -0.000000 -0.0123   49.4311   
    90. B(O  27,N   0)               52.1901 -0.000000 -0.0122   52.1779   
    91. B(O  27,C   4)               50.6940 -0.000012 -0.0123   50.6817   
    92. B(O  27,H  10)               51.3041 -0.000001 -0.0124   51.2917   
    93. B(O  27,C   5)               53.4008 -0.000007 -0.0123   53.3885   
    94. B(O  27,H  18)               54.1083 -0.000003 -0.0121   54.0962   
    95. B(O  27,C   2)               50.9646 -0.000006 -0.0123   50.9522   
    96. B(O  27,C   7)               53.5890  0.000002 -0.0122   53.5768   
    97. B(O  27,C   6)               52.2886 -0.000001 -0.0122   52.2764   
    98. B(O  27,H  22)               55.9449 -0.000005 -0.0123   55.9326   
    99. B(O  27,H  16)               53.6682 -0.000003 -0.0124   53.6558   
   100. B(O  27,H  23)               55.9339 -0.000007 -0.0122   55.9217   
   101. B(O  27,H  15)               51.0559 -0.000002 -0.0123   51.0435   
   102. B(O  27,N   1)               54.2554 -0.000004 -0.0122   54.2432   
   103. B(O  27,H  20)               48.8908  0.000003 -0.0124   48.8784   
   104. B(O  27,H  21)               50.3021 -0.000004 -0.0124   50.2897   
   105. B(O  27,H  11)               50.4911 -0.000003 -0.0122   50.4790   
   106. B(O  27,H  13)               49.1496  0.000003 -0.0125   49.1372   
   107. B(F  28,H  18)               59.6624 -0.000002 -0.0122   59.6502   
   108. B(F  28,N   1)               59.7667 -0.000004 -0.0123   59.7543   
   109. B(F  28,H  22)               61.4322 -0.000007 -0.0123   61.4199   
   110. B(F  28,H  20)               54.3659 -0.000001 -0.0122   54.3537   
   111. B(F  28,H  14)               57.0879  0.000001 -0.0122   57.0758   
   112. B(F  28,H  12)               55.2345  0.000001 -0.0124   55.2221   
   113. B(F  28,C   9)               61.1969 -0.000009 -0.0123   61.1846   
   114. B(F  28,C   7)               59.1242  0.000002 -0.0123   59.1119   
   115. B(F  28,H  15)               56.5115 -0.000007 -0.0122   56.4993   
   116. B(F  28,C   6)               57.8154 -0.000001 -0.0123   57.8031   
   117. B(F  28,H  17)               56.9935 -0.000004 -0.0123   56.9812   
   118. B(F  28,H  16)               59.1292 -0.000006 -0.0125   59.1167   
   119. B(F  28,H  10)               56.7489 -0.000004 -0.0126   56.7363   
   120. B(F  28,C   3)               55.5314  0.000008 -0.0124   55.5189   
   121. B(F  28,C   5)               58.8872 -0.000008 -0.0124   58.8748   
   122. B(F  28,C   2)               56.4389 -0.000007 -0.0125   56.4264   
   123. B(F  28,H  13)               54.6212 -0.000000 -0.0125   54.6087   
   124. B(F  28,C   4)               56.1793 -0.000015 -0.0122   56.1671   
   125. B(F  28,H  24)               61.7755 -0.000005 -0.0123   61.7632   
   126. B(F  28,H  11)               55.9635 -0.000004 -0.0124   55.9512   
   127. B(F  28,H  21)               55.7877 -0.000006 -0.0121   55.7757   
   128. B(F  28,N   0)               57.6859 -0.000001 -0.0124   57.6736   
   129. B(F  28,C   8)               55.2642 -0.000003 -0.0121   55.2521   
   130. B(F  28,H  23)               61.4629 -0.000007 -0.0122   61.4507   
   131. B(F  28,H  19)               54.9643 -0.000002 -0.0121   54.9522   
   132. B(F  29,C   3)               50.0590  0.000006 -0.0120   50.0470   
   133. B(F  29,H  13)               49.1707 -0.000002 -0.0119   49.1587   
   134. B(F  29,H  19)               49.5937 -0.000005 -0.0123   49.5815   
   135. B(F  29,N   0)               52.1297 -0.000004 -0.0119   52.1178   
   136. B(F  29,C   8)               49.9359 -0.000003 -0.0121   49.9238   
   137. B(F  29,H  14)               51.6791 -0.000003 -0.0121   51.6670   
   138. B(F  29,N   1)               54.2005 -0.000008 -0.0120   54.1885   
   139. B(F  29,H  18)               53.9970 -0.000012 -0.0121   53.9849   
   140. B(F  29,H  16)               53.6605 -0.000002 -0.0118   53.6486   
   141. B(F  29,C   7)               53.4977 -0.000004 -0.0121   53.4857   
   142. B(F  29,H  17)               51.3343 -0.000012 -0.0121   51.3222   
   143. B(F  29,C   5)               53.3641 -0.000010 -0.0119   53.3522   
   144. B(F  29,H  10)               51.2731 -0.000001 -0.0117   51.2613   
   145. B(F  29,H  12)               49.7154 -0.000004 -0.0123   49.7031   
   146. B(F  29,H  15)               51.1709 -0.000005 -0.0117   51.1591   
   147. B(F  29,H  20)               49.0655 -0.000000 -0.0120   49.0535   
   148. B(F  29,C   4)               50.7922 -0.000016 -0.0119   50.7803   
   149. B(F  29,C   2)               50.9169 -0.000009 -0.0119   50.9051   
   150. B(F  29,H  24)               56.1729 -0.000013 -0.0119   56.1610   
   151. B(F  29,H  22)               55.9334 -0.000008 -0.0119   55.9216   
   152. B(F  29,H  23)               55.9268 -0.000011 -0.0120   55.9148   
   153. B(F  29,C   9)               55.6462 -0.000013 -0.0119   55.6343   
   154. B(F  29,H  21)               50.5230 -0.000005 -0.0121   50.5109   
   155. B(F  29,C   6)               52.1931 -0.000007 -0.0120   52.1811   
   156. B(F  29,H  11)               50.3861 -0.000008 -0.0117   50.3744   
   157. B(S  30,H  14)               54.4937  0.000014 -0.0121   54.4816   
   158. B(S  30,H  17)               54.4321  0.000009 -0.0122   54.4199   
   159. B(S  30,H  20)               51.7638  0.000012 -0.0121   51.7517   
   160. B(S  30,H  10)               54.1831  0.000010 -0.0125   54.1706   
   161. B(S  30,N   1)               57.1949  0.000009 -0.0123   57.1827   
   162. B(S  30,H  15)               53.9202  0.000007 -0.0122   53.9080   
   163. B(S  30,O  25)                1.4397  0.000116 -0.0000    1.4397   
   164. B(S  30,C   2)               53.8716  0.000007 -0.0124   53.8592   
   165. B(S  30,H  21)               53.1778  0.000005 -0.0120   53.1657   
   166. B(S  30,H  24)               59.2096  0.000008 -0.0122   59.1974   
   167. B(S  30,H  22)               58.8554  0.000006 -0.0123   58.8431   
   168. B(S  30,C   9)               58.6222  0.000004 -0.0122   58.6100   
   169. B(S  30,H  23)               58.8806  0.000005 -0.0121   58.8684   
   170. B(S  30,H  16)               56.5561  0.000008 -0.0124   56.5437   
   171. B(S  30,H  18)               57.0972  0.000010 -0.0121   57.0850   
   172. B(S  30,C   3)               52.9513  0.000022 -0.0124   52.9389   
   173. B(S  30,C   7)               56.5568  0.000015 -0.0122   56.5446   
   174. B(S  30,C   5)               56.3156  0.000005 -0.0123   56.3033   
   175. B(S  30,C   8)               52.6611  0.000010 -0.0121   52.6490   
   176. B(S  30,H  12)               52.6545  0.000014 -0.0123   52.6422   
   177. B(S  30,H  19)               52.3605  0.000010 -0.0120   52.3485   
   178. B(S  30,C   6)               55.2500  0.000011 -0.0122   55.2377   
   179. B(S  30,N   0)               55.1176  0.000012 -0.0123   55.1054   
   180. B(S  30,C   4)               53.5865 -0.000002 -0.0121   53.5744   
   181. B(S  30,H  11)               53.4071  0.000010 -0.0123   53.3948   
   182. B(S  30,H  13)               52.0431  0.000014 -0.0124   52.0307   
   183. B(C  31,H  16)               54.6663  0.000011 -0.0119   54.6543   
   184. B(C  31,H  20)               50.0377  0.000013 -0.0119   50.0258   
   185. B(C  31,C   7)               54.5509  0.000012 -0.0121   54.5389   
   186. B(C  31,C   4)               51.7844 -0.000002 -0.0119   51.7725   
   187. B(C  31,C   5)               54.3857  0.000005 -0.0120   54.3738   
   188. B(C  31,F  29)                1.3467  0.000052  0.0000    1.3467   
   189. B(C  31,F  26)                1.3365 -0.000024 -0.0000    1.3364   
   190. B(C  31,H  21)               51.4915  0.000008 -0.0120   51.4795   
   191. B(C  31,H  11)               51.4160  0.000007 -0.0118   51.4042   
   192. B(C  31,C   2)               51.9352  0.000006 -0.0119   51.9233   
   193. B(C  31,C   6)               53.2433  0.000009 -0.0121   53.2313   
   194. B(C  31,H  24)               57.2173  0.000004 -0.0119   57.2053   
   195. B(C  31,N   0)               53.1597  0.000011 -0.0119   53.1477   
   196. B(C  31,C   8)               50.9177  0.000010 -0.0120   50.9057   
   197. B(C  31,H  22)               56.9510  0.000007 -0.0119   56.9391   
   198. B(C  31,H  12)               50.7404  0.000011 -0.0122   50.7282   
   199. B(C  31,C   9)               56.6790  0.000003 -0.0120   56.6670   
   200. B(C  31,H  14)               52.6794  0.000012 -0.0120   52.6674   
   201. B(C  31,H  19)               50.5896  0.000010 -0.0121   50.5774   
   202. B(C  31,H  17)               52.3947  0.000004 -0.0121   52.3825   
   203. B(C  31,H  23)               56.9602  0.000005 -0.0120   56.9482   
   204. B(C  31,H  10)               52.2767  0.000012 -0.0119   52.2648   
   205. B(C  31,N   1)               55.2362  0.000007 -0.0120   55.2242   
   206. B(C  31,H  15)               52.1484  0.000008 -0.0117   52.1366   
   207. B(C  31,H  18)               55.0629  0.000005 -0.0121   55.0508   
   208. B(C  31,H  13)               50.1725  0.000012 -0.0120   50.1605   
   209. B(C  31,C   3)               51.0691  0.000021 -0.0121   51.0570   
   210. B(F  32,H  21)               54.6998 -0.000006 -0.0120   54.6877   
   211. B(F  32,H  11)               54.6963  0.000002 -0.0123   54.6840   
   212. B(F  32,C   3)               54.3295  0.000012 -0.0124   54.3171   
   213. B(F  32,C   8)               54.1441 -0.000002 -0.0121   54.1320   
   214. B(F  32,H  12)               54.0221  0.000004 -0.0125   54.0097   
   215. B(F  32,H  19)               53.8362 -0.000002 -0.0121   53.8241   
   216. B(F  32,N   1)               58.5278  0.000001 -0.0123   58.5155   
   217. B(F  32,H  24)               60.5181 -0.000001 -0.0122   60.5059   
   218. B(F  32,H  23)               60.2511 -0.000002 -0.0122   60.2389   
   219. B(F  32,H  22)               60.2177 -0.000002 -0.0123   60.2055   
   220. B(F  32,C   9)               59.9666 -0.000004 -0.0123   59.9544   
   221. B(F  32,H  13)               53.4212  0.000002 -0.0124   53.4088   
   222. B(F  32,H  18)               58.3942  0.000002 -0.0123   58.3819   
   223. B(F  32,H  16)               57.9160  0.000001 -0.0124   57.9036   
   224. B(F  32,C   7)               57.8659  0.000007 -0.0123   57.8536   
   225. B(F  32,C   5)               57.6579 -0.000003 -0.0123   57.6455   
   226. B(F  32,C   6)               56.5541  0.000004 -0.0123   56.5418   
   227. B(F  32,N   0)               56.4432  0.000004 -0.0123   56.4309   
   228. B(F  32,H  20)               53.2506 -0.000000 -0.0121   53.2386   
   229. B(F  32,H  14)               55.9289  0.000002 -0.0122   55.9168   
   230. B(F  32,H  17)               55.7187  0.000001 -0.0123   55.7064   
   231. B(F  32,H  10)               55.5221  0.000002 -0.0124   55.5098   
   232. B(F  32,H  15)               55.3646 -0.000005 -0.0121   55.3525   
   233. B(F  32,C   2)               55.2025 -0.000002 -0.0124   55.1901   
   234. B(F  32,C   4)               55.0225 -0.000013 -0.0121   55.0104   
   235. B(C  33,H  21)               54.6733 -0.000000 -0.0119   54.6614   
   236. B(C  33,F  32)                1.3403  0.000050 -0.0000    1.3403   
   237. B(C  33,S  30)                1.8671  0.000013 -0.0000    1.8670   
   238. B(C  33,C   3)               54.3764  0.000017 -0.0123   54.3641   
   239. B(C  33,F  28)                1.3454 -0.000020 -0.0000    1.3454   
   240. B(C  33,C   8)               54.1393  0.000003 -0.0120   54.1273   
   241. B(C  33,H  12)               54.0847  0.000010 -0.0124   54.0724   
   242. B(C  33,H  19)               53.8455  0.000004 -0.0119   53.8335   
   243. B(C  33,H  24)               60.6107  0.000005 -0.0122   60.5985   
   244. B(C  33,C   9)               60.0395  0.000001 -0.0122   60.0273   
   245. B(C  33,H  13)               53.4619  0.000008 -0.0124   53.4495   
   246. B(C  33,N   1)               58.6070  0.000006 -0.0123   58.5947   
   247. B(C  33,H  18)               58.5095  0.000008 -0.0122   58.4973   
   248. B(C  33,C   7)               57.9670  0.000012 -0.0122   57.9548   
   249. B(C  33,H  16)               57.9628  0.000005 -0.0124   57.9504   
   250. B(C  33,C   5)               57.7229  0.000002 -0.0123   57.7106   
   251. B(C  33,H  20)               53.2374  0.000006 -0.0120   53.2254   
   252. B(C  33,H  23)               60.3173  0.000002 -0.0121   60.3052   
   253. B(C  33,C   6)               56.6545  0.000009 -0.0123   56.6422   
   254. B(C  33,N   0)               56.5204  0.000009 -0.0123   56.5081   
   255. B(C  33,H  14)               55.9514  0.000009 -0.0121   55.9393   
   256. B(C  33,H  17)               55.8331  0.000007 -0.0123   55.8208   
   257. B(C  33,H  10)               55.5742  0.000007 -0.0125   55.5617   
   258. B(C  33,H  15)               55.3658  0.000001 -0.0121   55.3538   
   259. B(C  33,C   2)               55.2691  0.000003 -0.0124   55.2567   
   260. B(C  33,C   4)               55.0384 -0.000007 -0.0121   55.0264   
   261. B(C  33,H  22)               60.2727  0.000003 -0.0123   60.2604   
   262. B(C  33,H  11)               54.7846  0.000007 -0.0123   54.7723   
   263. B(O  34,H  17)               54.7445 -0.000003 -0.0127   54.7318   
   264. B(O  34,H  14)               54.7077  0.000012 -0.0126   54.6951   
   265. B(O  34,H  20)               51.9413  0.000014 -0.0126   51.9287   
   266. B(O  34,H  10)               54.4195  0.000003 -0.0132   54.4063   
   267. B(O  34,C   2)               54.1268 -0.000001 -0.0130   54.1138   
   268. B(O  34,H  15)               54.1071  0.000007 -0.0128   54.0943   
   269. B(O  34,C   4)               53.7925 -0.000004 -0.0126   53.7798   
   270. B(O  34,H  24)               59.4913 -0.000001 -0.0128   59.4785   
   271. B(O  34,H  23)               59.1384 -0.000002 -0.0126   59.1258   
   272. B(O  34,H  22)               59.0958 -0.000000 -0.0129   59.0830   
   273. B(O  34,C   9)               58.8842 -0.000004 -0.0128   58.8715   
   274. B(O  34,H  21)               53.3425  0.000007 -0.0124   53.3301   
   275. B(O  34,H  11)               53.6848  0.000000 -0.0130   53.6719   
   276. B(O  34,N   1)               57.4647 -0.000000 -0.0128   57.4519   
   277. B(O  34,C   3)               53.1896  0.000016 -0.0129   53.1767   
   278. B(O  34,H  18)               57.4103 -0.000002 -0.0126   57.3976   
   279. B(O  34,C   7)               56.8531  0.000004 -0.0127   56.8404   
   280. B(O  34,H  16)               56.7869  0.000001 -0.0131   56.7739   
   281. B(O  34,H  12)               52.9129  0.000008 -0.0128   52.9001   
   282. B(O  34,C   5)               56.5685 -0.000003 -0.0129   56.5555   
   283. B(O  34,C   8)               52.8487  0.000009 -0.0125   52.8362   
   284. B(O  34,H  19)               52.5667  0.000009 -0.0123   52.5543   
   285. B(O  34,C   6)               55.5455  0.000000 -0.0128   55.5327   
   286. B(O  34,N   0)               55.3854  0.000004 -0.0129   55.3725   
   287. B(O  34,H  13)               52.2737  0.000010 -0.0130   52.2607   
   288. B(O  34,S  30)                1.4397 -0.000078  0.0000    1.4397   
   289. B(S  35,N   1)               54.6910  0.000001 -0.0122   54.6788   
   290. B(S  35,H  17)               51.8996  0.000001 -0.0122   51.8874   
   291. B(S  35,H  18)               54.5712  0.000002 -0.0122   54.5590   
   292. B(S  35,H  19)               49.9461  0.000004 -0.0120   49.9341   
   293. B(S  35,H  10)               51.6895  0.000002 -0.0123   51.6773   
   294. B(S  35,H  16)               54.0734  0.000001 -0.0122   54.0612   
   295. B(S  35,C   7)               54.0377  0.000007 -0.0122   54.0255   
   296. B(S  35,H  15)               51.4910 -0.000001 -0.0120   51.4790   
   297. B(S  35,C   5)               53.8192 -0.000003 -0.0122   53.8070   
   298. B(S  35,H  13)               49.5691  0.000005 -0.0122   49.5569   
   299. B(S  35,C   2)               51.3692 -0.000002 -0.0122   51.3569   
   300. B(S  35,H  20)               49.3602  0.000005 -0.0120   49.3482   
   301. B(S  35,C   4)               51.1483 -0.000009 -0.0120   51.1363   
   302. B(S  35,H  11)               50.8804  0.000000 -0.0121   50.8683   
   303. B(S  35,H  24)               56.6917 -0.000001 -0.0121   56.6796   
   304. B(S  35,H  21)               50.7979  0.000000 -0.0119   50.7860   
   305. B(S  35,H  23)               56.3987 -0.000001 -0.0121   56.3866   
   306. B(S  35,H  22)               56.3715 -0.000001 -0.0121   56.3594   
   307. B(S  35,C   9)               56.1255 -0.000003 -0.0121   56.1133   
   308. B(S  35,C   6)               52.7280  0.000004 -0.0122   52.7158   
   309. B(S  35,N   0)               52.6101  0.000004 -0.0122   52.5979   
   310. B(S  35,C   3)               50.4757  0.000014 -0.0122   50.4634   
   311. B(S  35,C  31)                1.8705  0.000111 -0.0000    1.8704   
   312. B(S  35,C   8)               50.2533  0.000003 -0.0120   50.2413   
   313. B(S  35,O  27)                1.4390  0.000059  0.0000    1.4390   
   314. B(S  35,H  14)               52.0536  0.000006 -0.0120   52.0416   
   315. B(S  35,H  12)               50.1702  0.000006 -0.0123   50.1578   
   316. B(N  36,C   3)               51.7593  0.000006 -0.0125   51.7468   
   317. B(N  36,C   8)               51.5157 -0.000004 -0.0120   51.5036   
   318. B(N  36,C   6)               54.0491 -0.000004 -0.0124   54.0367   
   319. B(N  36,N   0)               53.9094 -0.000003 -0.0124   53.8969   
   320. B(N  36,H  12)               51.4709 -0.000001 -0.0125   51.4584   
   321. B(N  36,H  19)               51.2250 -0.000004 -0.0120   51.2129   
   322. B(N  36,H  14)               53.3306 -0.000000 -0.0122   53.3185   
   323. B(N  36,H  24)               58.0028 -0.000008 -0.0124   57.9905   
   324. B(N  36,H  23)               57.7041 -0.000008 -0.0123   57.6918   
   325. B(N  36,H  22)               57.6567 -0.000008 -0.0124   57.6443   
   326. B(N  36,H  17)               53.2318 -0.000007 -0.0124   53.2194   
   327. B(N  36,C   9)               57.4272 -0.000011 -0.0124   57.4148   
   328. B(N  36,H  10)               52.9595 -0.000006 -0.0126   52.9469   
   329. B(N  36,H  13)               50.8439 -0.000002 -0.0125   50.8314   
   330. B(N  36,H  15)               52.7421 -0.000008 -0.0121   52.7299   
   331. B(N  36,N   1)               55.9961 -0.000006 -0.0124   55.9837   
   332. B(N  36,H  20)               50.6125 -0.000002 -0.0121   50.6004   
   333. B(N  36,C   2)               52.6562 -0.000009 -0.0125   52.6437   
   334. B(N  36,H  18)               55.9089 -0.000005 -0.0124   55.8965   
   335. B(N  36,C   4)               52.4165 -0.000017 -0.0122   52.4043   
   336. B(N  36,S  35)                1.5754  0.000006 -0.0001    1.5753   
   337. B(N  36,C   7)               55.3619 -0.000000 -0.0124   55.3495   
   338. B(N  36,H  16)               55.3461 -0.000007 -0.0125   55.3335   
   339. B(N  36,S  30)                1.5823  0.000062  0.0000    1.5823   
   340. B(N  36,H  11)               52.1771 -0.000007 -0.0125   52.1646   
   341. B(N  36,C   5)               55.1092 -0.000010 -0.0125   55.0967   
   342. B(N  36,H  21)               52.0484 -0.000007 -0.0120   52.0364   
   343. B(F  37,H  11)               51.9011  0.000002 -0.0119   51.8892   
   344. B(F  37,C   3)               51.5971  0.000014 -0.0120   51.5851   
   345. B(F  37,C   8)               51.4928  0.000002 -0.0118   51.4810   
   346. B(F  37,C   6)               53.7686  0.000003 -0.0122   53.7565   
   347. B(F  37,N   0)               53.6710  0.000005 -0.0120   53.6590   
   348. B(F  37,H  12)               51.2831  0.000004 -0.0123   51.2708   
   349. B(F  37,H  19)               51.1809  0.000001 -0.0120   51.1689   
   350. B(F  37,H  24)               57.7309 -0.000002 -0.0120   57.7189   
   351. B(F  37,H  14)               53.2379  0.000004 -0.0119   53.2260   
   352. B(F  37,H  23)               57.5085 -0.000001 -0.0120   57.4964   
   353. B(F  37,H  22)               57.4678  0.000001 -0.0119   57.4559   
   354. B(F  37,C   9)               57.2046 -0.000003 -0.0120   57.1926   
   355. B(F  37,H  17)               52.9235 -0.000001 -0.0123   52.9112   
   356. B(F  37,H  10)               52.7618  0.000006 -0.0118   52.7500   
   357. B(F  37,H  13)               50.6899  0.000004 -0.0119   50.6780   
   358. B(F  37,H  15)               52.6817 -0.000001 -0.0115   52.6701   
   359. B(F  37,H  20)               50.6035  0.000004 -0.0117   50.5918   
   360. B(F  37,N   1)               55.7591  0.000001 -0.0121   55.7470   
   361. B(F  37,C  31)                1.3425  0.000012 -0.0000    1.3425   
   362. B(F  37,C   2)               52.4355  0.000000 -0.0120   52.4235   
   363. B(F  37,H  18)               55.6053 -0.000001 -0.0123   55.5930   
   364. B(F  37,C   4)               52.3329 -0.000010 -0.0118   52.3211   
   365. B(F  37,H  16)               55.1671  0.000005 -0.0119   55.1552   
   366. B(F  37,C   7)               55.0832  0.000006 -0.0122   55.0710   
   367. B(F  37,H  21)               52.0800  0.000000 -0.0117   52.0683   
   368. B(F  37,C   5)               54.8961 -0.000001 -0.0120   54.8841   
   369. B(F  38,C   3)               54.4513  0.000013 -0.0124   54.4389   
   370. B(F  38,C   8)               54.2315  0.000000 -0.0119   54.2196   
   371. B(F  38,H  12)               54.1842  0.000008 -0.0124   54.1718   
   372. B(F  38,H  19)               53.9629  0.000002 -0.0119   53.9511   
   373. B(F  38,H  24)               60.6984  0.000002 -0.0124   60.6860   
   374. B(F  38,H  23)               60.4243  0.000001 -0.0122   60.4121   
   375. B(F  38,H  22)               60.3404 -0.000001 -0.0124   60.3280   
   376. B(F  38,C   9)               60.1274 -0.000002 -0.0124   60.1150   
   377. B(F  38,H  13)               53.5222  0.000004 -0.0124   53.5098   
   378. B(F  38,N   1)               58.6960  0.000003 -0.0124   58.6836   
   379. B(F  38,H  18)               58.6411  0.000007 -0.0123   58.6288   
   380. B(F  38,C   7)               58.0793  0.000010 -0.0124   58.0669   
   381. B(F  38,H  16)               58.0095 -0.000000 -0.0125   57.9970   
   382. B(F  38,H  20)               53.3150  0.000002 -0.0119   53.3031   
   383. B(F  38,C   5)               57.7905 -0.000002 -0.0124   57.7781   
   384. B(F  38,C   6)               56.7593  0.000006 -0.0124   56.7469   
   385. B(F  38,N   0)               56.5966  0.000006 -0.0124   56.5842   
   386. B(F  38,H  14)               56.0426  0.000006 -0.0120   56.0305   
   387. B(F  38,H  17)               55.9504  0.000005 -0.0124   55.9380   
   388. B(F  38,C  33)                1.3400  0.000092 -0.0000    1.3400   
   389. B(F  38,H  10)               55.6085  0.000001 -0.0126   55.5959   
   390. B(F  38,H  15)               55.4186 -0.000005 -0.0120   55.4066   
   391. B(F  38,C   2)               55.3276 -0.000001 -0.0125   55.3151   
   392. B(F  38,C   4)               55.1155 -0.000011 -0.0120   55.1034   
   393. B(F  38,H  11)               54.8412  0.000002 -0.0125   54.8287   
   394. B(F  38,H  21)               54.7666 -0.000003 -0.0118   54.7549   
   395. B(O  39,C   6)               51.7973 -0.000004 -0.0124   51.7849   
   396. B(O  39,H  11)               49.9079 -0.000009 -0.0123   49.8955   
   397. B(O  39,N   0)               51.6588 -0.000004 -0.0123   51.6465   
   398. B(O  39,H  21)               49.8938 -0.000009 -0.0117   49.8821   
   399. B(O  39,N   1)               53.7517 -0.000007 -0.0123   53.7393   
   400. B(O  39,C   3)               49.5309  0.000004 -0.0123   49.5186   
   401. B(O  39,H  18)               53.6625 -0.000004 -0.0124   53.6501   
   402. B(O  39,C   8)               49.3408 -0.000006 -0.0118   49.3289   
   403. B(O  39,H  12)               49.2439 -0.000002 -0.0124   49.2315   
   404. B(O  39,H  14)               51.1320 -0.000002 -0.0120   51.1200   
   405. B(O  39,H  17)               50.9769 -0.000006 -0.0124   50.9644   
   406. B(O  39,C   7)               53.1142 -0.000000 -0.0124   53.1018   
   407. B(O  39,H  19)               49.0531 -0.000005 -0.0119   49.0412   
   408. B(O  39,H  16)               53.1040 -0.000009 -0.0123   53.0917   
   409. B(O  39,C   5)               52.8637 -0.000012 -0.0123   52.8514   
   410. B(O  39,H  13)               48.6125 -0.000006 -0.0123   48.6002   
   411. B(O  39,H  10)               50.7067 -0.000009 -0.0123   50.6944   
   412. B(O  39,H  20)               48.4364 -0.000005 -0.0118   48.4245   
   413. B(O  39,S  35)                1.4390  0.000060  0.0000    1.4391   
   414. B(O  39,H  24)               55.7482 -0.000009 -0.0123   55.7359   
   415. B(O  39,H  15)               50.5399 -0.000012 -0.0119   50.5281   
   416. B(O  39,H  23)               55.4802 -0.000008 -0.0122   55.4680   
   417. B(O  39,H  22)               55.4197 -0.000010 -0.0122   55.4075   
   418. B(O  39,C   2)               50.4042 -0.000011 -0.0124   50.3918   
   419. B(O  39,C   9)               55.1872 -0.000012 -0.0123   55.1749   
   420. B(O  39,C   4)               50.2150 -0.000019 -0.0119   50.2031   
   421. A(C   2,N   0,O  27)           33.39 -0.000005   -0.00     33.38   
   422. A(C   6,N   0,S  35)           94.17  0.000002   -0.00     94.16   
   423. A(C   6,N   0,F  26)           91.91  0.000001   -0.00     91.91   
   424. A(C   2,N   0,S  30)           31.97 -0.000005   -0.01     31.96   
   425. A(C   2,N   0,O  39)           31.32 -0.000006    0.00     31.32   
   426. A(C   5,N   0,C  31)          156.83  0.000003   -0.00    156.83   
   427. A(C   5,N   0,C  33)          154.34  0.000001   -0.00    154.33   
   428. A(C   6,N   0,O  25)           93.43  0.000001    0.00     93.43   
   429. A(O  34,N   0,F  37)            5.34  0.000001    0.00      5.34   
   430. A(C   6,N   0,F  28)           94.71  0.000002    0.00     94.72   
   431. A(C   6,N   0,F  37)           93.34  0.000001   -0.01     93.33   
   432. A(C   2,N   0,O  25)           33.44 -0.000004   -0.01     33.44   
   433. A(C   6,N   0,C  33)           94.89  0.000002    0.00     94.90   
   434. A(C   5,N   0,S  30)          153.87  0.000001   -0.00    153.87   
   435. A(C   5,N   0,C   6)          108.43 -0.000003    0.00    108.43   
   436. A(C   6,N   0,F  38)           96.10  0.000003    0.00     96.10   
   437. A(C   5,N   0,F  29)          157.78  0.000004    0.00    157.78   
   438. A(C   5,N   0,F  28)          154.22  0.000001   -0.00    154.22   
   439. A(C   5,N   0,F  38)          153.48  0.000001   -0.00    153.48   
   440. A(C   5,N   0,F  26)          157.36  0.000003   -0.00    157.36   
   441. A(C   2,N   0,F  26)           34.39 -0.000004    0.00     34.39   
   442. A(C   2,N   0,F  28)           31.92 -0.000005   -0.00     31.91   
   443. A(C   2,N   0,S  35)           32.31 -0.000005   -0.00     32.31   
   444. A(C   6,N   0,O  34)           95.97  0.000001    0.00     95.98   
   445. A(C   2,N   0,N  36)           31.45 -0.000005   -0.00     31.44   
   446. A(C   6,N   0,O  39)           95.01  0.000002   -0.00     95.01   
   447. A(C   6,N   0,F  29)           91.88  0.000000   -0.01     91.88   
   448. A(C   2,N   0,O  34)           31.07 -0.000004   -0.01     31.06   
   449. A(C   6,N   0,S  30)           94.80  0.000002    0.00     94.81   
   450. A(C   2,N   0,F  37)           32.71 -0.000004    0.01     32.71   
   451. A(C   6,N   0,O  27)           93.35  0.000001    0.00     93.35   
   452. A(C   5,N   0,S  35)          154.99  0.000002   -0.00    154.99   
   453. A(C   5,N   0,O  25)          154.82  0.000002   -0.01    154.81   
   454. A(C   2,N   0,F  38)           30.29 -0.000006   -0.00     30.29   
   455. A(C   6,N   0,C  31)           92.74  0.000001   -0.00     92.74   
   456. A(C   2,N   0,C  31)           33.47 -0.000004    0.00     33.47   
   457. A(C   6,N   0,F  32)           93.93  0.000002   -0.00     93.93   
   458. A(C   2,N   0,C  33)           31.60 -0.000005   -0.00     31.60   
   459. A(C   2,N   0,C   5)          125.80  0.000007   -0.01    125.80   
   460. A(C   5,N   0,F  37)          156.73  0.000003    0.00    156.73   
   461. A(C   5,N   0,O  27)          155.16  0.000002   -0.01    155.15   
   462. A(C   2,N   0,F  32)           32.36 -0.000005   -0.00     32.36   
   463. A(C   5,N   0,F  32)          155.61  0.000002   -0.00    155.60   
   464. A(C   5,N   0,O  34)          152.43  0.000002   -0.01    152.42   
   465. A(C   6,N   0,N  36)           95.10  0.000002    0.00     95.10   
   466. A(C   2,N   0,C   6)          125.68 -0.000004    0.00    125.69   
   467. A(C   5,N   0,O  39)          154.55  0.000001    0.00    154.55   
   468. A(C   5,N   0,N  36)          154.06  0.000002   -0.00    154.05   
   469. A(C   2,N   0,F  29)           34.26 -0.000004    0.01     34.26   
   470. A(F  29,N   0,O  34)            5.61  0.000002    0.00      5.61   
   471. A(C   5,N   1,O  27)           49.60 -0.000005   -0.00     49.60   
   472. A(C   5,N   1,C   9)          125.90  0.000006   -0.00    125.90   
   473. A(C   5,N   1,O  39)           47.73 -0.000006    0.00     47.73   
   474. A(C   9,N   1,O  27)          167.65  0.000003   -0.00    167.65   
   475. A(C   9,N   1,N  36)          167.67  0.000003    0.00    167.68   
   476. A(C   7,N   1,S  30)           61.80 -0.000006    0.00     61.80   
   477. A(C   9,N   1,F  26)          169.99  0.000004   -0.00    169.99   
   478. A(C   9,N   1,S  30)          166.99  0.000002   -0.00    166.99   
   479. A(C   9,N   1,O  25)          167.12  0.000002   -0.00    167.12   
   480. A(C   9,N   1,O  39)          168.54  0.000003    0.00    168.54   
   481. A(C   5,N   1,F  28)           48.27 -0.000005   -0.00     48.26   
   482. A(C   5,N   1,C  33)           47.99 -0.000005   -0.00     47.99   
   483. A(C   5,N   1,F  29)           50.61 -0.000004    0.01     50.62   
   484. A(C   5,N   1,N  36)           47.80 -0.000005   -0.00     47.80   
   485. A(C   9,N   1,F  38)          167.74  0.000002    0.00    167.74   
   486. A(C   5,N   1,F  38)           46.76 -0.000006   -0.00     46.76   
   487. A(C   7,N   1,F  28)           61.62 -0.000006    0.00     61.62   
   488. A(C   5,N   1,O  34)           47.28 -0.000005   -0.00     47.28   
   489. A(C   7,N   1,N  36)           61.96 -0.000006    0.00     61.97   
   490. A(C   7,N   1,O  25)           60.56 -0.000007    0.00     60.56   
   491. A(C   9,N   1,O  34)          165.67  0.000003   -0.00    165.67   
   492. A(C   5,N   1,F  37)           49.16 -0.000004    0.01     49.16   
   493. A(C   9,N   1,F  37)          170.80  0.000004    0.00    170.80   
   494. A(C   7,N   1,C  33)           61.72 -0.000006    0.00     61.73   
   495. A(F  29,N   1,O  34)            5.40  0.000002    0.00      5.40   
   496. A(C   5,N   1,S  35)           48.65 -0.000005    0.00     48.65   
   497. A(C   5,N   1,O  25)           49.65 -0.000004   -0.00     49.64   
   498. A(C   9,N   1,C  33)          167.97  0.000002    0.00    167.97   
   499. A(C   9,N   1,S  35)          168.34  0.000003   -0.00    168.34   
   500. A(C   9,N   1,F  32)          169.25  0.000003    0.00    169.25   
   501. A(O  34,N   1,F  37)            5.14  0.000001    0.00      5.15   
   502. A(C   7,N   1,C   9)          125.72  0.000005    0.00    125.72   
   503. A(C   7,N   1,F  29)           58.70 -0.000008   -0.00     58.70   
   504. A(C   7,N   1,O  34)           63.03 -0.000007    0.01     63.03   
   505. A(C   7,N   1,F  26)           58.80 -0.000007   -0.00     58.80   
   506. A(C   7,N   1,C  31)           59.55 -0.000008   -0.00     59.55   
   507. A(C   7,N   1,S  35)           61.06 -0.000007    0.00     61.06   
   508. A(C   5,N   1,F  26)           50.72 -0.000005    0.00     50.73   
   509. A(C   7,N   1,F  32)           60.69 -0.000006    0.00     60.69   
   510. A(C   5,N   1,F  32)           48.79 -0.000005    0.00     48.79   
   511. A(C   7,N   1,O  39)           61.79 -0.000006   -0.00     61.78   
   512. A(C   9,N   1,C  31)          170.12  0.000004   -0.00    170.12   
   513. A(C   5,N   1,C   7)          108.38 -0.000011    0.00    108.38   
   514. A(C   7,N   1,F  37)           60.00 -0.000007   -0.01     60.00   
   515. A(C   7,N   1,O  27)           60.43 -0.000007    0.00     60.44   
   516. A(C   9,N   1,F  29)          170.84  0.000005   -0.00    170.84   
   517. A(C   5,N   1,C  31)           49.85 -0.000004    0.00     49.85   
   518. A(C   7,N   1,F  38)           62.81 -0.000006    0.00     62.81   
   519. A(C   5,N   1,S  30)           48.25 -0.000005   -0.00     48.25   
   520. A(C   9,N   1,F  28)          167.53  0.000003   -0.00    167.53   
   521. A(F  26,C   2,O  34)            5.12  0.000001    0.00      5.12   
   522. A(N   0,C   2,C  33)          147.60  0.000005    0.00    147.60   
   523. A(O  34,C   2,F  37)            5.47  0.000001    0.00      5.47   
   524. A(C   3,C   2,F  29)           55.05 -0.000010   -0.01     55.05   
   525. A(H  11,C   2,O  39)           62.35 -0.000005    0.00     62.35   
   526. A(H  10,C   2,F  37)          106.85  0.000001    0.01    106.86   
   527. A(F  29,C   2,O  34)            5.78  0.000002    0.00      5.78   
   528. A(H  10,C   2,O  27)          107.57  0.000000   -0.01    107.57   
   529. A(N   0,C   2,C  31)          145.63  0.000004   -0.00    145.63   
   530. A(C   3,C   2,S  30)           52.23 -0.000011    0.00     52.23   
   531. A(N   0,C   2,F  29)          144.81  0.000004   -0.01    144.80   
   532. A(N   0,C   2,H  10)          106.67 -0.000005   -0.00    106.67   
   533. A(C   3,C   2,S  35)           53.44 -0.000010    0.00     53.44   
   534. A(C   3,C   2,O  39)           54.35 -0.000010    0.00     54.36   
   535. A(H  10,C   2,F  26)          108.62  0.000001    0.00    108.62   
   536. A(C   3,C   2,O  25)           51.54 -0.000012    0.00     51.54   
   537. A(N   0,C   2,C   3)          112.18  0.000008   -0.01    112.17   
   538. A(H  10,C   2,C  31)          107.69  0.000001    0.00    107.69   
   539. A(H  10,C   2,F  29)          108.49  0.000002    0.01    108.50   
   540. A(C   3,C   2,H  10)          111.18 -0.000000    0.00    111.18   
   541. A(H  11,C   2,F  29)           60.31 -0.000006    0.01     60.32   
   542. A(N   0,C   2,F  28)          147.29  0.000005    0.00    147.30   
   543. A(N   0,C   2,F  38)          148.93  0.000006    0.00    148.94   
   544. A(N   0,C   2,N  36)          147.71  0.000005    0.00    147.72   
   545. A(C   3,C   2,O  27)           52.09 -0.000011   -0.00     52.09   
   546. A(C   3,C   2,H  11)          111.57 -0.000014    0.00    111.58   
   547. A(N   0,C   2,S  35)          146.81  0.000005    0.00    146.81   
   548. A(C   3,C   2,C  33)           53.53 -0.000011    0.00     53.53   
   549. A(H  10,C   2,F  28)          106.00 -0.000000   -0.01    105.99   
   550. A(H  10,C   2,O  25)          107.54  0.000001   -0.01    107.53   
   551. A(N   0,C   2,O  27)          145.70  0.000005    0.00    145.70   
   552. A(H  11,C   2,F  26)           61.24 -0.000006    0.01     61.25   
   553. A(H  10,C   2,S  35)          106.51 -0.000000   -0.00    106.51   
   554. A(N   0,C   2,F  32)          146.82  0.000005    0.00    146.82   
   555. A(H  11,C   2,F  38)           62.98 -0.000004    0.00     62.98   
   556. A(C   3,C   2,N  36)           53.30 -0.000010    0.00     53.31   
   557. A(C   3,C   2,F  32)           54.42 -0.000011    0.00     54.43   
   558. A(H  11,C   2,S  35)           62.81 -0.000005    0.01     62.81   
   559. A(H  10,C   2,F  38)          104.39 -0.000001   -0.00    104.39   
   560. A(N   0,C   2,O  25)          145.69  0.000004    0.01    145.70   
   561. A(H  10,C   2,F  32)          106.51  0.000000   -0.00    106.51   
   562. A(H  11,C   2,C  31)           61.02 -0.000006    0.01     61.02   
   563. A(C   3,C   2,C  31)           54.69 -0.000010   -0.00     54.69   
   564. A(H  11,C   2,F  28)           63.64 -0.000004    0.01     63.64   
   565. A(N   0,C   2,F  26)          144.71  0.000005   -0.00    144.71   
   566. A(H  11,C   2,O  25)           64.27 -0.000004    0.01     64.28   
   567. A(C   3,C   2,F  38)           54.28 -0.000010    0.01     54.28   
   568. A(H  10,C   2,O  39)          105.52 -0.000001    0.00    105.52   
   569. A(H  11,C   2,F  37)           60.12 -0.000006    0.00     60.12   
   570. A(H  11,C   2,F  32)           61.81 -0.000005    0.01     61.82   
   571. A(H  11,C   2,O  34)           65.54 -0.000005    0.00     65.55   
   572. A(C   3,C   2,F  28)           52.86 -0.000011    0.00     52.86   
   573. A(N   0,C   2,F  37)          146.42  0.000004   -0.01    146.42   
   574. A(H  10,C   2,S  30)          106.05 -0.000000   -0.01    106.05   
   575. A(H  10,C   2,H  11)          107.88  0.000003    0.00    107.88   
   576. A(H  11,C   2,C  33)           63.09 -0.000004    0.00     63.10   
   577. A(H  10,C   2,N  36)          105.59 -0.000000   -0.00    105.59   
   578. A(C   3,C   2,F  26)           54.09 -0.000010   -0.01     54.08   
   579. A(H  11,C   2,S  30)           64.25 -0.000004    0.01     64.25   
   580. A(N   0,C   2,O  34)          148.13  0.000004    0.01    148.14   
   581. A(H  11,C   2,O  27)           63.70 -0.000005    0.01     63.71   
   582. A(N   0,C   2,S  30)          147.20  0.000005    0.01    147.20   
   583. A(H  11,C   2,N  36)           63.38 -0.000005    0.00     63.39   
   584. A(H  10,C   2,O  34)          105.02  0.000000   -0.01    105.01   
   585. A(C   3,C   2,F  37)           55.95 -0.000010   -0.00     55.95   
   586. A(H  10,C   2,C  33)          105.72 -0.000000   -0.00    105.71   
   587. A(C   3,C   2,O  34)           51.44 -0.000011    0.01     51.45   
   588. A(N   0,C   2,H  11)          107.10  0.000009    0.01    107.10   
   589. A(N   0,C   2,O  39)          147.81  0.000006   -0.00    147.81   
   590. A(H  12,C   3,S  30)           73.70 -0.000003    0.00     73.70   
   591. A(C   2,C   3,C  33)          125.18  0.000012   -0.00    125.18   
   592. A(C   2,C   3,O  25)          127.17  0.000013   -0.00    127.17   
   593. A(C   2,C   3,F  32)          124.27  0.000011   -0.00    124.27   
   594. A(C   2,C   3,F  28)          125.89  0.000012   -0.00    125.89   
   595. A(H  12,C   3,S  35)           73.19 -0.000003   -0.00     73.19   
   596. A(C   4,C   3,S  35)          115.35  0.000005    0.01    115.36   
   597. A(H  12,C   3,F  28)           73.72 -0.000003   -0.00     73.72   
   598. A(H  13,C   3,F  26)           35.56 -0.000002    0.01     35.57   
   599. A(C   2,C   3,N  36)          125.35  0.000011   -0.01    125.34   
   600. A(H  12,C   3,F  26)           71.00 -0.000004   -0.01     70.99   
   601. A(C   4,C   3,F  26)          116.94  0.000006    0.00    116.95   
   602. A(C   2,C   3,F  26)          124.55  0.000010    0.01    124.56   
   603. A(H  12,C   3,O  34)           74.78 -0.000003    0.00     74.79   
   604. A(C   2,C   3,S  30)          126.47  0.000012   -0.00    126.46   
   605. A(H  13,C   3,C  33)           32.91 -0.000001   -0.00     32.91   
   606. A(H  13,C   3,N  36)           32.81 -0.000001   -0.00     32.81   
   607. A(H  13,C   3,O  39)           32.51 -0.000003    0.00     32.51   
   608. A(C   4,C   3,H  12)          110.20  0.000004   -0.00    110.20   
   609. A(H  12,C   3,N  36)           74.14 -0.000003   -0.00     74.13   
   610. A(H  13,C   3,F  29)           35.29 -0.000002    0.01     35.30   
   611. A(F  29,C   3,O  34)            5.93  0.000002    0.00      5.93   
   612. A(H  12,C   3,O  27)           72.16 -0.000003   -0.00     72.16   
   613. A(C   2,C   3,F  37)          122.65  0.000010    0.00    122.65   
   614. A(H  13,C   3,F  37)           33.59 -0.000002    0.01     33.60   
   615. A(H  12,C   3,F  37)           72.75 -0.000004   -0.01     72.73   
   616. A(C   4,C   3,F  29)          117.93  0.000006    0.00    117.93   
   617. A(H  13,C   3,O  34)           32.78  0.000000   -0.01     32.77   
   618. A(C   4,C   3,F  32)          116.27  0.000004    0.01    116.28   
   619. A(C   4,C   3,F  37)          118.06  0.000006    0.01    118.07   
   620. A(H  12,C   3,O  25)           72.20 -0.000004    0.00     72.20   
   621. A(C   2,C   3,S  35)          125.17  0.000011   -0.00    125.17   
   622. A(H  12,C   3,O  39)           74.18 -0.000002   -0.01     74.17   
   623. A(C   4,C   3,O  27)          114.48  0.000004    0.00    114.48   
   624. A(C   4,C   3,O  25)          113.83  0.000004    0.00    113.83   
   625. A(H  12,C   3,F  29)           71.10 -0.000004   -0.01     71.09   
   626. A(F  26,C   3,O  34)            5.22  0.000001    0.00      5.22   
   627. A(H  13,C   3,O  25)           35.06  0.000001   -0.01     35.05   
   628. A(H  12,C   3,C  31)           71.94 -0.000004   -0.01     71.93   
   629. A(C   2,C   3,C   4)          114.21 -0.000016    0.00    114.21   
   630. A(C   4,C   3,N  36)          114.73  0.000004    0.01    114.74   
   631. A(C   2,C   3,C  31)          123.91  0.000011    0.00    123.91   
   632. A(O  34,C   3,F  37)            5.60  0.000001    0.00      5.60   
   633. A(C   4,C   3,S  30)          113.83  0.000004    0.01    113.84   
   634. A(C   4,C   3,O  39)          115.82  0.000005    0.01    115.84   
   635. A(C   2,C   3,H  12)          109.57  0.000005   -0.00    109.56   
   636. A(H  12,C   3,H  13)          106.02 -0.000008   -0.00    106.02   
   637. A(H  13,C   3,S  35)           33.64 -0.000002    0.00     33.64   
   638. A(C   2,C   3,H  13)          106.57 -0.000003    0.01    106.58   
   639. A(C   4,C   3,F  28)          114.39  0.000004    0.01    114.40   
   640. A(H  13,C   3,C  31)           34.56 -0.000002    0.01     34.57   
   641. A(H  12,C   3,C  33)           73.99 -0.000003   -0.00     73.98   
   642. A(C   4,C   3,C  33)          114.96  0.000004    0.01    114.97   
   643. A(H  13,C   3,F  32)           33.50 -0.000002    0.00     33.50   
   644. A(C   2,C   3,O  39)          124.22  0.000010   -0.01    124.21   
   645. A(C   2,C   3,F  38)          124.42  0.000011   -0.01    124.41   
   646. A(C   4,C   3,O  34)          112.50  0.000004    0.01    112.51   
   647. A(H  12,C   3,F  38)           75.32 -0.000002   -0.00     75.31   
   648. A(H  13,C   3,F  28)           33.34 -0.000001   -0.00     33.33   
   649. A(H  12,C   3,F  32)           73.13 -0.000003   -0.00     73.13   
   650. A(C   2,C   3,O  34)          127.28  0.000011   -0.01    127.27   
   651. A(C   2,C   3,O  27)          126.53  0.000012    0.00    126.53   
   652. A(C   2,C   3,F  29)          123.52  0.000010    0.01    123.52   
   653. A(H  13,C   3,S  30)           33.51 -0.000001   -0.01     33.50   
   654. A(H  13,C   3,O  27)           34.92 -0.000001   -0.00     34.92   
   655. A(C   4,C   3,F  38)          115.06  0.000004    0.01    115.07   
   656. A(C   4,C   3,C  31)          117.18  0.000006    0.01    117.18   
   657. A(C   4,C   3,H  13)          109.90  0.000019    0.00    109.90   
   658. A(H  13,C   3,F  38)           31.51 -0.000002   -0.00     31.51   
   659. A(C   3,C   4,O  27)           63.95 -0.000004   -0.00     63.95   
   660. A(C   8,C   4,S  30)           52.04 -0.000008    0.00     52.04   
   661. A(C   3,C   4,H  15)          109.21 -0.000008    0.00    109.21   
   662. A(C   3,C   4,S  30)           64.68 -0.000003   -0.01     64.67   
   663. A(C   3,C   4,O  39)           62.61 -0.000004   -0.01     62.59   
   664. A(C   8,C   4,F  29)           55.17 -0.000006   -0.01     55.16   
   665. A(C   3,C   4,C  31)           61.32 -0.000005   -0.01     61.32   
   666. A(O  34,C   4,F  37)            5.57  0.000001    0.00      5.57   
   667. A(H  15,C   4,F  32)          107.65  0.000001    0.00    107.65   
   668. A(H  14,C   4,C  33)          146.12 -0.000003    0.00    146.12   
   669. A(H  15,C   4,O  39)          106.65  0.000000    0.00    106.66   
   670. A(H  15,C   4,O  34)          106.13  0.000002   -0.01    106.12   
   671. A(C   3,C   4,F  28)           64.19 -0.000003   -0.01     64.18   
   672. A(C   8,C   4,S  35)           53.42 -0.000007    0.00     53.42   
   673. A(C   3,C   4,S  35)           63.10 -0.000004   -0.01     63.09   
   674. A(H  14,C   4,F  37)          145.35 -0.000005   -0.01    145.34   
   675. A(C   8,C   4,F  32)           54.22 -0.000007    0.00     54.22   
   676. A(H  14,C   4,O  39)          146.47 -0.000003   -0.00    146.47   
   677. A(H  15,C   4,S  30)          107.17  0.000001   -0.00    107.17   
   678. A(H  14,C   4,S  35)          145.38 -0.000004   -0.00    145.38   
   679. A(H  14,C   4,O  34)          146.33 -0.000003    0.01    146.34   
   680. A(C   8,C   4,O  25)           51.40 -0.000008   -0.00     51.40   
   681. A(C   3,C   4,O  25)           64.68 -0.000003   -0.00     64.68   
   682. A(C   8,C   4,H  14)          109.10  0.000010    0.00    109.10   
   683. A(H  15,C   4,F  38)          105.51 -0.000000    0.00    105.51   
   684. A(H  14,C   4,F  26)          143.44 -0.000004   -0.01    143.43   
   685. A(H  14,C   4,H  15)          106.55  0.000005   -0.00    106.55   
   686. A(C   3,C   4,H  14)          109.84 -0.000007    0.00    109.84   
   687. A(C   3,C   4,C   8)          112.40 -0.000010   -0.01    112.39   
   688. A(H  14,C   4,S  30)          145.56 -0.000003    0.01    145.57   
   689. A(H  14,C   4,C  31)          144.42 -0.000005   -0.01    144.41   
   690. A(C   8,C   4,H  15)          109.57  0.000011    0.00    109.57   
   691. A(H  15,C   4,C  31)          108.83  0.000002    0.01    108.84   
   692. A(H  15,C   4,F  28)          107.12  0.000001   -0.00    107.12   
   693. A(H  15,C   4,S  35)          107.64  0.000001    0.00    107.65   
   694. A(C   8,C   4,C  31)           54.71 -0.000006   -0.00     54.71   
   695. A(C   8,C   4,O  39)           54.35 -0.000006    0.01     54.36   
   696. A(F  29,C   4,O  34)            5.93  0.000002    0.00      5.94   
   697. A(H  14,C   4,O  25)          144.03 -0.000005    0.00    144.04   
   698. A(C   3,C   4,F  37)           60.46 -0.000005   -0.01     60.45   
   699. A(C   3,C   4,O  34)           66.00 -0.000004   -0.01     65.99   
   700. A(H  15,C   4,F  26)          109.76  0.000001    0.01    109.77   
   701. A(H  14,C   4,F  28)          145.72 -0.000003    0.00    145.72   
   702. A(C   3,C   4,F  26)           61.58 -0.000005   -0.00     61.57   
   703. A(C   8,C   4,F  37)           55.92 -0.000006   -0.00     55.92   
   704. A(C   3,C   4,N  36)           63.76 -0.000004   -0.01     63.75   
   705. A(F  26,C   4,O  34)            5.18  0.000001    0.00      5.19   
   706. A(H  14,C   4,F  38)          147.50 -0.000003    0.00    147.50   
   707. A(C   8,C   4,O  34)           51.18 -0.000007    0.01     51.18   
   708. A(C   8,C   4,F  38)           53.97 -0.000007    0.01     53.98   
   709. A(C   3,C   4,F  38)           63.51 -0.000003   -0.01     63.49   
   710. A(C   8,C   4,F  26)           54.09 -0.000006   -0.01     54.09   
   711. A(C   8,C   4,F  28)           52.55 -0.000007    0.00     52.55   
   712. A(H  14,C   4,N  36)          146.22 -0.000003    0.00    146.22   
   713. A(H  15,C   4,C  33)          106.84  0.000001    0.00    106.84   
   714. A(C   8,C   4,C  33)           53.27 -0.000007    0.00     53.28   
   715. A(C   3,C   4,C  33)           63.59 -0.000003   -0.01     63.58   
   716. A(H  15,C   4,F  29)          109.64  0.000002    0.01    109.65   
   717. A(H  14,C   4,F  32)          145.50 -0.000004   -0.00    145.50   
   718. A(C   3,C   4,F  32)           62.30 -0.000004   -0.01     62.29   
   719. A(H  14,C   4,F  29)          143.68 -0.000005   -0.01    143.67   
   720. A(C   3,C   4,F  29)           60.55 -0.000005   -0.00     60.55   
   721. A(H  15,C   4,N  36)          106.71  0.000001    0.00    106.72   
   722. A(C   8,C   4,N  36)           53.17 -0.000007    0.01     53.17   
   723. A(H  14,C   4,O  27)          144.14 -0.000004    0.00    144.14   
   724. A(H  15,C   4,O  27)          108.70  0.000002   -0.00    108.70   
   725. A(C   8,C   4,O  27)           52.12 -0.000007   -0.00     52.12   
   726. A(H  15,C   4,F  37)          107.99  0.000001    0.01    108.01   
   727. A(H  15,C   4,O  25)          108.66  0.000003   -0.00    108.66   
   728. A(H  16,C   5,C  31)          104.57  0.000001    0.00    104.57   
   729. A(N   0,C   5,C  31)           22.62 -0.000003   -0.00     22.62   
   730. A(N   0,C   5,F  38)           25.93 -0.000001    0.00     25.93   
   731. A(H  16,C   5,F  38)          101.22 -0.000001   -0.00    101.22   
   732. A(N   1,C   5,F  26)          128.21  0.000005   -0.00    128.21   
   733. A(H  16,C   5,O  25)          103.69  0.000001   -0.01    103.68   
   734. A(N   1,C   5,O  25)          129.32  0.000004    0.00    129.32   
   735. A(N   1,C   5,F  28)          130.77  0.000006    0.00    130.77   
   736. A(H  16,C   5,O  27)          103.83  0.000000   -0.00    103.83   
   737. A(H  16,C   5,S  35)          103.11  0.000000   -0.00    103.11   
   738. A(N   1,C   5,H  16)          125.54 -0.000006   -0.00    125.54   
   739. A(N   1,C   5,F  38)          132.28  0.000006    0.00    132.28   
   740. A(N   1,C   5,F  32)          130.21  0.000005   -0.00    130.21   
   741. A(N   0,C   5,C  33)           25.09 -0.000001    0.00     25.09   
   742. A(H  16,C   5,F  32)          103.36  0.000000   -0.00    103.36   
   743. A(N   0,C   5,F  32)           23.85 -0.000002    0.00     23.85   
   744. A(H  16,C   5,F  29)          105.43  0.000002    0.00    105.44   
   745. A(N   1,C   5,F  29)          128.28  0.000004   -0.01    128.28   
   746. A(N   0,C   5,F  29)           21.68 -0.000003   -0.00     21.68   
   747. A(N   1,C   5,C  33)          131.02  0.000006    0.00    131.03   
   748. A(N   1,C   5,S  35)          130.28  0.000005   -0.00    130.28   
   749. A(N   0,C   5,O  25)           24.61 -0.000002    0.01     24.61   
   750. A(N   0,C   5,O  34)           26.95 -0.000002    0.01     26.95   
   751. A(N   1,C   5,O  34)          131.72  0.000005    0.00    131.73   
   752. A(N   1,C   5,S  30)          130.74  0.000005    0.00    130.74   
   753. A(N   0,C   5,S  30)           25.53 -0.000001    0.00     25.53   
   754. A(H  16,C   5,O  39)          102.34 -0.000000    0.00    102.34   
   755. A(N   0,C   5,H  16)          125.50 -0.000000    0.00    125.51   
   756. A(H  16,C   5,O  34)          101.18  0.000001   -0.01    101.17   
   757. A(F  29,C   5,O  34)            5.52  0.000002    0.00      5.52   
   758. A(N   0,C   5,S  35)           24.41 -0.000002    0.00     24.41   
   759. A(N   1,C   5,O  39)          131.21  0.000006   -0.00    131.20   
   760. A(N   0,C   5,O  39)           24.83 -0.000001   -0.00     24.83   
   761. A(H  16,C   5,F  26)          105.34  0.000001    0.00    105.34   
   762. A(N   0,C   5,F  26)           22.11 -0.000003    0.00     22.11   
   763. A(N   1,C   5,C  31)          129.08  0.000004   -0.00    129.07   
   764. A(N   0,C   5,F  28)           25.21 -0.000001    0.00     25.22   
   765. A(H  16,C   5,S  30)          102.38 -0.000000   -0.01    102.38   
   766. A(O  34,C   5,F  37)            5.24  0.000001    0.00      5.24   
   767. A(N   0,C   5,O  27)           24.24 -0.000002    0.01     24.25   
   768. A(H  16,C   5,N  36)          102.17  0.000000   -0.00    102.17   
   769. A(N   1,C   5,N  36)          131.17  0.000006    0.00    131.17   
   770. A(N   0,C   5,N  36)           25.34 -0.000002    0.00     25.34   
   771. A(H  16,C   5,F  28)          102.49 -0.000000   -0.00    102.48   
   772. A(H  16,C   5,C  33)          102.36  0.000000   -0.00    102.36   
   773. A(H  16,C   5,F  37)          104.04  0.000001    0.00    104.05   
   774. A(N   1,C   5,F  37)          129.79  0.000004   -0.01    129.78   
   775. A(N   0,C   5,F  37)           22.72 -0.000003   -0.00     22.72   
   776. A(N   0,C   5,N   1)          108.95  0.000006   -0.00    108.95   
   777. A(N   1,C   5,O  27)          129.31  0.000005    0.00    129.31   
   778. A(H  17,C   6,F  38)           40.85  0.000005   -0.00     40.85   
   779. A(H  17,C   6,O  27)           38.80  0.000003    0.00     38.80   
   780. A(C   7,C   6,O  27)          163.06  0.000001   -0.00    163.05   
   781. A(N   0,C   6,O  27)           85.15 -0.000001   -0.00     85.14   
   782. A(N   0,C   6,F  38)           82.52 -0.000002   -0.00     82.52   
   783. A(H  17,C   6,F  29)           36.63  0.000002   -0.01     36.62   
   784. A(C   7,C   6,F  29)          163.68  0.000000   -0.01    163.68   
   785. A(N   0,C   6,F  29)           86.60  0.000000    0.01     86.61   
   786. A(N   0,C   6,H  17)          122.17  0.000004   -0.00    122.17   
   787. A(H  17,C   6,F  26)           36.83  0.000003   -0.00     36.82   
   788. A(C   7,C   6,F  26)          163.14  0.000001   -0.01    163.13   
   789. A(N   0,C   6,F  26)           86.64 -0.000000    0.00     86.64   
   790. A(C   7,C   6,O  39)          165.70  0.000002   -0.00    165.69   
   791. A(H  17,C   6,F  28)           39.80  0.000004    0.00     39.80   
   792. A(C   7,C   6,O  25)          162.67 -0.000000   -0.00    162.67   
   793. A(C   7,C   6,N  36)          165.01  0.000001   -0.00    165.01   
   794. A(O  34,C   6,F  37)            5.30  0.000001    0.00      5.30   
   795. A(H  17,C   6,O  39)           39.88  0.000005   -0.00     39.88   
   796. A(C   7,C   6,F  28)          164.37  0.000001   -0.00    164.37   
   797. A(N   0,C   6,F  28)           83.93 -0.000002   -0.00     83.92   
   798. A(H  17,C   6,F  37)           37.83  0.000003   -0.01     37.82   
   799. A(C   7,C   6,F  37)          165.30  0.000001   -0.01    165.29   
   800. A(N   0,C   6,F  37)           85.20 -0.000000    0.01     85.21   
   801. A(C   7,C   6,F  38)          166.27  0.000002   -0.00    166.27   
   802. A(C   7,C   6,F  32)          164.84  0.000001   -0.00    164.84   
   803. A(C   7,C   6,C  31)          164.16  0.000001   -0.01    164.16   
   804. A(H  17,C   6,F  32)           38.67  0.000004   -0.00     38.67   
   805. A(H  17,C   6,C  33)           39.84  0.000004   -0.00     39.84   
   806. A(N   0,C   6,C  33)           83.72 -0.000001   -0.00     83.72   
   807. A(H  17,C   6,C  31)           37.52  0.000003   -0.00     37.52   
   808. A(N   0,C   6,C  31)           85.78 -0.000000    0.00     85.78   
   809. A(N   0,C   6,F  32)           84.68 -0.000001    0.00     84.68   
   810. A(H  17,C   6,O  34)           41.48  0.000003    0.00     41.48   
   811. A(C   7,C   6,O  34)          164.17  0.000001    0.00    164.17   
   812. A(N   0,C   6,O  34)           82.62 -0.000001   -0.01     82.61   
   813. A(H  17,C   6,O  25)           38.96  0.000003    0.00     38.96   
   814. A(N   0,C   6,O  25)           85.15 -0.000000   -0.00     85.15   
   815. A(C   7,C   6,H  17)          130.64 -0.000004    0.00    130.65   
   816. A(F  29,C   6,O  34)            5.54  0.000002    0.00      5.54   
   817. A(H  17,C   6,S  30)           40.11  0.000004    0.00     40.12   
   818. A(C   7,C   6,S  30)          164.05  0.000001   -0.00    164.05   
   819. A(H  17,C   6,S  35)           39.23  0.000004   -0.00     39.23   
   820. A(C   7,C   6,S  35)          164.50  0.000001   -0.00    164.49   
   821. A(N   0,C   6,S  35)           84.34 -0.000001    0.00     84.34   
   822. A(N   0,C   6,S  30)           83.77 -0.000001   -0.00     83.77   
   823. A(N   0,C   6,C   7)          107.19 -0.000000   -0.00    107.18   
   824. A(N   0,C   6,N  36)           83.45 -0.000001   -0.00     83.45   
   825. A(C   7,C   6,C  33)          164.97  0.000001   -0.00    164.97   
   826. A(H  17,C   6,N  36)           40.16  0.000004   -0.00     40.15   
   827. A(N   0,C   6,O  39)           83.47 -0.000002    0.00     83.47   
   828. A(H  18,C   7,O  34)          120.74 -0.000003    0.01    120.75   
   829. A(H  18,C   7,F  32)          118.96 -0.000003    0.00    118.96   
   830. A(O  34,C   7,F  37)            5.18  0.000001    0.00      5.18   
   831. A(N   1,C   7,S  35)          117.66  0.000007   -0.00    117.66   
   832. A(C   6,C   7,F  29)           15.91 -0.000000    0.01     15.92   
   833. A(C   6,C   7,F  28)           15.27 -0.000001    0.00     15.27   
   834. A(N   1,C   7,F  29)          120.04  0.000009    0.00    120.04   
   835. A(H  18,C   7,F  38)          121.04 -0.000002    0.00    121.04   
   836. A(N   1,C   7,F  38)          115.98  0.000006   -0.00    115.98   
   837. A(C   6,C   7,O  27)           16.52 -0.000001    0.00     16.52   
   838. A(N   1,C   7,O  27)          118.29  0.000007   -0.00    118.28   
   839. A(H  18,C   7,C  33)          119.83 -0.000002    0.00    119.83   
   840. A(C   6,C   7,C  33)           14.68 -0.000001    0.00     14.68   
   841. A(N   1,C   7,C  33)          117.08  0.000007   -0.00    117.07   
   842. A(C   6,C   7,F  32)           14.80 -0.000001    0.00     14.81   
   843. A(N   1,C   7,F  32)          118.12  0.000007   -0.00    118.12   
   844. A(H  18,C   7,F  28)          119.58 -0.000002    0.00    119.58   
   845. A(H  18,C   7,O  27)          118.37 -0.000003    0.00    118.37   
   846. A(C   6,C   7,S  35)           15.12 -0.000001    0.00     15.12   
   847. A(F  29,C   7,O  34)            5.40  0.000002    0.00      5.40   
   848. A(C   6,C   7,O  34)           15.46 -0.000001   -0.00     15.46   
   849. A(N   1,C   7,O  34)          115.74  0.000007   -0.01    115.73   
   850. A(N   1,C   7,O  25)          118.23  0.000008   -0.00    118.23   
   851. A(H  18,C   7,F  29)          117.15 -0.000004   -0.00    117.15   
   852. A(H  18,C   7,S  30)          119.69 -0.000002    0.00    119.69   
   853. A(C   6,C   7,S  30)           15.57 -0.000001    0.00     15.57   
   854. A(N   1,C   7,S  30)          116.97  0.000007   -0.00    116.97   
   855. A(H  18,C   7,O  39)          120.16 -0.000002   -0.00    120.15   
   856. A(C   6,C   7,O  39)           13.94 -0.000002    0.00     13.94   
   857. A(N   1,C   7,O  39)          116.90  0.000006    0.00    116.91   
   858. A(C   6,C   7,F  38)           13.41 -0.000002    0.00     13.41   
   859. A(H  18,C   7,F  26)          117.05 -0.000003   -0.00    117.05   
   860. A(C   6,C   7,F  26)           16.45 -0.000001    0.01     16.46   
   861. A(N   1,C   7,F  26)          119.98  0.000008    0.00    119.98   
   862. A(H  18,C   7,N  36)          120.09 -0.000002    0.00    120.09   
   863. A(C   6,C   7,N  36)           14.63 -0.000001    0.00     14.63   
   864. A(N   1,C   7,N  36)          116.78  0.000007   -0.00    116.78   
   865. A(C   6,C   7,O  25)           16.92  0.000000    0.00     16.92   
   866. A(N   1,C   7,C   6)          107.05  0.000008    0.00    107.05   
   867. A(H  18,C   7,O  25)          118.30 -0.000003    0.00    118.31   
   868. A(N   1,C   7,F  28)          117.21  0.000007   -0.00    117.20   
   869. A(H  18,C   7,F  37)          118.56 -0.000004   -0.01    118.55   
   870. A(C   6,C   7,F  37)           14.34 -0.000001    0.01     14.35   
   871. A(N   1,C   7,F  37)          118.76  0.000008    0.01    118.76   
   872. A(C   6,C   7,H  18)          130.81 -0.000005   -0.00    130.81   
   873. A(H  18,C   7,S  35)          119.24 -0.000002    0.00    119.24   
   874. A(H  18,C   7,C  31)          117.93 -0.000004   -0.00    117.93   
   875. A(C   6,C   7,C  31)           15.45 -0.000001    0.01     15.45   
   876. A(N   1,C   7,C  31)          119.20  0.000008    0.00    119.20   
   877. A(N   1,C   7,H  18)          122.14 -0.000003    0.00    122.14   
   878. A(H  21,C   8,F  38)          118.90  0.000003    0.01    118.90   
   879. A(H  20,C   8,F  38)           32.59 -0.000005   -0.00     32.59   
   880. A(H  19,C   8,F  38)           75.20 -0.000001    0.00     75.20   
   881. A(C   4,C   8,F  38)          124.72  0.000007   -0.01    124.72   
   882. A(H  21,C   8,F  32)          120.15  0.000003    0.00    120.15   
   883. A(H  20,C   8,F  32)           34.74 -0.000004    0.00     34.74   
   884. A(H  19,C   8,F  32)           73.07 -0.000002   -0.00     73.07   
   885. A(C   4,C   8,F  32)          124.47  0.000008   -0.00    124.47   
   886. A(H  21,C   8,C  33)          118.83  0.000003    0.00    118.83   
   887. A(H  20,C   8,C  33)           33.96 -0.000004   -0.00     33.96   
   888. A(H  19,C   8,C  33)           73.84 -0.000002    0.00     73.84   
   889. A(C   4,C   8,C  33)          125.43  0.000008   -0.01    125.43   
   890. A(H  21,C   8,F  26)          120.97  0.000004   -0.01    120.97   
   891. A(C   4,C   8,F  26)          124.54  0.000006    0.01    124.55   
   892. A(H  21,C   8,S  35)          119.43  0.000003    0.00    119.43   
   893. A(H  19,C   8,S  35)           73.06 -0.000002   -0.00     73.06   
   894. A(H  19,C   8,F  26)           70.95 -0.000003   -0.01     70.95   
   895. A(H  20,C   8,N  36)           33.82 -0.000004   -0.00     33.82   
   896. A(H  19,C   8,N  36)           73.98 -0.000002    0.00     73.98   
   897. A(C   4,C   8,N  36)          125.47  0.000007   -0.01    125.47   
   898. A(H  21,C   8,F  37)          122.08  0.000004    0.00    122.08   
   899. A(H  20,C   8,F  37)           35.09 -0.000004    0.01     35.10   
   900. A(H  19,C   8,F  37)           72.82 -0.000003   -0.01     72.81   
   901. A(C   4,C   8,F  37)          122.68  0.000007    0.00    122.68   
   902. A(H  21,C   8,F  29)          122.06  0.000005   -0.00    122.05   
   903. A(H  20,C   8,S  35)           34.74 -0.000004   -0.00     34.74   
   904. A(H  20,C   8,F  29)           36.74 -0.000003    0.01     36.75   
   905. A(H  19,C   8,F  29)           71.14 -0.000003   -0.01     71.13   
   906. A(C   4,C   8,F  29)          123.39  0.000006    0.01    123.40   
   907. A(H  21,C   8,O  27)          118.60  0.000003   -0.00    118.59   
   908. A(H  20,C   8,O  27)           35.87 -0.000003   -0.00     35.87   
   909. A(H  19,C   8,O  27)           71.93 -0.000003    0.00     71.94   
   910. A(H  21,C   8,N  36)          118.72  0.000003    0.00    118.73   
   911. A(C   4,C   8,O  27)          126.49  0.000008    0.00    126.49   
   912. A(H  20,C   8,H  21)          107.77  0.000014    0.00    107.77   
   913. A(F  26,C   8,O  34)            5.29  0.000001    0.00      5.29   
   914. A(O  34,C   8,F  37)            5.70  0.000001    0.00      5.70   
   915. A(C  31,C   8,O  34)            5.09  0.000001    0.00      5.09   
   916. A(F  29,C   8,O  34)            6.09  0.000002    0.00      6.09   
   917. A(H  21,C   8,O  34)          116.41  0.000003    0.00    116.41   
   918. A(H  20,C   8,O  34)           33.45 -0.000002   -0.01     33.44   
   919. A(H  19,C   8,O  34)           74.46 -0.000003    0.01     74.47   
   920. A(C   4,C   8,O  34)          127.54  0.000008   -0.01    127.53   
   921. A(H  21,C   8,O  25)          117.78  0.000002   -0.00    117.78   
   922. A(H  20,C   8,O  25)           35.92 -0.000002   -0.01     35.92   
   923. A(H  19,C   8,H  21)          107.76 -0.000002   -0.00    107.76   
   924. A(H  19,C   8,O  25)           71.92 -0.000003    0.01     71.93   
   925. A(C   4,C   8,O  25)          127.30  0.000009    0.00    127.30   
   926. A(C   4,C   8,H  21)          111.05 -0.000008    0.00    111.05   
   927. A(H  21,C   8,F  28)          118.21  0.000003    0.00    118.21   
   928. A(H  20,C   8,F  28)           34.30 -0.000004   -0.00     34.29   
   929. A(H  19,C   8,F  28)           73.52 -0.000002    0.00     73.52   
   930. A(C   4,C   8,F  28)          126.19  0.000008   -0.00    126.19   
   931. A(H  21,C   8,O  39)          119.94  0.000003    0.01    119.95   
   932. A(H  19,C   8,H  20)          107.80 -0.000006   -0.00    107.80   
   933. A(H  20,C   8,O  39)           33.70 -0.000005    0.00     33.70   
   934. A(H  21,C   8,C  31)          121.24  0.000004   -0.00    121.24   
   935. A(H  20,C   8,C  31)           35.92 -0.000003    0.01     35.92   
   936. A(H  19,C   8,O  39)           74.11 -0.000001   -0.00     74.11   
   937. A(H  19,C   8,C  31)           71.93 -0.000003   -0.01     71.92   
   938. A(C   4,C   8,O  39)          124.21  0.000007   -0.01    124.20   
   939. A(H  21,C   8,S  30)          117.77  0.000002    0.00    117.77   
   940. A(C   4,C   8,C  31)          123.88  0.000007    0.00    123.89   
   941. A(H  20,C   8,S  30)           34.38 -0.000003   -0.01     34.37   
   942. A(C   4,C   8,H  20)          111.11  0.000001    0.00    111.12   
   943. A(H  19,C   8,S  30)           73.45 -0.000002    0.00     73.46   
   944. A(C   4,C   8,S  30)          126.65  0.000008   -0.00    126.65   
   945. A(C   4,C   8,H  19)          111.18  0.000002   -0.00    111.18   
   946. A(C   4,C   8,S  35)          125.18  0.000007   -0.00    125.18   
   947. A(H  20,C   8,F  26)           36.87 -0.000003    0.01     36.87   
   948. A(N   1,C   9,C  33)           11.74 -0.000002   -0.00     11.74   
   949. A(H  24,C   9,F  28)          121.69  0.000002    0.00    121.69   
   950. A(H  22,C   9,F  28)          102.01  0.000003   -0.00    102.01   
   951. A(N   1,C   9,F  28)           12.17 -0.000003    0.00     12.17   
   952. A(H  23,C   9,F  38)          105.34  0.000003    0.01    105.34   
   953. A(H  22,C   9,F  38)          100.80  0.000002   -0.00    100.80   
   954. A(N   1,C   9,F  38)           11.96 -0.000002   -0.00     11.96   
   955. A(H  23,C   9,O  25)          102.13  0.000001    0.00    102.13   
   956. A(H  22,C   9,F  32)          102.85  0.000003    0.00    102.85   
   957. A(N   1,C   9,F  32)           10.49 -0.000003   -0.00     10.49   
   958. A(O  34,C   9,F  37)            5.03  0.000001    0.00      5.03   
   959. A(H  23,C   9,C  33)          104.29  0.000002    0.00    104.29   
   960. A(F  29,C   9,O  34)            5.28  0.000002    0.00      5.28   
   961. A(H  24,C   9,O  34)          123.46  0.000002    0.00    123.47   
   962. A(H  23,C   9,O  34)          102.99  0.000002    0.01    103.00   
   963. A(N   1,C   9,O  34)           13.98 -0.000003    0.00     13.98   
   964. A(H  24,C   9,O  25)          122.08  0.000002    0.00    122.08   
   965. A(H  22,C   9,O  25)          103.12  0.000004   -0.00    103.11   
   966. A(N   1,C   9,O  25)           12.56 -0.000002    0.00     12.56   
   967. A(H  24,C   9,S  30)          122.21  0.000002    0.00    122.22   
   968. A(H  22,C   9,S  30)          101.87  0.000003   -0.00    101.87   
   969. A(H  22,C   9,F  37)          103.49  0.000004    0.01    103.49   
   970. A(H  24,C   9,F  26)          119.26  0.000000    0.00    119.26   
   971. A(H  23,C   9,F  26)          103.60  0.000003   -0.00    103.60   
   972. A(H  22,C   9,F  26)          104.72  0.000004    0.00    104.72   
   973. A(N   1,C   9,F  26)            9.75 -0.000004    0.00      9.76   
   974. A(H  22,C   9,C  33)          101.88  0.000003   -0.00    101.88   
   975. A(H  24,C   9,N  36)          121.47  0.000002   -0.00    121.47   
   976. A(H  23,C   9,N  36)          104.22  0.000003    0.00    104.22   
   977. A(H  22,C   9,N  36)          101.66  0.000003   -0.00    101.66   
   978. A(N   1,C   9,N  36)           12.01 -0.000003   -0.00     12.01   
   979. A(H  24,C   9,F  37)          118.44  0.000000   -0.00    118.44   
   980. A(H  23,C   9,F  37)          105.69  0.000003   -0.00    105.69   
   981. A(N   1,C   9,F  37)            8.97 -0.000004   -0.00      8.97   
   982. A(H  24,C   9,F  32)          120.00  0.000002    0.00    120.00   
   983. A(H  23,C   9,F  28)          103.65  0.000002    0.00    103.66   
   984. A(H  24,C   9,C  31)          119.16  0.000001    0.00    119.17   
   985. A(H  22,C   9,C  31)          103.97  0.000004    0.00    103.97   
   986. A(N   1,C   9,C  31)            9.62 -0.000004    0.00      9.62   
   987. A(H  23,C   9,H  24)          109.92 -0.000006   -0.00    109.92   
   988. A(H  22,C   9,H  24)          109.46 -0.000003   -0.00    109.46   
   989. A(N   1,C   9,H  24)          109.54  0.000005    0.00    109.55   
   990. A(H  22,C   9,H  23)          109.44  0.000003   -0.00    109.44   
   991. A(H  22,C   9,O  34)          100.71  0.000003   -0.00    100.71   
   992. A(H  24,C   9,S  35)          120.88  0.000002    0.00    120.88   
   993. A(H  23,C   9,S  35)          104.00  0.000003    0.00    104.01   
   994. A(H  22,C   9,S  35)          102.55  0.000003    0.00    102.55   
   995. A(N   1,C   9,S  35)           11.36 -0.000003   -0.00     11.36   
   996. A(H  24,C   9,O  27)          121.56  0.000002    0.00    121.56   
   997. A(N   1,C   9,H  23)          109.46 -0.000000    0.00    109.46   
   998. A(H  23,C   9,O  27)          102.60  0.000002    0.00    102.61   
   999. A(H  22,C   9,O  27)          103.22  0.000003   -0.00    103.22   
  1000. A(N   1,C   9,O  27)           12.03 -0.000003    0.00     12.03   
  1001. A(H  24,C   9,F  29)          118.45  0.000000    0.00    118.46   
  1002. A(H  23,C   9,F  29)          104.40  0.000002   -0.00    104.39   
  1003. A(H  22,C   9,F  29)          104.79  0.000005    0.00    104.79   
  1004. A(N   1,C   9,F  29)            8.92 -0.000005    0.00      8.92   
  1005. A(N   1,C   9,H  22)          109.00  0.000001    0.00    109.00   
  1006. A(H  24,C   9,O  39)          120.55  0.000001   -0.00    120.55   
  1007. A(H  23,C   9,O  39)          105.08  0.000003    0.00    105.08   
  1008. A(H  22,C   9,O  39)          101.80  0.000003    0.00    101.81   
  1009. A(N   1,C   9,O  39)           11.16 -0.000003   -0.00     11.16   
  1010. A(H  23,C   9,F  32)          104.65  0.000002    0.00    104.65   
  1011. A(H  24,C   9,F  38)          121.21  0.000002   -0.00    121.20   
  1012. A(H  23,C   9,S  30)          103.22  0.000002    0.01    103.22   
  1013. A(N   1,C   9,S  30)           12.69 -0.000002    0.00     12.69   
  1014. A(H  24,C   9,C  33)          121.21  0.000002    0.00    121.21   
  1015. A(H  23,C   9,C  31)          104.45  0.000002   -0.00    104.44   
  1016. A(C   2,O  25,S  30)           83.64  0.000007   -0.01     83.63   
  1017. A(C   9,O  25,S  30)           85.13  0.000007   -0.01     85.13   
  1018. A(C   4,O  25,S  30)           84.23  0.000007   -0.00     84.23   
  1019. A(N   1,O  25,S  30)           85.15  0.000007   -0.01     85.14   
  1020. A(C   7,O  25,S  30)           86.19  0.000007   -0.01     86.18   
  1021. A(C   5,O  25,S  30)           84.14  0.000007   -0.01     84.13   
  1022. A(C   3,O  25,S  30)           84.22  0.000007   -0.01     84.21   
  1023. A(C   6,O  25,S  30)           85.81  0.000007   -0.01     85.80   
  1024. A(C   8,O  25,S  30)           84.76  0.000007    0.00     84.76   
  1025. A(N   0,O  25,S  30)           84.50  0.000007   -0.01     84.49   
  1026. A(C   6,F  26,C  31)           45.33 -0.000004   -0.00     45.33   
  1027. A(C   3,F  26,C  31)           44.11 -0.000004    0.00     44.12   
  1028. A(N   0,F  26,C  31)           44.12 -0.000004   -0.00     44.12   
  1029. A(C   8,F  26,C  31)           45.29 -0.000005    0.01     45.30   
  1030. A(C   9,F  26,C  31)           44.85 -0.000004    0.00     44.85   
  1031. A(N   1,F  26,C  31)           44.80 -0.000004   -0.00     44.80   
  1032. A(C   2,F  26,C  31)           43.29 -0.000004    0.00     43.29   
  1033. A(C   7,F  26,C  31)           45.74 -0.000004   -0.00     45.74   
  1034. A(C   5,F  26,C  31)           43.85 -0.000004    0.00     43.85   
  1035. A(C   4,F  26,C  31)           44.47 -0.000004    0.01     44.48   
  1036. A(C   6,O  27,S  35)          107.03 -0.000005    0.00    107.03   
  1037. A(N   1,O  27,S  35)          106.89 -0.000005    0.00    106.90   
  1038. A(N   0,O  27,S  35)          106.22 -0.000005    0.00    106.22   
  1039. A(C   7,O  27,S  35)          107.44 -0.000005    0.00    107.44   
  1040. A(C   3,O  27,S  35)          106.75 -0.000006    0.01    106.76   
  1041. A(C   5,O  27,S  35)          106.17 -0.000005    0.00    106.17   
  1042. A(C   8,O  27,S  35)          108.80 -0.000007    0.02    108.81   
  1043. A(C   9,O  27,S  35)          107.06 -0.000005    0.00    107.07   
  1044. A(C   2,O  27,S  35)          105.55 -0.000005    0.00    105.56   
  1045. A(C   4,O  27,S  35)          107.63 -0.000006    0.01    107.65   
  1046. A(C   9,F  28,C  33)           30.33 -0.000006    0.00     30.34   
  1047. A(N   1,F  28,C  33)           30.14 -0.000006    0.00     30.14   
  1048. A(C   7,F  28,C  33)           30.34 -0.000006    0.00     30.34   
  1049. A(C   5,F  28,C  33)           29.74 -0.000006    0.00     29.75   
  1050. A(C   6,F  28,C  33)           30.03 -0.000006    0.00     30.03   
  1051. A(N   0,F  28,C  33)           29.64 -0.000006    0.00     29.64   
  1052. A(C   2,F  28,C  33)           29.27 -0.000006    0.00     29.27   
  1053. A(C   4,F  28,C  33)           31.65 -0.000007    0.01     31.66   
  1054. A(C   3,F  28,C  33)           30.51 -0.000006    0.00     30.51   
  1055. A(C   8,F  28,C  33)           32.89 -0.000007    0.01     32.89   
  1056. A(C   6,F  29,C   8)            5.08 -0.000002   -0.00      5.08   
  1057. A(C   6,F  29,C  31)          140.78 -0.000016   -0.00    140.78   
  1058. A(N   1,F  29,C  31)          139.82 -0.000015   -0.00    139.81   
  1059. A(N   0,F  29,C  31)          139.41 -0.000015   -0.00    139.41   
  1060. A(C   3,F  29,C  31)          138.09 -0.000015   -0.00    138.08   
  1061. A(C   7,F  29,C   8)            5.13 -0.000002   -0.00      5.13   
  1062. A(C   7,F  29,C  31)          141.00 -0.000016   -0.00    141.00   
  1063. A(C   5,F  29,C  31)          138.87 -0.000015   -0.00    138.87   
  1064. A(C   8,F  29,C  31)          136.28 -0.000014    0.01    136.28   
  1065. A(C   9,F  29,C  31)          139.63 -0.000015   -0.00    139.63   
  1066. A(C   2,F  29,C  31)          138.63 -0.000015   -0.01    138.63   
  1067. A(C   4,F  29,C  31)          136.94 -0.000014    0.00    136.95   
  1068. A(O  34,S  30,N  36)          111.10  0.000010   -0.00    111.10   
  1069. A(C  33,S  30,N  36)           98.92 -0.000023    0.00     98.92   
  1070. A(O  25,S  30,N  36)          116.85 -0.000005   -0.01    116.83   
  1071. A(C   2,S  30,N  36)           39.27  0.000016   -0.01     39.27   
  1072. A(C   2,S  30,O  34)           99.46  0.000003   -0.03     99.43   
  1073. A(C   9,S  30,N  36)           40.44  0.000016   -0.01     40.44   
  1074. A(C   2,S  30,C  33)          137.81 -0.000006    0.00    137.81   
  1075. A(C   9,S  30,C  33)          138.79 -0.000006    0.00    138.80   
  1076. A(C   2,S  30,O  25)           94.83 -0.000009    0.01     94.84   
  1077. A(C   9,S  30,O  25)           93.46 -0.000008    0.01     93.47   
  1078. A(N   1,S  30,O  25)           93.42 -0.000008    0.01     93.43   
  1079. A(O  25,S  30,O  34)          118.86  0.000004    0.00    118.86   
  1080. A(N   1,S  30,N  36)           40.22  0.000016   -0.01     40.22   
  1081. A(N   1,S  30,O  34)          100.10  0.000003   -0.02    100.07   
  1082. A(C   4,S  30,N  36)           41.74  0.000015   -0.00     41.74   
  1083. A(N   1,S  30,C  33)          138.53 -0.000005    0.00    138.53   
  1084. A(C   4,S  30,O  34)           97.46  0.000004   -0.02     97.44   
  1085. A(C   4,S  30,C  33)          140.42 -0.000007    0.00    140.43   
  1086. A(C   4,S  30,O  25)           94.24 -0.000008    0.00     94.24   
  1087. A(O  25,S  30,C  33)          104.38  0.000011    0.01    104.39   
  1088. A(C   7,S  30,O  34)          101.16  0.000002   -0.02    101.14   
  1089. A(C   7,S  30,C  33)          138.43 -0.000005   -0.00    138.43   
  1090. A(C   7,S  30,O  25)           92.35 -0.000008    0.01     92.36   
  1091. A(C   5,S  30,N  36)           39.80  0.000016   -0.01     39.79   
  1092. A(C   5,S  30,O  34)           99.40  0.000003   -0.02     99.37   
  1093. A(C   5,S  30,C  33)          138.30 -0.000005    0.00    138.30   
  1094. A(C   5,S  30,O  25)           94.40 -0.000009    0.01     94.41   
  1095. A(C   7,S  30,N  36)           40.43  0.000016   -0.01     40.42   
  1096. A(C   3,S  30,N  36)           40.56  0.000016   -0.00     40.55   
  1097. A(C   3,S  30,O  34)           98.76  0.000003   -0.02     98.74   
  1098. A(C   3,S  30,C  33)          139.11 -0.000006    0.00    139.11   
  1099. A(C   3,S  30,O  25)           94.23 -0.000008    0.01     94.24   
  1100. A(C   6,S  30,N  36)           40.09  0.000016   -0.01     40.08   
  1101. A(C   6,S  30,O  34)          101.12  0.000002   -0.02    101.09   
  1102. A(C  33,S  30,O  34)          103.25 -0.000003    0.00    103.25   
  1103. A(C   6,S  30,C  33)          138.15 -0.000005   -0.00    138.15   
  1104. A(C   6,S  30,O  25)           92.70 -0.000008    0.01     92.71   
  1105. A(C   8,S  30,N  36)           43.03  0.000015    0.00     43.03   
  1106. A(C   8,S  30,O  34)           96.71  0.000004   -0.02     96.69   
  1107. A(C   8,S  30,C  33)          141.73 -0.000008    0.01    141.74   
  1108. A(C   8,S  30,O  25)           93.68 -0.000008   -0.00     93.68   
  1109. A(N   0,S  30,N  36)           39.68  0.000016   -0.01     39.67   
  1110. A(N   0,S  30,O  34)           99.98  0.000003   -0.02     99.96   
  1111. A(N   0,S  30,C  33)          138.07 -0.000005    0.00    138.07   
  1112. A(N   0,S  30,O  25)           94.01 -0.000008    0.01     94.02   
  1113. A(C   9,S  30,O  34)           99.80  0.000003   -0.02     99.77   
  1114. A(C   5,C  31,S  35)           71.43  0.000007   -0.01     71.42   
  1115. A(C   5,C  31,F  29)           40.19  0.000015    0.00     40.20   
  1116. A(C   5,C  31,F  26)          135.18  0.000004   -0.00    135.17   
  1117. A(F  29,C  31,F  37)          107.65 -0.000008   -0.00    107.65   
  1118. A(F  26,C  31,F  37)          108.07 -0.000000    0.00    108.07   
  1119. A(C   2,C  31,F  37)          111.19 -0.000004   -0.00    111.19   
  1120. A(C   2,C  31,S  35)           71.40  0.000007   -0.01     71.39   
  1121. A(C   2,C  31,F  29)           40.39  0.000015    0.01     40.39   
  1122. A(C   2,C  31,F  26)          135.70  0.000004   -0.00    135.70   
  1123. A(F  29,C  31,S  35)          109.76  0.000023   -0.00    109.76   
  1124. A(F  26,C  31,S  35)          112.09  0.000003    0.01    112.10   
  1125. A(C   4,C  31,F  37)          113.44 -0.000006    0.01    113.44   
  1126. A(C   4,C  31,S  35)           69.14  0.000009   -0.00     69.14   
  1127. A(C   4,C  31,F  29)           42.04  0.000014   -0.00     42.04   
  1128. A(C   4,C  31,F  26)          134.50  0.000005   -0.01    134.49   
  1129. A(C   9,C  31,F  37)          112.43 -0.000005   -0.00    112.43   
  1130. A(C   9,C  31,S  35)           71.88  0.000007   -0.01     71.88   
  1131. A(C   9,C  31,F  29)           39.49  0.000015    0.00     39.49   
  1132. A(C   9,C  31,F  26)          134.20  0.000004   -0.00    134.20   
  1133. A(F  26,C  31,F  29)          107.87 -0.000008   -0.00    107.86   
  1134. A(C   6,C  31,F  37)          112.37 -0.000005   -0.01    112.37   
  1135. A(C   6,C  31,S  35)           73.04  0.000007   -0.00     73.03   
  1136. A(C   6,C  31,F  29)           38.30  0.000015    0.00     38.30   
  1137. A(C   6,C  31,F  26)          133.64  0.000004    0.00    133.65   
  1138. A(N   0,C  31,F  37)          111.72 -0.000004   -0.00    111.72   
  1139. A(N   0,C  31,S  35)           71.95  0.000007   -0.01     71.94   
  1140. A(N   0,C  31,F  29)           39.64  0.000015    0.00     39.64   
  1141. A(N   0,C  31,F  26)          134.88  0.000004    0.00    134.88   
  1142. A(C   3,C  31,F  37)          112.47 -0.000005    0.00    112.47   
  1143. A(C   3,C  31,S  35)           70.51  0.000008   -0.01     70.50   
  1144. A(C   3,C  31,F  29)           40.91  0.000014    0.00     40.91   
  1145. A(C   3,C  31,F  26)          134.84  0.000004   -0.00    134.84   
  1146. A(C   8,C  31,F  37)          114.68 -0.000006    0.01    114.69   
  1147. A(C   8,C  31,S  35)           68.21  0.000009    0.00     68.21   
  1148. A(C   8,C  31,F  29)           42.67  0.000013   -0.01     42.67   
  1149. A(N   1,C  31,F  37)          112.28 -0.000005   -0.00    112.28   
  1150. A(C   8,C  31,F  26)          133.64  0.000005   -0.01    133.63   
  1151. A(N   1,C  31,S  35)           72.12  0.000007   -0.01     72.12   
  1152. A(N   1,C  31,F  29)           39.28  0.000015    0.00     39.28   
  1153. A(N   1,C  31,F  26)          134.22  0.000004   -0.00    134.22   
  1154. A(C   7,C  31,F  37)          112.71 -0.000005   -0.01    112.70   
  1155. A(C   7,C  31,S  35)           73.13  0.000007   -0.00     73.12   
  1156. A(C   7,C  31,F  29)           38.11  0.000015    0.00     38.11   
  1157. A(C   7,C  31,F  26)          133.25  0.000004    0.00    133.26   
  1158. A(S  35,C  31,F  37)          111.24 -0.000010   -0.00    111.24   
  1159. A(C   5,C  31,F  37)          111.69 -0.000004   -0.00    111.69   
  1160. A(C   3,F  32,C  33)           91.30  0.000001    0.00     91.30   
  1161. A(C   8,F  32,C  33)           89.09  0.000002    0.00     89.09   
  1162. A(C   9,F  32,C  33)           92.48  0.000001    0.00     92.48   
  1163. A(N   1,F  32,C  33)           92.73  0.000001    0.00     92.73   
  1164. A(C   7,F  32,C  33)           93.66  0.000000    0.00     93.67   
  1165. A(C   5,F  32,C  33)           92.12  0.000001    0.00     92.12   
  1166. A(C   6,F  32,C  33)           93.62  0.000000    0.00     93.62   
  1167. A(N   0,F  32,C  33)           92.63  0.000001    0.00     92.63   
  1168. A(C   2,F  32,C  33)           92.15  0.000001   -0.00     92.15   
  1169. A(C   4,F  32,C  33)           89.98  0.000002    0.00     89.98   
  1170. A(C   3,C  33,F  38)           92.50 -0.000004   -0.00     92.50   
  1171. A(C   3,C  33,F  32)           87.29 -0.000002   -0.00     87.28   
  1172. A(C   3,C  33,S  30)           39.60  0.000006   -0.00     39.60   
  1173. A(C   3,C  33,F  28)          148.77  0.000007   -0.01    148.77   
  1174. A(C   8,C  33,F  38)           93.24 -0.000004    0.00     93.24   
  1175. A(C   8,C  33,F  32)           89.50 -0.000003   -0.00     89.49   
  1176. A(C   8,C  33,S  30)           37.05  0.000007   -0.01     37.04   
  1177. A(C   8,C  33,F  28)          146.34  0.000008   -0.01    146.33   
  1178. A(C   9,C  33,F  38)           93.12 -0.000004   -0.01     93.12   
  1179. A(C   9,C  33,F  32)           86.25 -0.000001   -0.00     86.24   
  1180. A(N   1,C  33,F  38)           93.16 -0.000004   -0.01     93.15   
  1181. A(N   1,C  33,F  32)           85.96 -0.000001   -0.00     85.96   
  1182. A(N   1,C  33,S  30)           40.26  0.000005   -0.00     40.26   
  1183. A(N   1,C  33,F  28)          149.20  0.000006   -0.00    149.20   
  1184. A(C   7,C  33,F  38)           94.15 -0.000004   -0.01     94.14   
  1185. A(C   7,C  33,F  32)           85.01 -0.000001   -0.00     85.01   
  1186. A(C   7,C  33,S  30)           40.34  0.000005    0.00     40.34   
  1187. A(C   7,C  33,F  28)          148.99  0.000006   -0.00    148.99   
  1188. A(C   5,C  33,F  38)           92.23 -0.000004   -0.01     92.22   
  1189. A(C   5,C  33,F  32)           86.55 -0.000001   -0.00     86.55   
  1190. A(C   5,C  33,S  30)           40.47  0.000005   -0.00     40.47   
  1191. A(C   5,C  33,F  28)          149.60  0.000006   -0.00    149.59   
  1192. A(S  30,C  33,F  32)          111.69  0.000001   -0.00    111.69   
  1193. A(F  28,C  33,F  32)          107.76  0.000000    0.00    107.77   
  1194. A(F  28,C  33,S  30)          109.41  0.000000   -0.00    109.41   
  1195. A(C   6,C  33,F  38)           93.81 -0.000004   -0.01     93.81   
  1196. A(C   6,C  33,F  32)           85.03 -0.000001   -0.00     85.03   
  1197. A(C   6,C  33,S  30)           40.59  0.000005    0.00     40.59   
  1198. A(C   6,C  33,F  28)          149.29  0.000006   -0.00    149.29   
  1199. A(N   0,C  33,F  38)           92.58 -0.000004   -0.01     92.58   
  1200. A(N   0,C  33,F  32)           86.02 -0.000001   -0.00     86.02   
  1201. A(N   0,C  33,S  30)           40.67  0.000005   -0.00     40.67   
  1202. A(N   0,C  33,F  28)          149.69  0.000006   -0.00    149.69   
  1203. A(C   9,C  33,S  30)           40.03  0.000005   -0.00     40.03   
  1204. A(C   9,C  33,F  28)          149.02  0.000006   -0.00    149.01   
  1205. A(C   2,C  33,F  38)           91.81 -0.000004   -0.01     91.80   
  1206. A(C   2,C  33,F  32)           86.46 -0.000001    0.00     86.46   
  1207. A(C   2,C  33,S  30)           40.89  0.000005   -0.00     40.89   
  1208. A(C   2,C  33,F  28)          150.05  0.000006   -0.00    150.05   
  1209. A(C   4,C  33,F  38)           92.60 -0.000004    0.00     92.60   
  1210. A(C   4,C  33,F  32)           88.62 -0.000002   -0.00     88.62   
  1211. A(C   4,C  33,S  30)           38.34  0.000007   -0.00     38.33   
  1212. A(C   4,C  33,F  28)          147.62  0.000007   -0.01    147.61   
  1213. A(F  32,C  33,F  38)          108.05 -0.000005    0.00    108.05   
  1214. A(S  30,C  33,F  38)          112.02  0.000003   -0.00    112.01   
  1215. A(F  28,C  33,F  38)          107.73  0.000000    0.00    107.74   
  1216. A(C   2,O  34,S  30)           79.04 -0.000002    0.03     79.06   
  1217. A(C   9,O  34,S  30)           78.82 -0.000002    0.02     78.85   
  1218. A(C   4,O  34,S  30)           81.01 -0.000003    0.02     81.03   
  1219. A(N   1,O  34,S  30)           78.49 -0.000002    0.02     78.51   
  1220. A(C   7,O  34,S  30)           77.41 -0.000001    0.02     77.44   
  1221. A(C   5,O  34,S  30)           79.17 -0.000002    0.02     79.19   
  1222. A(C   3,O  34,S  30)           79.70 -0.000002    0.02     79.73   
  1223. A(C   6,O  34,S  30)           77.43 -0.000001    0.02     77.45   
  1224. A(N   0,O  34,S  30)           78.55 -0.000002    0.02     78.57   
  1225. A(C   8,O  34,S  30)           81.74 -0.000003    0.02     81.76   
  1226. A(C   3,S  35,O  39)           48.35  0.000014   -0.00     48.34   
  1227. A(C   3,S  35,N  36)          144.05 -0.000007   -0.01    144.04   
  1228. A(C   3,S  35,C  31)          107.49 -0.000009    0.01    107.50   
  1229. A(C   3,S  35,O  27)           71.68  0.000005   -0.01     71.67   
  1230. A(C  31,S  35,N  36)          104.48  0.000019    0.01    104.49   
  1231. A(O  27,S  35,N  36)          115.72 -0.000008    0.01    115.73   
  1232. A(C   8,S  35,O  39)           50.01  0.000013    0.01     50.02   
  1233. A(C   8,S  35,N  36)          142.72 -0.000007   -0.00    142.72   
  1234. A(C   7,S  35,O  39)           49.49  0.000015   -0.01     49.48   
  1235. A(C   7,S  35,N  36)          146.75 -0.000008   -0.01    146.74   
  1236. A(C   8,S  35,C  31)          109.81 -0.000010   -0.00    109.81   
  1237. A(C   7,S  35,C  31)          104.97 -0.000008    0.00    104.98   
  1238. A(C   7,S  35,O  27)           71.11  0.000005   -0.00     71.10   
  1239. A(C   8,S  35,O  27)           69.65  0.000006   -0.02     69.63   
  1240. A(O  27,S  35,C  31)          104.03 -0.000012   -0.00    104.03   
  1241. A(C   5,S  35,O  39)           47.82  0.000015   -0.01     47.82   
  1242. A(C   5,S  35,N  36)          144.49 -0.000007   -0.01    144.48   
  1243. A(C   5,S  35,C  31)          106.69 -0.000008    0.01    106.69   
  1244. A(C   5,S  35,O  27)           72.36  0.000005   -0.00     72.36   
  1245. A(C   2,S  35,O  39)           47.29  0.000015   -0.01     47.28   
  1246. A(C   2,S  35,N  36)          144.28 -0.000007   -0.01    144.26   
  1247. A(C   2,S  35,C  31)          106.62 -0.000008    0.01    106.63   
  1248. A(C   2,S  35,O  27)           72.90  0.000005   -0.01     72.89   
  1249. A(C   4,S  35,O  39)           48.95  0.000014    0.00     48.96   
  1250. A(C   9,S  35,O  39)           48.75  0.000015   -0.01     48.74   
  1251. A(C   4,S  35,N  36)          143.09 -0.000007   -0.01    143.09   
  1252. A(C   9,S  35,N  36)          145.27 -0.000007   -0.01    145.26   
  1253. A(C   9,S  35,C  31)          106.30 -0.000008    0.01    106.31   
  1254. A(C   9,S  35,O  27)           71.53  0.000005   -0.00     71.53   
  1255. A(C   4,S  35,C  31)          108.90 -0.000010    0.00    108.90   
  1256. A(C   4,S  35,O  27)           70.83  0.000006   -0.01     70.82   
  1257. A(C   6,S  35,O  39)           49.11  0.000015   -0.01     49.10   
  1258. A(C   6,S  35,N  36)          146.53 -0.000008   -0.01    146.52   
  1259. A(C   6,S  35,C  31)          105.02 -0.000008    0.00    105.02   
  1260. A(C   6,S  35,O  27)           71.47  0.000005   -0.00     71.47   
  1261. A(N  36,S  35,O  39)          108.62 -0.000016    0.00    108.62   
  1262. A(C  31,S  35,O  39)          102.77 -0.000000   -0.00    102.77   
  1263. A(N   0,S  35,O  39)           48.03  0.000015   -0.01     48.02   
  1264. A(N   0,S  35,N  36)          145.08 -0.000007   -0.01    145.06   
  1265. A(N   0,S  35,C  31)          106.12 -0.000008    0.01    106.12   
  1266. A(N   0,S  35,O  27)           72.28  0.000005   -0.00     72.28   
  1267. A(O  27,S  35,O  39)          119.15  0.000019   -0.01    119.14   
  1268. A(N   1,S  35,O  39)           48.68  0.000015   -0.01     48.67   
  1269. A(N   1,S  35,N  36)          145.48 -0.000007   -0.01    145.47   
  1270. A(N   1,S  35,C  31)          106.01 -0.000008    0.01    106.02   
  1271. A(N   1,S  35,O  27)           71.66  0.000005   -0.00     71.66   
  1272. A(S  30,N  36,S  35)          127.61 -0.000007   -0.00    127.60   
  1273. A(C   6,N  36,S  35)           32.55  0.000008    0.01     32.56   
  1274. A(C   6,N  36,S  30)          138.83 -0.000016    0.01    138.84   
  1275. A(N   0,N  36,S  35)           33.96  0.000007    0.01     33.98   
  1276. A(N   0,N  36,S  30)          139.25 -0.000017    0.01    139.25   
  1277. A(C   3,N  36,S  35)           34.92  0.000007    0.01     34.93   
  1278. A(C   3,N  36,S  30)          138.31 -0.000016    0.00    138.31   
  1279. A(C   9,N  36,S  35)           33.84  0.000007    0.01     33.85   
  1280. A(C   9,N  36,S  30)          138.53 -0.000017    0.01    138.54   
  1281. A(C   8,N  36,S  35)           36.22  0.000007    0.00     36.22   
  1282. A(C   8,N  36,S  30)          135.77 -0.000015   -0.00    135.77   
  1283. A(N   1,N  36,S  35)           33.60  0.000007    0.01     33.62   
  1284. A(N   1,N  36,S  30)          138.73 -0.000017    0.01    138.74   
  1285. A(C   7,N  36,S  35)           32.35  0.000008    0.01     32.37   
  1286. A(C   7,N  36,S  30)          138.51 -0.000016    0.01    138.52   
  1287. A(C   2,N  36,S  35)           34.72  0.000007    0.01     34.73   
  1288. A(C   2,N  36,S  30)          139.64 -0.000017    0.01    139.64   
  1289. A(C   5,N  36,S  35)           34.56  0.000007    0.01     34.57   
  1290. A(C   5,N  36,S  30)          139.15 -0.000017    0.01    139.16   
  1291. A(C   4,N  36,S  35)           35.87  0.000007    0.01     35.88   
  1292. A(C   4,N  36,S  30)          137.11 -0.000016    0.00    137.11   
  1293. A(C   6,F  37,C  31)           66.30  0.000004    0.01     66.31   
  1294. A(N   0,F  37,C  31)           66.95  0.000004    0.00     66.95   
  1295. A(C   3,F  37,C  31)           66.15  0.000005   -0.00     66.15   
  1296. A(C   9,F  37,C  31)           66.33  0.000004    0.00     66.33   
  1297. A(C   8,F  37,C  31)           63.96  0.000006   -0.01     63.95   
  1298. A(N   1,F  37,C  31)           66.44  0.000004    0.00     66.44   
  1299. A(C   7,F  37,C  31)           66.00  0.000005    0.01     66.01   
  1300. A(C   2,F  37,C  31)           67.44  0.000004    0.00     67.44   
  1301. A(C   5,F  37,C  31)           67.01  0.000004    0.00     67.01   
  1302. A(C   4,F  37,C  31)           65.21  0.000005   -0.01     65.21   
  1303. A(C   8,F  38,C  33)           85.35  0.000003   -0.00     85.34   
  1304. A(C   9,F  38,C  33)           85.60  0.000003    0.01     85.61   
  1305. A(N   1,F  38,C  33)           85.54  0.000003    0.01     85.54   
  1306. A(C   7,F  38,C  33)           84.53  0.000003    0.01     84.54   
  1307. A(C   5,F  38,C  33)           86.44  0.000003    0.01     86.45   
  1308. A(C   6,F  38,C  33)           84.84  0.000003    0.01     84.84   
  1309. A(N   0,F  38,C  33)           86.06  0.000003    0.01     86.07   
  1310. A(C   2,F  38,C  33)           86.80  0.000003    0.01     86.81   
  1311. A(C   4,F  38,C  33)           86.01  0.000003   -0.00     86.01   
  1312. A(C   3,F  38,C  33)           86.09  0.000003    0.00     86.10   
  1313. A(C   2,O  39,S  35)          131.51 -0.000016    0.01    131.51   
  1314. A(C   6,O  39,C   8)            5.02 -0.000002   -0.00      5.02   
  1315. A(C   6,O  39,S  35)          129.69 -0.000015    0.01    129.70   
  1316. A(C   4,O  39,S  35)          129.81 -0.000015   -0.00    129.80   
  1317. A(N   1,O  39,S  35)          130.17 -0.000016    0.01    130.18   
  1318. A(N   0,O  39,S  35)          130.78 -0.000016    0.01    130.79   
  1319. A(C   7,O  39,S  35)          129.33 -0.000015    0.01    129.34   
  1320. A(C   3,O  39,S  35)          130.41 -0.000015    0.00    130.41   
  1321. A(C   5,O  39,S  35)          131.02 -0.000016    0.01    131.03   
  1322. A(C   8,O  39,S  35)          128.71 -0.000014   -0.01    128.70   
  1323. A(C   9,O  39,S  35)          130.13 -0.000015    0.01    130.14   
  1324. D(C   3,C   2,N   0,C   6)     71.02 -0.000005   -0.05     70.97   
  1325. D(C   3,C   2,N   0,C   5)   -105.29 -0.000008   -0.03   -105.33   
  1326. D(H  10,C   2,N   0,C   5)     16.67 -0.000007   -0.04     16.63   
  1327. D(C   4,C   3,C   2,H  10)    -57.72 -0.000003   -0.02    -57.75   
  1328. D(H  12,C   3,C   2,N   0)    -62.54 -0.000002   -0.02    -62.56   
  1329. D(C   4,C   3,C   2,N   0)     61.63 -0.000004   -0.03     61.60   
  1330. D(C   8,C   4,C   3,C   2)    177.04 -0.000000    0.01    177.05   
  1331. D(C   8,C   4,C   3,H  12)    -59.14 -0.000002    0.00    -59.13   
  1332. D(H  14,C   4,C   3,C   2)    -61.30  0.000001    0.01    -61.29   
  1333. D(H  16,C   5,N   1,C   7)    179.81 -0.000007   -0.02    179.79   
  1334. D(N   1,C   5,N   0,C   6)      0.26  0.000000   -0.01      0.25   
  1335. D(H  16,C   5,N   0,C   2)     -2.85  0.000008   -0.00     -2.86   
  1336. D(N   1,C   5,N   0,C   2)    177.11  0.000003   -0.02    177.08   
  1337. D(N   0,C   5,N   1,C   9)    179.41 -0.000002   -0.00    179.40   
  1338. D(N   0,C   5,N   1,C   7)     -0.15 -0.000002    0.00     -0.15   
  1339. D(C   7,C   6,N   0,C   5)     -0.27  0.000001    0.01     -0.26   
  1340. D(H  17,C   6,N   0,C   2)      3.22 -0.000007    0.02      3.23   
  1341. D(C   7,C   6,N   0,C   2)   -177.12 -0.000002    0.02   -177.10   
  1342. D(N   1,C   7,C   6,N   0)      0.18 -0.000002   -0.01      0.17   
  1343. D(H  18,C   7,C   6,N   0)   -179.36  0.000006    0.00   -179.36   
  1344. D(C   6,C   7,N   1,C   5)     -0.02  0.000002    0.00     -0.02   
  1345. D(H  18,C   7,N   1,C   5)    179.56 -0.000005   -0.01    179.56   
  1346. D(N   1,C   7,C   6,H  17)    179.80  0.000004    0.00    179.80   
  1347. D(C   6,C   7,N   1,C   9)   -179.58  0.000002    0.01   -179.57   
  1348. D(H  19,C   8,C   4,H  14)    -62.11  0.000011    0.00    -62.11   
  1349. D(H  20,C   8,C   4,C   3)    -60.09  0.000008    0.00    -60.09   
  1350. D(H  19,C   8,C   4,C   3)     59.98  0.000003    0.00     59.98   
  1351. D(H  22,C   9,N   1,C   7)   -179.16 -0.000001    0.00   -179.16   
  1352. D(H  23,C   9,N   1,C   5)    121.03  0.000004    0.01    121.04   
  1353. D(H  22,C   9,N   1,C   5)      1.36 -0.000001    0.01      1.37   
  1354. D(S  30,O  25,N   0,C   2)      8.41 -0.000007    0.13      8.55   
  1355. D(S  30,O  25,C   7,N   1)     30.46 -0.000000    0.11     30.56   
  1356. D(S  30,O  25,C   7,C   6)    -21.12 -0.000003    0.08    -21.04   
  1357. D(S  30,O  25,C   8,C   4)    -65.87 -0.000003    0.19    -65.68   
  1358. D(S  30,O  25,C   5,N   0)   -128.06  0.000001    0.10   -127.95   
  1359. D(S  30,O  25,C   9,H  22)     27.35 -0.000002    0.11     27.46   
  1360. D(S  30,O  25,C   6,N   0)     22.51 -0.000001    0.11     22.62   
  1361. D(S  30,O  25,N   1,C   7)   -149.50 -0.000000    0.11   -149.39   
  1362. D(S  30,O  25,C   3,C   2)    -63.47  0.000001    0.17    -63.30   
  1363. D(S  30,O  25,C   8,H  19)   -169.12 -0.000002    0.18   -168.93   
  1364. D(S  30,O  25,C   4,C   3)    -89.49 -0.000002    0.18    -89.31   
  1365. D(S  30,O  25,N   0,C   5)     51.90  0.000001    0.10     52.00   
  1366. D(S  30,O  25,C   3,C   4)     90.36 -0.000002    0.18     90.54   
  1367. D(S  30,O  25,C   5,N   1)   -166.78 -0.000001    0.10   -166.68   
  1368. D(S  30,O  25,C   2,C   3)    116.41  0.000002    0.17    116.58   
  1369. D(S  30,O  25,C   4,C   8)    114.02 -0.000003    0.19    114.20   
  1370. D(S  30,O  25,C   2,N   0)   -171.57 -0.000007    0.13   -171.44   
  1371. D(S  30,O  25,C   9,N   1)    -92.07  0.000005    0.09    -91.98   
  1372. D(S  30,O  25,N   1,C   5)     13.20 -0.000001    0.10     13.30   
  1373. D(S  30,O  25,C   6,C   7)    158.87 -0.000003    0.08    158.95   
  1374. D(C  31,F  26,C   6,N   0)     32.94 -0.000002    0.14     33.08   
  1375. D(C  31,F  26,C   4,C   8)    126.55 -0.000005    0.21    126.76   
  1376. D(C  31,F  26,C   4,C   3)    -75.50 -0.000005    0.21    -75.29   
  1377. D(C  31,F  26,C   5,N   0)   -120.15 -0.000005    0.15   -120.00   
  1378. D(C  31,F  26,C   3,C   2)    -52.27 -0.000001    0.19    -52.08   
  1379. D(C  31,F  26,C   5,N   1)   -153.08 -0.000001    0.13   -152.95   
  1380. D(C  31,F  26,C   2,C   3)    126.59 -0.000001    0.20    126.79   
  1381. D(C  31,F  26,C   3,C   4)    103.03 -0.000004    0.21    103.24   
  1382. D(C  31,F  26,N   1,C   7)   -139.85 -0.000004    0.14   -139.71   
  1383. D(C  31,F  26,C   2,N   0)   -155.90 -0.000005    0.16   -155.74   
  1384. D(C  31,F  26,N   0,C   2)     23.71 -0.000004    0.16     23.87   
  1385. D(C  31,F  26,N   1,C   5)     26.43 -0.000001    0.13     26.56   
  1386. D(C  31,F  26,N   0,C   5)     59.37 -0.000005    0.15     59.52   
  1387. D(C  31,F  26,C   8,C   4)    -52.35 -0.000005    0.20    -52.15   
  1388. D(C  31,F  26,C   8,H  19)   -155.44 -0.000005    0.21   -155.23   
  1389. D(C  31,F  26,C   7,C   6)     -1.31  0.000001    0.11     -1.20   
  1390. D(C  31,F  26,C   7,N   1)     39.38 -0.000003    0.14     39.52   
  1391. D(C  31,F  26,C   9,N   1)    -79.32  0.000000    0.15    -79.17   
  1392. D(C  31,F  26,C   9,H  22)     37.98 -0.000004    0.14     38.12   
  1393. D(C  31,F  26,C   6,C   7)    178.68  0.000001    0.11    178.79   
  1394. D(S  35,O  27,C   6,C   7)   -164.94 -0.000003    0.11   -164.83   
  1395. D(S  35,O  27,C   7,N   1)     65.05 -0.000002    0.14     65.19   
  1396. D(S  35,O  27,C   6,N   0)     57.43 -0.000002    0.14     57.57   
  1397. D(S  35,O  27,C   9,H  22)     61.61 -0.000002    0.14     61.75   
  1398. D(S  35,O  27,C   5,N   0)    -94.78 -0.000002    0.14    -94.64   
  1399. D(S  35,O  27,C   7,C   6)     15.09 -0.000003    0.11     15.20   
  1400. D(S  35,O  27,C   8,C   4)    -32.97 -0.000002    0.22    -32.75   
  1401. D(S  35,O  27,C   8,H  19)   -136.35 -0.000001    0.22   -136.13   
  1402. D(S  35,O  27,C   9,N   1)    -58.56  0.000001    0.13    -58.43   
  1403. D(S  35,O  27,C   4,C   3)    -56.14 -0.000002    0.21    -55.93   
  1404. D(S  35,O  27,C   2,C   3)    150.56  0.000001    0.20    150.75   
  1405. D(S  35,O  27,C   2,N   0)   -136.45 -0.000006    0.16   -136.29   
  1406. D(S  35,O  27,N   1,C   7)   -115.31 -0.000002    0.14   -115.17   
  1407. D(S  35,O  27,C   3,C   2)    -29.64  0.000002    0.20    -29.44   
  1408. D(S  35,O  27,N   1,C   5)     48.18 -0.000001    0.13     48.31   
  1409. D(S  35,O  27,C   3,C   4)    124.26 -0.000003    0.21    124.47   
  1410. D(S  35,O  27,N   0,C   5)     85.39 -0.000002    0.14     85.53   
  1411. D(S  35,O  27,C   4,C   8)    147.28 -0.000002    0.22    147.50   
  1412. D(S  35,O  27,C   5,N   1)   -132.06 -0.000001    0.13   -131.93   
  1413. D(S  35,O  27,N   0,C   2)     43.73 -0.000006    0.16     43.89   
  1414. D(C  33,F  28,C   8,H  19)   -114.46 -0.000001    0.14   -114.31   
  1415. D(C  33,F  28,C   7,C   6)     28.20 -0.000003    0.06     28.26   
  1416. D(C  33,F  28,C   6,N   0)     72.21  0.000001    0.08     72.30   
  1417. D(C  33,F  28,C   7,N   1)     79.06  0.000000    0.08     79.14   
  1418. D(C  33,F  28,C   5,N   1)   -113.21  0.000001    0.08   -113.13   
  1419. D(C  33,F  28,C   9,H  22)     78.69 -0.000001    0.08     78.78   
  1420. D(C  33,F  28,C   3,C   4)    142.93 -0.000002    0.15    143.08   
  1421. D(C  33,F  28,C   9,N   1)    -47.62 -0.000001    0.06    -47.56   
  1422. D(C  33,F  28,N   1,C   7)    -98.95  0.000000    0.08    -98.87   
  1423. D(C  33,F  28,C   2,N   0)   -117.18 -0.000005    0.12   -117.06   
  1424. D(C  33,F  28,N   0,C   5)    100.29 -0.000000    0.08    100.36   
  1425. D(C  33,F  28,N   0,C   2)     61.58 -0.000005    0.11     61.69   
  1426. D(C  33,F  28,N   1,C   5)     65.25  0.000001    0.08     65.33   
  1427. D(C  33,F  28,C   5,N   0)    -78.74 -0.000000    0.08    -78.67   
  1428. D(C  33,F  28,C   4,C   8)    169.70 -0.000000    0.15    169.85   
  1429. D(C  33,F  28,C   8,C   4)     -9.95 -0.000000    0.14     -9.81   
  1430. D(C  33,F  28,C   4,C   3)    -35.67 -0.000002    0.15    -35.52   
  1431. D(C  33,F  28,C   2,C   3)    170.47  0.000004    0.14    170.61   
  1432. D(C  33,F  28,C   3,C   2)     -9.18  0.000004    0.14     -9.04   
  1433. D(C  33,F  28,C   6,C   7)   -151.51 -0.000003    0.06   -151.45   
  1434. D(C  31,F  29,N   1,C   7)    160.50 -0.000003    0.14    160.64   
  1435. D(C  31,F  29,C   6,C   7)    122.89  0.000003    0.12    123.01   
  1436. D(C  31,F  29,C   4,C   3)   -139.09 -0.000001    0.21   -138.88   
  1437. D(C  31,F  29,C   4,C   8)     63.10 -0.000002    0.20     63.29   
  1438. D(C  31,F  29,C   5,N   0)    178.88 -0.000005    0.15    179.03   
  1439. D(C  31,F  29,C   3,C   4)     42.01 -0.000002    0.21     42.22   
  1440. D(C  31,F  29,C   5,N   1)    148.77 -0.000000    0.13    148.90   
  1441. D(C  31,F  29,C   3,C   2)   -113.19  0.000000    0.19   -113.00   
  1442. D(C  31,F  29,C   6,N   0)    -25.42 -0.000001    0.15    -25.28   
  1443. D(C  31,F  29,C   2,C   3)     68.30 -0.000001    0.19     68.49   
  1444. D(C  31,F  29,C   7,N   1)    -20.02 -0.000003    0.15    -19.87   
  1445. D(C  31,F  29,C   7,C   6)    -57.54  0.000004    0.12    -57.42   
  1446. D(C   8,F  29,C   6,N   0)    -54.42  0.000006   -0.05    -54.47   
  1447. D(C  31,F  29,N   1,C   5)    -31.91 -0.000000    0.13    -31.77   
  1448. D(C  31,F  29,C   2,N   0)    147.24 -0.000004    0.16    147.40   
  1449. D(C  31,F  29,N   0,C   5)     -1.14 -0.000005    0.16     -0.98   
  1450. D(C  31,F  29,N   0,C   2)    -33.34 -0.000004    0.16    -33.18   
  1451. D(C  31,F  29,C   9,H  22)    -21.77 -0.000003    0.14    -21.63   
  1452. D(C  31,F  29,C   9,N   1)   -141.10  0.000004    0.17   -140.93   
  1453. D(C   6,F  29,C   8,C   4)     35.42  0.000003    0.02     35.44   
  1454. D(C  31,F  29,C   8,H  19)    138.32 -0.000000    0.20    138.52   
  1455. D(C  31,F  29,C   8,C   4)   -118.25 -0.000001    0.19   -118.06   
  1456. D(C   8,F  29,C   7,N   1)    -44.05  0.000006   -0.04    -44.09   
  1457. D(O  34,S  30,O  25,C   8)    -99.74 -0.000001    0.02    -99.72   
  1458. D(C  33,S  30,O  25,C   3)    143.28 -0.000006    0.01    143.29   
  1459. D(C  33,S  30,O  25,C   8)    145.96 -0.000007    0.01    145.97   
  1460. D(C  33,S  30,C   9,N   1)    -34.84 -0.000005    0.05    -34.79   
  1461. D(O  25,S  30,C   9,H  22)   -152.80 -0.000002    0.11   -152.69   
  1462. D(O  25,S  30,C   9,N   1)     81.69 -0.000001    0.09     81.78   
  1463. D(C  33,S  30,C   8,C   4)     -3.71 -0.000004    0.16     -3.54   
  1464. D(O  25,S  30,C   4,C   3)     89.79 -0.000003    0.18     89.97   
  1465. D(O  25,S  30,C   7,C   6)    157.00 -0.000005    0.09    157.09   
  1466. D(C  33,S  30,C   5,N   0)    -67.90 -0.000004    0.07    -67.83   
  1467. D(O  25,S  30,C   6,N   0)   -157.43 -0.000001    0.11   -157.32   
  1468. D(O  25,S  30,C   6,C   7)    -23.01 -0.000005    0.09    -22.92   
  1469. D(O  25,S  30,C   5,N   1)     13.50 -0.000001    0.10     13.61   
  1470. D(C  33,S  30,C   6,N   0)     87.40 -0.000006    0.08     87.48   
  1471. D(O  25,S  30,C   5,N   0)     49.53 -0.000001    0.10     49.63   
  1472. D(O  25,S  30,C   7,N   1)   -149.93 -0.000001    0.11   -149.82   
  1473. D(C  33,S  30,C   4,C   3)    -28.93 -0.000006    0.15    -28.78   
  1474. D(O  25,S  30,C   8,C   4)    115.20 -0.000002    0.18    115.38   
  1475. D(O  25,S  30,C   8,H  19)     10.79 -0.000002    0.18     10.97   
  1476. D(C  33,S  30,C   7,N   1)     95.18 -0.000006    0.08     95.25   
  1477. D(C  33,S  30,C   3,C   2)     -0.20 -0.000001    0.14     -0.06   
  1478. D(O  25,S  30,C   3,C   4)    -90.32 -0.000003    0.18    -90.14   
  1479. D(O  25,S  30,C   3,C   2)    117.57  0.000003    0.17    117.73   
  1480. D(O  25,S  30,C   4,C   8)    -64.88 -0.000002    0.19    -64.70   
  1481. D(C  33,S  30,C   2,N   0)   -108.90 -0.000010    0.11   -108.80   
  1482. D(O  25,S  30,C   2,N   0)      8.77 -0.000007    0.14      8.91   
  1483. D(O  25,S  30,N   1,C   5)   -166.51 -0.000001    0.10   -166.41   
  1484. D(O  25,S  30,N   1,C   7)     30.10 -0.000001    0.11     30.21   
  1485. D(C  33,S  30,N   0,C   2)     71.97 -0.000011    0.11     72.08   
  1486. D(O  25,S  30,C   2,C   3)    -62.53  0.000003    0.17    -62.36   
  1487. D(O  25,S  30,N   0,C   5)   -130.50 -0.000001    0.10   -130.40   
  1488. D(O  25,S  30,N   0,C   2)   -171.24 -0.000007    0.14   -171.10   
  1489. D(C  33,S  30,N   1,C   5)     77.18 -0.000005    0.07     77.25   
  1490. D(S  35,C  31,F  29,C   8)    -13.68  0.000003    0.02    -13.66   
  1491. D(F  26,C  31,F  29,C   3)   -139.41 -0.000007    0.00   -139.41   
  1492. D(F  26,C  31,F  29,C   8)   -136.06 -0.000009    0.01   -136.05   
  1493. D(S  35,C  31,F  26,C   8)    -80.41 -0.000016   -0.00    -80.41   
  1494. D(F  29,C  31,C   9,N   1)     35.63  0.000000    0.16     35.78   
  1495. D(F  26,C  31,C   9,H  22)   -142.17 -0.000004    0.14   -142.03   
  1496. D(F  26,C  31,C   9,N   1)     95.15 -0.000001    0.15     95.31   
  1497. D(F  29,C  31,F  26,C   3)     36.93  0.000010    0.00     36.93   
  1498. D(F  29,C  31,C   8,C   4)     62.36 -0.000000    0.20     62.56   
  1499. D(F  26,C  31,C   8,H  19)     24.41 -0.000005    0.21     24.62   
  1500. D(F  29,C  31,F  26,C   8)     40.53  0.000008   -0.00     40.53   
  1501. D(F  29,C  31,C   7,N   1)    160.16 -0.000003    0.15    160.30   
  1502. D(F  26,C  31,C   7,N   1)   -140.98 -0.000003    0.14   -140.85   
  1503. D(F  26,C  31,C   5,N   1)     27.28 -0.000001    0.13     27.41   
  1504. D(F  26,C  31,C   6,N   0)   -147.02 -0.000002    0.14   -146.89   
  1505. D(F  29,C  31,C   5,N   0)     -1.08 -0.000005    0.15     -0.93   
  1506. D(F  29,C  31,C   6,N   0)    154.55 -0.000001    0.15    154.70   
  1507. D(F  26,C  31,C   5,N   0)     57.82 -0.000005    0.15     57.97   
  1508. D(F  29,C  31,C   4,C   3)     40.54 -0.000001    0.21     40.75   
  1509. D(F  26,C  31,C   4,C   8)    -52.85 -0.000005    0.21    -52.65   
  1510. D(F  26,C  31,C   7,C   6)    178.61  0.000001    0.11    178.72   
  1511. D(F  26,C  31,C   6,C   7)     -1.40  0.000001    0.11     -1.28   
  1512. D(F  26,C  31,C   4,C   3)    103.95 -0.000005    0.21    104.17   
  1513. D(F  26,C  31,C   8,C   4)    128.22 -0.000005    0.20    128.42   
  1514. D(F  29,C  31,C   3,C   2)     67.44  0.000001    0.19     67.62   
  1515. D(F  26,C  31,C   3,C   4)    -77.49 -0.000004    0.21    -77.28   
  1516. D(F  26,C  31,C   3,C   2)    128.28 -0.000001    0.19    128.48   
  1517. D(F  26,C  31,N   0,C   2)   -155.68 -0.000005    0.16   -155.52   
  1518. D(F  29,C  31,N   1,C   5)    147.69 -0.000000    0.13    147.83   
  1519. D(F  26,C  31,N   1,C   5)   -153.21 -0.000001    0.13   -153.08   
  1520. D(F  29,C  31,N   0,C   2)    145.88 -0.000004    0.16    146.04   
  1521. D(F  26,C  31,N   1,C   7)     39.78 -0.000004    0.14     39.91   
  1522. D(F  26,C  31,N   0,C   5)   -122.65 -0.000005    0.15   -122.50   
  1523. D(F  26,C  31,C   2,C   3)    -52.83 -0.000001    0.19    -52.64   
  1524. D(F  29,C  31,C   2,N   0)    -33.53 -0.000005    0.16    -33.37   
  1525. D(F  26,C  31,C   2,N   0)     24.70 -0.000005    0.17     24.86   
  1526. D(C  33,F  32,C   9,H  22)    -40.61 -0.000004    0.08    -40.53   
  1527. D(C  33,F  32,C   9,N   1)   -167.59 -0.000004    0.07   -167.52   
  1528. D(C  33,F  32,C   8,H  19)    122.49 -0.000004    0.15    122.64   
  1529. D(C  33,F  32,C   7,C   6)    -82.29 -0.000005    0.06    -82.23   
  1530. D(C  33,F  32,C   7,N   1)    -38.40 -0.000003    0.08    -38.32   
  1531. D(C  33,F  32,C   6,C   7)     97.74 -0.000005    0.06     97.80   
  1532. D(C  33,F  32,C   6,N   0)    -44.58 -0.000002    0.08    -44.49   
  1533. D(C  33,F  32,C   5,N   1)    128.13 -0.000002    0.07    128.21   
  1534. D(C  33,F  32,C   4,C   8)     46.91 -0.000003    0.15     47.06   
  1535. D(C  33,F  32,C   2,N   0)    125.23 -0.000007    0.11    125.34   
  1536. D(C  33,F  32,C   3,C   2)   -130.57  0.000000    0.13   -130.44   
  1537. D(C  33,F  32,C   2,C   3)     49.46  0.000000    0.13     49.59   
  1538. D(C  33,F  32,C   3,C   4)     22.26 -0.000004    0.15     22.41   
  1539. D(C  33,F  32,N   1,C   7)    141.64 -0.000003    0.08    141.72   
  1540. D(C  33,F  32,C   4,C   3)   -157.75 -0.000004    0.15   -157.60   
  1541. D(C  33,F  32,C   8,C   4)   -133.08 -0.000003    0.15   -132.93   
  1542. D(C  33,F  32,C   5,N   0)    158.75 -0.000004    0.08    158.83   
  1543. D(C  33,F  32,N   1,C   5)    -51.90 -0.000002    0.07    -51.82   
  1544. D(C  33,F  32,N   0,C   5)    -21.26 -0.000004    0.08    -21.18   
  1545. D(C  33,F  32,N   0,C   2)    -54.80 -0.000007    0.11    -54.69   
  1546. D(S  30,C  33,F  28,C   3)     -6.00  0.000002    0.00     -6.00   
  1547. D(S  30,C  33,F  28,C   8)     -3.96  0.000002   -0.01     -3.97   
  1548. D(S  30,C  33,C   9,N   1)    141.93 -0.000007    0.06    141.99   
  1549. D(F  28,C  33,C   9,N   1)    130.07 -0.000001    0.06    130.14   
  1550. D(S  30,C  33,C   8,C   4)    176.35 -0.000004    0.16    176.51   
  1551. D(F  28,C  33,C   8,H  19)     65.34 -0.000001    0.14     65.48   
  1552. D(S  30,C  33,C   7,N   1)    -85.44 -0.000006    0.08    -85.37   
  1553. D(F  28,C  33,C   7,C   6)   -150.59 -0.000003    0.06   -150.53   
  1554. D(F  28,C  33,C   7,N   1)   -101.27  0.000000    0.08   -101.19   
  1555. D(S  30,C  33,C   6,N   0)    -92.46 -0.000005    0.08    -92.39   
  1556. D(F  28,C  33,C   6,C   7)     29.69 -0.000003    0.06     29.76   
  1557. D(F  28,C  33,C   6,N   0)   -107.72  0.000001    0.08   -107.63   
  1558. D(S  30,C  33,C   5,N   0)    109.66 -0.000005    0.07    109.73   
  1559. D(F  28,C  33,C   5,N   1)     67.32  0.000001    0.08     67.40   
  1560. D(F  28,C  33,C   5,N   0)     99.87  0.000000    0.08     99.95   
  1561. D(S  30,C  33,C   4,C   3)    150.78 -0.000006    0.15    150.93   
  1562. D(F  28,C  33,C   4,C   8)    -10.20 -0.000000    0.15    -10.05   
  1563. D(F  28,C  33,C   4,C   3)    144.12 -0.000002    0.15    144.27   
  1564. D(S  30,C  33,C   3,C   2)    179.80 -0.000001    0.14    179.94   
  1565. D(F  28,C  33,C   3,C   4)    -37.27 -0.000002    0.15    -37.12   
  1566. D(F  28,C  33,C   3,C   2)    170.90  0.000004    0.14    171.04   
  1567. D(S  30,C  33,C   2,N   0)     73.03 -0.000010    0.11     73.14   
  1568. D(F  28,C  33,C   2,C   3)     -9.45  0.000004    0.14     -9.31   
  1569. D(F  28,C  33,C   8,C   4)    170.14 -0.000000    0.14    170.29   
  1570. D(F  28,C  33,C   2,N   0)     63.77 -0.000005    0.12     63.89   
  1571. D(S  30,C  33,N   1,C   5)   -101.76 -0.000005    0.07   -101.69   
  1572. D(F  28,C  33,N   1,C   7)     80.70  0.000000    0.08     80.78   
  1573. D(F  28,C  33,C   9,H  22)   -101.44 -0.000001    0.08   -101.36   
  1574. D(F  28,C  33,N   1,C   5)   -114.21  0.000001    0.08   -114.13   
  1575. D(S  30,C  33,N   0,C   2)   -106.08 -0.000010    0.11   -105.97   
  1576. D(F  28,C  33,N   0,C   5)    -81.09  0.000000    0.08    -81.02   
  1577. D(F  32,C  33,F  28,C   8)    117.67  0.000003   -0.01    117.66   
  1578. D(F  28,C  33,N   0,C   2)   -117.46 -0.000005    0.12   -117.34   
  1579. D(S  30,C  33,F  32,C   8)    -30.40 -0.000006    0.01    -30.39   
  1580. D(F  28,C  33,F  32,C   3)   -152.10 -0.000007    0.00   -152.10   
  1581. D(F  28,C  33,F  32,C   8)   -150.60 -0.000007    0.01   -150.59   
  1582. D(F  32,C  33,S  30,O  25)    -58.47  0.000006   -0.03    -58.50   
  1583. D(F  28,C  33,S  30,O  34)    -64.14 -0.000001   -0.04    -64.18   
  1584. D(F  28,C  33,S  30,O  25)     60.76  0.000007   -0.03     60.73   
  1585. D(C   3,O  34,S  30,O  25)     99.80 -0.000007   -0.01     99.79   
  1586. D(C   8,O  34,S  30,O  25)     97.97 -0.000006   -0.01     97.96   
  1587. D(S  30,O  34,C   9,H  22)    147.43  0.000001    0.11    147.54   
  1588. D(S  30,O  34,C   9,N   1)     19.70  0.000002    0.08     19.78   
  1589. D(S  30,O  34,C   8,C   4)     55.80  0.000001    0.19     55.99   
  1590. D(S  30,O  34,C   7,C   6)     91.92 -0.000000    0.09     92.00   
  1591. D(S  30,O  34,C   7,N   1)    150.45  0.000001    0.11    150.56   
  1592. D(S  30,O  34,C   6,C   7)    -88.00 -0.000000    0.09    -87.91   
  1593. D(S  30,O  34,C   6,N   0)    142.57  0.000002    0.11    142.69   
  1594. D(S  30,O  34,C   5,N   1)    -47.19  0.000002    0.11    -47.08   
  1595. D(S  30,O  34,C   5,N   0)     -9.74  0.000001    0.10     -9.64   
  1596. D(S  30,O  34,C   4,C   8)   -124.04  0.000001    0.19   -123.85   
  1597. D(S  30,O  34,C   4,C   3)     29.30  0.000000    0.18     29.48   
  1598. D(S  30,O  34,C   3,C   4)   -150.58 -0.000000    0.18   -150.40   
  1599. D(S  30,O  34,C   3,C   2)     58.61  0.000005    0.17     58.78   
  1600. D(S  30,O  34,C   2,C   3)   -121.18  0.000005    0.17   -121.01   
  1601. D(S  30,O  34,C   8,H  19)    -49.23  0.000001    0.18    -49.05   
  1602. D(S  30,O  34,C   2,N   0)    -52.76 -0.000004    0.14    -52.62   
  1603. D(S  30,O  34,N   1,C   7)    -29.42  0.000001    0.11    -29.31   
  1604. D(S  30,O  34,N   1,C   5)    132.66  0.000002    0.11    132.77   
  1605. D(C   8,O  34,S  30,C  33)   -147.13  0.000008    0.00   -147.12   
  1606. D(S  30,O  34,N   0,C   5)    170.24  0.000001    0.10    170.34   
  1607. D(S  30,O  34,N   0,C   2)    127.11 -0.000004    0.14    127.26   
  1608. D(N  36,S  35,C  31,F  26)    -65.07  0.000011   -0.01    -65.08   
  1609. D(O  27,S  35,C  31,F  26)     56.70  0.000005    0.00     56.70   
  1610. D(N  36,S  35,O  27,C   8)   -139.76  0.000006    0.01   -139.75   
  1611. D(C  31,S  35,O  27,C   3)    104.10 -0.000005    0.00    104.11   
  1612. D(C  31,S  35,C   9,N   1)     15.77  0.000006    0.14     15.90   
  1613. D(O  27,S  35,C   9,H  22)   -118.68 -0.000003    0.14   -118.53   
  1614. D(O  27,S  35,C   9,N   1)    115.47 -0.000004    0.13    115.60   
  1615. D(O  27,S  35,C   8,H  19)     43.31 -0.000002    0.22     43.53   
  1616. D(O  27,S  35,C   8,C   4)    147.64 -0.000001    0.21    147.86   
  1617. D(C  31,S  35,C   7,N   1)    144.35  0.000007    0.14    144.49   
  1618. D(O  27,S  35,C   7,C   6)   -163.51 -0.000003    0.12   -163.39   
  1619. D(O  27,S  35,C   7,N   1)   -115.65 -0.000002    0.14   -115.51   
  1620. D(C  31,S  35,C   6,N   0)    137.48  0.000008    0.15    137.63   
  1621. D(O  27,S  35,C   6,C   7)     16.45 -0.000003    0.12     16.57   
  1622. D(O  27,S  35,C   6,N   0)   -122.45 -0.000002    0.14   -122.31   
  1623. D(C  31,S  35,C   5,N   0)    -17.82  0.000006    0.14    -17.68   
  1624. D(O  27,S  35,C   5,N   1)     48.85 -0.000001    0.14     48.99   
  1625. D(O  27,S  35,C   5,N   0)     81.98 -0.000003    0.14     82.12   
  1626. D(C  31,S  35,C   4,C   3)     24.46  0.000006    0.22     24.68   
  1627. D(O  27,S  35,C   4,C   8)    -32.09 -0.000001    0.21    -31.88   
  1628. D(O  27,S  35,C   4,C   3)    123.22 -0.000003    0.21    123.43   
  1629. D(C  31,S  35,C   3,C   2)     51.51  0.000011    0.20     51.71   
  1630. D(O  27,S  35,C   3,C   4)    -56.34 -0.000003    0.21    -56.13   
  1631. D(O  27,S  35,C   3,C   2)    150.91  0.000002    0.20    151.11   
  1632. D(C  31,S  35,C   2,N   0)    -54.78  0.000004    0.17    -54.61   
  1633. D(C  31,S  35,C   8,C   4)     49.53  0.000007    0.22     49.75   
  1634. D(O  27,S  35,C   2,C   3)    -28.87  0.000002    0.20    -28.68   
  1635. D(O  27,S  35,C   2,N   0)     45.17 -0.000005    0.17     45.34   
  1636. D(C  31,S  35,N   1,C   5)    129.30  0.000008    0.14    129.44   
  1637. D(C  31,S  35,O  27,C   8)    106.26 -0.000006   -0.00    106.25   
  1638. D(O  27,S  35,N   1,C   7)     63.96 -0.000002    0.14     64.10   
  1639. D(O  27,S  35,N   1,C   5)   -130.88 -0.000001    0.14   -130.75   
  1640. D(C  31,S  35,N   0,C   2)    125.43  0.000004    0.17    125.60   
  1641. D(O  27,S  35,C  31,F  29)    -63.14 -0.000002    0.00    -63.14   
  1642. D(O  27,S  35,N   0,C   5)    -97.83 -0.000003    0.14    -97.69   
  1643. D(O  27,S  35,N   0,C   2)   -134.64 -0.000005    0.17   -134.47   
  1644. D(C   8,N  36,S  35,O  27)     89.74 -0.000003   -0.02     89.72   
  1645. D(S  30,N  36,S  35,C  31)     84.84  0.000009   -0.02     84.82   
  1646. D(S  30,N  36,S  35,O  27)    -28.88  0.000014   -0.02    -28.91   
  1647. D(C   8,N  36,S  30,O  25)    -64.10 -0.000009   -0.01    -64.12   
  1648. D(S  35,N  36,S  30,C  33)   -127.24 -0.000003   -0.03   -127.27   
  1649. D(S  35,N  36,C   9,N   1)     41.28 -0.000012    0.13     41.41   
  1650. D(S  30,N  36,C   9,H  22)   -101.79  0.000009    0.14   -101.65   
  1651. D(S  30,N  36,C   9,N   1)    129.38  0.000007    0.12    129.51   
  1652. D(S  30,N  36,C   8,H  19)     64.01  0.000006    0.20     64.22   
  1653. D(S  30,N  36,C   8,C   4)    168.91  0.000007    0.20    169.11   
  1654. D(S  35,N  36,C   7,N   1)    172.74 -0.000010    0.15    172.89   
  1655. D(S  30,N  36,C   7,N   1)   -100.90  0.000011    0.14   -100.77   
  1656. D(S  35,N  36,C   6,N   0)    166.37 -0.000010    0.15    166.53   
  1657. D(S  30,N  36,C   6,C   7)     28.57  0.000009    0.12     28.69   
  1658. D(S  30,N  36,C   6,N   0)   -107.55  0.000011    0.14   -107.41   
  1659. D(S  35,N  36,C   5,N   0)     11.35 -0.000011    0.14     11.49   
  1660. D(S  30,N  36,C   5,N   1)     66.37  0.000010    0.14     66.51   
  1661. D(S  30,N  36,C   5,N   0)     99.38  0.000008    0.13     99.52   
  1662. D(S  35,N  36,C   4,C   3)     50.41 -0.000009    0.21     50.62   
  1663. D(S  30,N  36,C   4,C   8)    -11.37  0.000007    0.21    -11.16   
  1664. D(S  30,N  36,C   4,C   3)    142.79  0.000005    0.20    143.00   
  1665. D(S  30,N  36,C   7,C   6)   -151.63  0.000009    0.12   -151.51   
  1666. D(S  35,N  36,C   3,C   2)     80.42 -0.000005    0.20     80.62   
  1667. D(S  30,N  36,C   3,C   4)    -38.23  0.000007    0.21    -38.02   
  1668. D(S  30,N  36,C   3,C   2)    170.12  0.000012    0.19    170.31   
  1669. D(S  35,N  36,C   8,C   4)     74.44 -0.000006    0.21     74.65   
  1670. D(S  35,N  36,C   2,N   0)    -25.00 -0.000014    0.17    -24.83   
  1671. D(S  30,N  36,C   2,C   3)    -10.15  0.000013    0.20     -9.95   
  1672. D(S  30,N  36,C   2,N   0)     62.50  0.000005    0.17     62.68   
  1673. D(S  35,N  36,S  30,O  25)    -16.07 -0.000006   -0.02    -16.09   
  1674. D(S  35,N  36,N   1,C   5)    157.77 -0.000009    0.14    157.91   
  1675. D(S  30,N  36,N   1,C   7)     80.50  0.000010    0.14     80.64   
  1676. D(S  30,N  36,N   1,C   5)   -114.71  0.000011    0.14   -114.57   
  1677. D(S  35,N  36,N   0,C   2)    154.47 -0.000014    0.18    154.65   
  1678. D(S  30,N  36,N   0,C   5)    -81.31  0.000008    0.13    -81.17   
  1679. D(S  30,N  36,N   0,C   2)   -118.36  0.000005    0.17   -118.19   
  1680. D(C   8,F  37,C  31,F  29)    -45.34 -0.000012    0.01    -45.33   
  1681. D(C   8,F  37,C  31,F  26)   -161.60  0.000002    0.01   -161.59   
  1682. D(C  31,F  37,C   9,H  22)   -112.83 -0.000001    0.14   -112.69   
  1683. D(C  31,F  37,C   8,H  19)     48.58 -0.000000    0.22     48.80   
  1684. D(C  31,F  37,C   8,C   4)    153.12 -0.000000    0.21    153.33   
  1685. D(C  31,F  37,C   7,C   6)   -147.70  0.000004    0.13   -147.57   
  1686. D(C  31,F  37,C   7,N   1)   -110.46 -0.000001    0.14   -110.32   
  1687. D(C  31,F  37,C   6,C   7)     32.22  0.000004    0.13     32.34   
  1688. D(C  31,F  37,C   6,N   0)   -115.81  0.000000    0.14   -115.67   
  1689. D(C  31,F  37,C   5,N   1)     57.28  0.000002    0.13     57.41   
  1690. D(C  31,F  37,C   5,N   0)     83.82 -0.000003    0.15     83.96   
  1691. D(C  31,F  37,C   4,C   8)    -26.58 -0.000000    0.21    -26.37   
  1692. D(C  31,F  37,C   4,C   3)    129.23 -0.000001    0.22    129.45   
  1693. D(C  31,F  37,C   3,C   4)    -50.26 -0.000001    0.22    -50.04   
  1694. D(C  31,F  37,C   3,C   2)    156.44  0.000003    0.19    156.63   
  1695. D(C  31,F  37,C   2,C   3)    -23.32  0.000002    0.19    -23.14   
  1696. D(C  31,F  37,C   2,N   0)     55.48 -0.000001    0.17     55.65   
  1697. D(C  31,F  37,C   9,N   1)    118.29 -0.000002    0.17    118.46   
  1698. D(C  31,F  37,N   1,C   7)     69.03 -0.000001    0.14     69.17   
  1699. D(C  31,F  37,N   1,C   5)   -122.34  0.000002    0.13   -122.21   
  1700. D(C  31,F  37,N   0,C   5)    -95.95 -0.000003    0.15    -95.81   
  1701. D(C   3,F  37,C  31,F  26)   -159.65  0.000001    0.00   -159.65   
  1702. D(C  31,F  37,N   0,C   2)   -124.22 -0.000001    0.17   -124.05   
  1703. D(C   3,F  38,C  33,F  28)    155.87  0.000005   -0.01    155.86   
  1704. D(C   8,F  38,C  33,S  30)     32.92  0.000004   -0.00     32.92   
  1705. D(C   8,F  38,C  33,F  28)    153.30  0.000007   -0.00    153.30   
  1706. D(C  33,F  38,C   9,N   1)     77.19 -0.000005    0.06     77.25   
  1707. D(C  33,F  38,C   8,H  19)     14.69  0.000001    0.15     14.84   
  1708. D(C  33,F  38,C   8,C   4)    120.46  0.000003    0.15    120.61   
  1709. D(C  33,F  38,C   7,N   1)   -146.13  0.000001    0.08   -146.05   
  1710. D(C  33,F  38,C   6,C   7)    -16.51 -0.000004    0.06    -16.44   
  1711. D(C  33,F  38,C   6,N   0)   -152.41  0.000002    0.08   -152.33   
  1712. D(C  33,F  38,C   5,N   1)     19.67  0.000002    0.08     19.74   
  1713. D(C  33,F  38,C   5,N   0)     49.67 -0.000000    0.07     49.74   
  1714. D(C  33,F  38,C   4,C   8)    -59.46  0.000003    0.15    -59.31   
  1715. D(C  33,F  38,C   4,C   3)     93.29 -0.000000    0.15     93.43   
  1716. D(C  33,F  38,C   3,C   4)    -86.62 -0.000000    0.15    -86.47   
  1717. D(C  33,F  38,C   7,C   6)    163.49 -0.000004    0.06    163.55   
  1718. D(C  33,F  38,C   3,C   2)    123.03  0.000006    0.13    123.17   
  1719. D(C  33,F  38,C   2,C   3)    -56.90  0.000006    0.13    -56.77   
  1720. D(C  33,F  38,C   2,N   0)     16.08 -0.000003    0.11     16.20   
  1721. D(C  33,F  38,C   9,H  22)   -148.47  0.000001    0.08   -148.39   
  1722. D(C  33,F  38,N   1,C   7)     33.81  0.000001    0.08     33.89   
  1723. D(C  33,F  38,N   1,C   5)   -160.31  0.000002    0.08   -160.23   
  1724. D(C  33,F  38,N   0,C   5)   -130.30 -0.000000    0.07   -130.23   
  1725. D(C  33,F  38,N   0,C   2)   -163.90 -0.000003    0.11   -163.79   
  1726. D(C   8,O  39,S  35,C  31)   -105.28  0.000013   -0.00   -105.28   
  1727. D(C   8,O  39,S  35,O  27)      8.99  0.000008   -0.01      8.98   
  1728. D(S  35,O  39,C   9,H  22)   -131.42 -0.000004    0.16   -131.26   
  1729. D(C   6,O  39,C   8,C   4)     36.59  0.000004    0.02     36.61   
  1730. D(S  35,O  39,C   8,H  19)     34.72 -0.000007    0.22     34.95   
  1731. D(S  35,O  39,C   8,C   4)    139.84 -0.000006    0.22    140.06   
  1732. D(S  35,O  39,C   7,C   6)   -177.47 -0.000003    0.15   -177.33   
  1733. D(S  35,O  39,C   7,N   1)   -130.27 -0.000003    0.15   -130.12   
  1734. D(C   8,O  39,C   6,N   0)    -55.71  0.000005   -0.05    -55.76   
  1735. D(S  35,O  39,C   6,C   7)      2.54 -0.000003    0.15      2.69   
  1736. D(S  35,O  39,C   6,N   0)   -136.47 -0.000002    0.16   -136.31   
  1737. D(S  35,O  39,C   5,N   1)     37.37 -0.000002    0.16     37.53   
  1738. D(S  35,O  39,C   5,N   0)     67.55 -0.000006    0.15     67.70   
  1739. D(S  35,O  39,C   4,C   8)    -40.92 -0.000005    0.22    -40.70   
  1740. D(S  35,O  39,C   4,C   3)    113.21 -0.000008    0.23    113.44   
  1741. D(S  35,O  39,C   3,C   4)    -68.01 -0.000006    0.23    -67.78   
  1742. D(S  35,O  39,C   3,C   2)    140.35 -0.000000    0.21    140.56   
  1743. D(S  35,O  39,C   2,C   3)    -40.45  0.000001    0.21    -40.24   
  1744. D(S  35,O  39,C   2,N   0)     34.05 -0.000006    0.19     34.24   
  1745. D(S  35,O  39,C   9,N   1)     97.35 -0.000010    0.15     97.50   
  1746. D(S  35,O  39,N   1,C   7)     50.56 -0.000004    0.15     50.72   
  1747. D(S  35,O  39,N   1,C   5)   -143.18 -0.000002    0.15   -143.03   
  1748. D(S  35,O  39,N   0,C   5)   -112.95 -0.000006    0.15   -112.80   
  1749. D(C   3,O  39,S  35,O  27)     12.10  0.000006   -0.02     12.08   
  1750. D(S  35,O  39,N   0,C   2)   -146.37 -0.000006    0.19   -146.18   
    ----------------------------------------------------------------------------

Geometry step timings:
Preparation and reading OPT file:      0.004 s ( 0.234 %)
Internal coordinates            :      0.000 s ( 0.007 %)
B/P matrices and projection     :      0.497 s (27.532 %)
Hessian update/contruction      :      0.052 s ( 2.899 %)
Making the step                 :      1.228 s (68.094 %)
Converting the step to Cartesian:      0.011 s ( 0.585 %)
Storing new data                :      0.000 s ( 0.003 %)
Checking convergence            :      0.002 s ( 0.104 %)
Final printing                  :      0.010 s ( 0.542 %)
Total time                      :      1.804 s

Time for energy+gradient        :     29.033 s
Time for complete geometry iter :     31.910 s

         *************************************************************
         *                GEOMETRY OPTIMIZATION CYCLE   4            *
         *************************************************************
---------------------------------
CARTESIAN COORDINATES (ANGSTROEM)
---------------------------------
  N    -33.953410  -22.374561   -8.060489
  N    -35.728232  -23.588616   -7.779231
  C    -32.677933  -21.868962   -8.603517
  C    -31.481394  -22.309740   -7.767051
  C    -31.288681  -23.823288   -7.698455
  C    -34.675812  -23.370009   -8.568865
  C    -34.560234  -21.943642   -6.902229
  C    -35.673120  -22.701637   -6.726422
  C    -30.040215  -24.215570   -6.912004
  C    -36.771476  -24.592226   -7.997528
  H    -32.603186  -22.242008   -9.624930
  H    -32.756905  -20.783118   -8.648882
  H    -31.566179  -21.893567   -6.758459
  H    -30.599508  -21.842207   -8.213254
  H    -32.165395  -24.289228   -7.235105
  H    -31.222922  -24.224911   -8.715820
  H    -34.447023  -23.911220   -9.470268
  H    -34.158651  -21.141148   -6.309899
  H    -36.423249  -22.680749   -5.956014
  H    -30.091171  -23.851799   -5.883512
  H    -29.140574  -23.799110   -7.368989
  H    -29.924305  -25.298986   -6.876231
  H    -36.539833  -25.153039   -8.899037
  H    -36.805279  -25.270888   -7.147463
  H    -37.733700  -24.097484   -8.115510
  O     12.683483    5.398103    2.112257
  F     10.216442    7.220991    1.931180
  O      9.892714    4.293791    1.365353
  F     14.797448    7.117881    0.872140
  F      8.234373    6.806705    1.154275
  S     12.881402    5.312087    0.688865
  C      9.543822    6.838931    0.841359
  F     12.830187    7.979247    0.564143
  C     13.629272    6.958433    0.224013
  O     13.832508    4.360876    0.175744
  S     10.089693    5.157191    0.231145
  N     11.585244    5.366921   -0.217074
  F      9.713635    7.777681   -0.103224
  F     13.876442    7.044644   -1.090179
  O      9.280293    4.966937   -0.943418

----------------------------
CARTESIAN COORDINATES (A.U.)
----------------------------
  NO LB      ZA    FRAG     MASS         X           Y           Z
   0 N     7.0000    0    14.007  -64.162647  -42.281792  -15.232117
   1 N     7.0000    0    14.007  -67.516573  -44.576023  -14.700616
   2 C     6.0000    0    12.011  -61.752344  -41.326348  -16.258291
   3 C     6.0000    0    12.011  -59.491214  -42.159298  -14.677599
   4 C     6.0000    0    12.011  -59.127039  -45.019490  -14.547972
   5 C     6.0000    0    12.011  -65.527788  -44.162917  -16.192809
   6 C     6.0000    0    12.011  -65.309378  -41.467473  -13.043322
   7 C     6.0000    0    12.011  -67.412427  -42.899877  -12.711096
   8 C     6.0000    0    12.011  -56.767779  -45.760795  -13.061795
   9 C     6.0000    0    12.011  -69.488019  -46.472572  -15.113137
  10 H     1.0000    0     1.008  -61.611093  -42.031303  -18.188481
  11 H     1.0000    0     1.008  -61.901580  -39.274402  -16.344019
  12 H     1.0000    0     1.008  -59.651433  -41.372846  -12.771636
  13 H     1.0000    0     1.008  -57.824690  -41.275789  -15.520801
  14 H     1.0000    0     1.008  -60.783787  -45.899989  -13.672368
  15 H     1.0000    0     1.008  -59.002771  -45.778447  -16.470513
  16 H     1.0000    0     1.008  -65.095439  -45.185658  -17.896213
  17 H     1.0000    0     1.008  -64.550495  -39.950980  -11.923982
  18 H     1.0000    0     1.008  -68.829966  -42.860405  -11.255236
  19 H     1.0000    0     1.008  -56.864072  -45.073368  -11.118226
  20 H     1.0000    0     1.008  -55.067704  -44.973800  -13.925372
  21 H     1.0000    0     1.008  -56.548741  -47.808155  -12.994193
  22 H     1.0000    0     1.008  -69.050278  -47.532355  -16.816742
  23 H     1.0000    0     1.008  -69.551897  -47.755057  -13.506748
  24 H     1.0000    0     1.008  -71.306358  -45.537644  -15.336091
  25 O     8.0000    0    15.999   23.968310   10.200937    3.991588
  26 F     9.0000    0    18.998   19.306277   13.645696    3.649401
  27 O     8.0000    0    15.999   18.694520    8.114090    2.580143
  28 F     9.0000    0    18.998   27.963124   13.450845    1.648106
  29 F     9.0000    0    18.998   15.560710   12.862808    2.181264
  30 S    16.0000    0    32.060   24.342321   10.038390    1.301766
  31 C     6.0000    0    12.011   18.035209   12.923707    1.589938
  32 F     9.0000    0    18.998   24.245540   15.078592    1.066076
  33 C     6.0000    0    12.011   25.755591   13.149533    0.423324
  34 O     8.0000    0    15.999   26.139653    8.240861    0.332109
  35 S    16.0000    0    32.060   19.066756    9.745678    0.436800
  36 N     7.0000    0    14.007   21.892938   10.142012   -0.410211
  37 F     9.0000    0    18.998   18.356111   14.697687   -0.195065
  38 F     9.0000    0    18.998   26.222675   13.312448   -2.060139
  39 O     8.0000    0    15.999   17.537213    9.386150   -1.782802

--------------------------------
INTERNAL COORDINATES (ANGSTROEM)
--------------------------------
 N      0   0   0     0.000000000000     0.00000000     0.00000000
 N      1   0   0     2.168646061144     0.00000000     0.00000000
 C      1   2   0     1.475585448551   161.25572778     0.00000000
 C      3   1   2     1.525012935410   112.16772238   259.96127226
 C      4   3   1     1.527308750397   114.20882531    61.59917929
 C      1   2   3     1.330875002737    35.56897777     7.38124454
 C      1   2   6     1.376769402811    72.86604076   180.25220476
 C      7   1   2     1.357932040233   107.18320730   359.89181797
 C      5   4   3     1.526780506243   112.39138917   177.04989130
 C      2   1   3     1.463982879973   161.37623096   351.10437655
 H      3   1   2     1.089969978471   106.67050700    21.91460806
 H      3   1   2     1.089655963946   107.10473943   137.22131227
 H      4   3   1     1.094370046657   109.56067591   297.44211378
 H      4   3   1     1.093347159932   106.58391132   183.14784356
 H      5   4   3     1.095636640724   109.84429105   298.71325225
 H      5   4   3     1.095744627905   109.21411960    55.22748307
 H      6   1   2     1.076002248797   125.50691435   180.06100746
 H      7   1   2     1.075229903629   122.17031898   180.21965292
 H      8   7   1     1.075481093882   130.80740082   180.64161439
 H      9   5   4     1.092118564199   111.18374901    59.97939323
 H      9   5   4     1.091617082458   111.11524823   299.91188910
 H      9   5   4     1.090185781345   111.04990433   179.96185915
 H     10   2   1     1.086686721848   109.00119075     2.45537809
 H     10   2   1     1.088271512957   109.46130904   122.12393676
 H     10   2   1     1.088376702443   109.54521375   242.71266551
 O     21   9   5    51.880854519194   143.37713860   125.05369150
 F     26  21   9     3.072784363082    71.08602077   285.46969353
 O     27  26  21     2.998909613648    61.23201147   355.61826581
 F     26  21   9     2.994055694494   144.76091101   202.10192322
 F     27  26  21     2.168827051621   129.90550930   345.24461163
 S     26  21   9     1.439658578403    84.06022402   188.07506591
 C     27  26  21     1.336449777885   106.41165044   313.44771354
 F     29  26  21     2.169545339597    69.30634794    63.01969180
 C     33  29  26     1.340255376862    36.19641673   290.84511307
 O     31  26  21     1.439687261921   118.86065498   260.38071905
 S     28  27  26     1.438988412886    63.14600585   264.48977993
 N     36  28  27     1.575297095512   115.72842293    91.23628572
 F     32  27  26     1.342506649098   108.07091227   252.96959584
 F     34  33  29     1.340009647706   108.05100015   243.83707140
 O     36  28  27     1.439069830130   119.14415560   223.65685897

---------------------------
INTERNAL COORDINATES (A.U.)
---------------------------
 N      0   0   0     0.000000000000     0.00000000     0.00000000
 N      1   0   0     4.098147136970     0.00000000     0.00000000
 C      1   2   0     2.788452384962   161.25572778     0.00000000
 C      3   1   2     2.881856798613   112.16772238   259.96127226
 C      4   3   1     2.886195260192   114.20882531    61.59917929
 C      1   2   3     2.514989273654    35.56897777     7.38124454
 C      1   2   6     2.601717120874    72.86604076   180.25220476
 C      7   1   2     2.566119664517   107.18320730   359.89181797
 C      5   4   3     2.885197023410   112.39138917   177.04989130
 C      2   1   3     2.766526707899   161.37623096   351.10437655
 H      3   1   2     2.059744753506   106.67050700    21.91460806
 H      3   1   2     2.059151352052   107.10473943   137.22131227
 H      4   3   1     2.068059677348   109.56067591   297.44211378
 H      4   3   1     2.066126701572   106.58391132   183.14784356
 H      5   4   3     2.070453193258   109.84429105   298.71325225
 H      5   4   3     2.070657259456   109.21411960    55.22748307
 H      6   1   2     2.033349569710   125.50691435   180.06100746
 H      7   1   2     2.031890048861   122.17031898   180.21965292
 H      8   7   1     2.032364729647   130.80740082   180.64161439
 H      9   5   4     2.063804992108   111.18374901    59.97939323
 H      9   5   4     2.062857328956   111.11524823   299.91188910
 H      9   5   4     2.060152561836   111.04990433   179.96185915
 H     10   2   1     2.053540297661   109.00119075     2.45537809
 H     10   2   1     2.056535118837   109.46130904   122.12393676
 H     10   2   1     2.056733898158   109.54521375   242.71266551
 O     21   9   5    98.040606635088   143.37713860   125.05369150
 F     26  21   9     5.806720914820    71.08602077   285.46969353
 O     27  26  21     5.667117870179    61.23201147   355.61826581
 F     26  21   9     5.657945292301   144.76091101   202.10192322
 F     27  26  21     4.098489159403   129.90550930   345.24461163
 S     26  21   9     2.720560439532    84.06022402   188.07506591
 C     27  26  21     2.525524071943   106.41165044   313.44771354
 F     29  26  21     4.099846526963    69.30634794    63.01969180
 C     33  29  26     2.532715611784    36.19641673   290.84511307
 O     31  26  21     2.720614643525   118.86065498   260.38071905
 S     28  27  26     2.719294010240    63.14600585   264.48977993
 N     36  28  27     2.976880090080   115.72842293    91.23628572
 F     32  27  26     2.536969899764   108.07091227   252.96959584
 F     34  33  29     2.532251250977   108.05100015   243.83707140
 O     36  28  27     2.719447866535   119.14415560   223.65685897



           ************************************************************
           *        Program running with 30 parallel MPI-processes    *
           *              working on a common directory               *
           ************************************************************
------------------------------------------------------------------------------
                   ___                                                        
                  /   \      - P O W E R E D   B Y -                         
                 /     \                                                     
                 |  |  |   _    _      __       _____    __    __             
                 |  |  |  | |  | |    /  \     |  _  \  |  |  /  |          
                  \  \/   | |  | |   /    \    | | | |  |  | /  /          
                 / \  \   | |__| |  /  /\  \   | |_| |  |  |/  /          
                |  |  |   |  __  | /  /__\  \  |    /   |      \           
                |  |  |   | |  | | |   __   |  |    \   |  |\   \          
                \     /   | |  | | |  |  |  |  | |\  \  |  | \   \       
                 \___/    |_|  |_| |__|  |__|  |_| \__\ |__|  \__/        
                                                                              
                      - O R C A' S   B I G   F R I E N D -                    
                                      &                                       
                       - I N T E G R A L  F E E D E R -                       
                                                                              
 v1 FN, 2020, v2 2021, v3 2022-2024                                           
------------------------------------------------------------------------------


----------------------
SHARK INTEGRAL PACKAGE
----------------------

Number of atoms                             ...     40
Number of basis functions                   ...    877
Number of shells                            ...    339
Maximum angular momentum                    ...      3
Integral batch strategy                     ... SHARK/LIBINT Hybrid
RI-J (if used) integral strategy            ... SPLIT-RIJ (Revised 2003 algorithm where possible)
Printlevel                                  ...      1
Contraction scheme used                     ... SEGMENTED contraction
Prescreening option                         ... SCHWARTZ
   Thresh                                   ... 2.500e-11
   Tcut                                     ... 2.500e-12
   Tpresel                                  ... 2.500e-12 
Coulomb Range Separation                    ... NOT USED
Exchange Range Separation                   ... NOT USED
Multipole approximations                    ... NOT USED
Finite Nucleus Model                        ... NOT USED
CABS basis                                  ... NOT available
Auxiliary Coulomb fitting basis             ... AVAILABLE
   # of basis functions in Aux-J            ...   1394
   # of shells in Aux-J                     ...    454
   Maximum angular momentum in Aux-J        ...      4
Auxiliary J/K fitting basis                 ... NOT available
Auxiliary Correlation fitting basis         ... NOT available
Auxiliary 'external' fitting basis          ... NOT available

Checking pre-screening integrals            ... done (  0.0 sec) Dimension = 339
Check shell pair data                       ... done (  0.0 sec)
Shell pair information
Shell pair cut-off parameter TPreSel        ...   2.5e-12
Total number of shell pairs                 ...     57630
Shell pairs after pre-screening             ...     23190
Total number of primitive shell pairs       ...    183333
Primitive shell pairs kept                  ...     51010
          la=0 lb=0:   5702 shell pairs
          la=1 lb=0:   6569 shell pairs
          la=1 lb=1:   1992 shell pairs
          la=2 lb=0:   3211 shell pairs
          la=2 lb=1:   2009 shell pairs
          la=2 lb=2:    541 shell pairs
          la=3 lb=0:   1541 shell pairs
          la=3 lb=1:    983 shell pairs
          la=3 lb=2:    507 shell pairs
          la=3 lb=3:    135 shell pairs

Calculating one electron integrals          ... done (  0.1 sec)
Calculating RI/J V-Matrix + Cholesky decomp.... done (  0.1 sec)
Calculating Nuclear repulsion               ... done (  0.0 sec) ENN=   2254.718371092198 Eh

Diagonalization of the overlap matrix:
Smallest eigenvalue                        ... 8.157e-05
Time for diagonalization                   ...    0.100 sec
Threshold for overlap eigenvalues          ... 1.000e-07
Number of eigenvalues below threshold      ... 0
Time for construction of square roots      ...    0.053 sec
Total time needed                          ...    0.159 sec

-------------------
DFT GRID GENERATION
-------------------

General Integration Accuracy     IntAcc      ... 4.388
Radial Grid Type                 RadialGrid  ... OptM3 with GC (2021)
Angular Grid (max. ang.)         AngularGrid ... 4 (Lebedev-302)
Angular grid pruning method      GridPruning ... 4 (adaptive)
Weight generation scheme         WeightScheme... mBecke (2022)
Basis function cutoff            BFCut       ... 1.0000e-11
Integration weight cutoff        WCut        ... 1.0000e-14
Partially contracted basis set               ... off
Rotationally invariant grid construction     ... off
Angular grids for H and He will be reduced by one unit

Total number of grid points                  ...   201665
Total number of batches                      ...     3171
Average number of points per batch           ...       63
Average number of grid points per atom       ...     5042

--------------------
COSX GRID GENERATION
--------------------

GRIDX 1
-------
General Integration Accuracy     IntAcc      ... 3.816
Radial Grid Type                 RadialGrid  ... OptM3 with GC (2021)
Angular Grid (max. ang.)         AngularGrid ... 1 (Lebedev-50)
Angular grid pruning method      GridPruning ... 4 (adaptive)
Weight generation scheme         WeightScheme... mBecke (2022)
Basis function cutoff            BFCut       ... 1.0000e-11
Integration weight cutoff        WCut        ... 1.0000e-14
Partially contracted basis set               ... on
Rotationally invariant grid construction     ... off
Angular grids for H and He will be reduced by one unit

Total number of grid points                  ...    27643
Total number of batches                      ...      239
Average number of points per batch           ...      115
Average number of grid points per atom       ...      691
UseSFitting                                  ... on

GRIDX 2
-------
General Integration Accuracy     IntAcc      ... 4.020
Radial Grid Type                 RadialGrid  ... OptM3 with GC (2021)
Angular Grid (max. ang.)         AngularGrid ... 2 (Lebedev-110)
Angular grid pruning method      GridPruning ... 4 (adaptive)
Weight generation scheme         WeightScheme... mBecke (2022)
Basis function cutoff            BFCut       ... 1.0000e-11
Integration weight cutoff        WCut        ... 1.0000e-14
Partially contracted basis set               ... on
Rotationally invariant grid construction     ... off
Angular grids for H and He will be reduced by one unit

Total number of grid points                  ...    56711
Total number of batches                      ...      466
Average number of points per batch           ...      121
Average number of grid points per atom       ...     1418
UseSFitting                                  ... on

GRIDX 3
-------
General Integration Accuracy     IntAcc      ... 4.338
Radial Grid Type                 RadialGrid  ... OptM3 with GC (2021)
Angular Grid (max. ang.)         AngularGrid ... 3 (Lebedev-194)
Angular grid pruning method      GridPruning ... 4 (adaptive)
Weight generation scheme         WeightScheme... mBecke (2022)
Basis function cutoff            BFCut       ... 1.0000e-11
Integration weight cutoff        WCut        ... 1.0000e-14
Partially contracted basis set               ... on
Rotationally invariant grid construction     ... off
Angular grids for H and He will be reduced by one unit

Total number of grid points                  ...   125762
Total number of batches                      ...     1002
Average number of points per batch           ...      125
Average number of grid points per atom       ...     3144
UseSFitting                                  ... on
Initializing property integral containers    ... done (  0.0 sec)

SHARK setup successfully completed in   2.4 seconds

Maximum memory used throughout the entire STARTUP-calculation: 74.6 MB


           ************************************************************
           *        Program running with 30 parallel MPI-processes    *
           *              working on a common directory               *
           ************************************************************
Occupation numbers will be reassigned to an Aufbau configuration
             **** ENERGY FILE WAS UPDATED (complex.en.tmp) ****
Finished Guess after   1.4 sec
Maximum memory used throughout the entire GUESS-calculation: 66.9 MB


           ************************************************************
           *        Program running with 30 parallel MPI-processes    *
           *              working on a common directory               *
           ************************************************************
----------------------------------------D-I-I-S--------------------------------------------
Iteration    Energy (Eh)           Delta-E    RMSDP     MaxDP     DIISErr   Damp  Time(sec)
-------------------------------------------------------------------------------------------
               ***  Starting incremental Fock matrix formation  ***
                              *** Initializing SOSCF ***
---------------------------------------S-O-S-C-F--------------------------------------
Iteration    Energy (Eh)           Delta-E    RMSDP     MaxDP     MaxGrad    Time(sec)
--------------------------------------------------------------------------------------
    1    -2250.3914523533403553     0.00e+00  7.38e-06  4.68e-04  7.02e-05     2.3
               *** Restarting incremental Fock matrix formation ***
    2    -2250.3914717193501929    -1.94e-05  2.59e-06  1.62e-04  8.10e-05     1.9
    3    -2250.3914731602935717    -1.44e-06  1.41e-06  8.52e-05  2.90e-05     1.4
    4    -2250.3914730984579364     6.18e-08  6.60e-07  5.97e-05  4.83e-05     1.3
    5    -2250.3914732801413265    -1.82e-07  1.34e-07  1.16e-05  5.22e-06     1.2
    6    -2250.3914732835000905    -3.36e-09  7.31e-08  7.16e-06  6.12e-06     1.1
                 **** Energy Check signals convergence ****

               *****************************************************
               *                     SUCCESS                       *
               *           SCF CONVERGED AFTER   6 CYCLES          *
               *****************************************************

Recomputing exchange energy using gridx3       ... done (    2.263 sec)
Old exchange energy                            :    -44.134541004 Eh
New exchange energy                            :    -44.134536078 Eh
Exchange energy change after final integration :      0.000004926 Eh
Total energy after final integration           :  -2250.391468358 Eh
             **** ENERGY FILE WAS UPDATED (complex.en.tmp) ****

----------------
TOTAL SCF ENERGY
----------------

Total Energy       :      -2250.39146835768543 Eh          -61236.26505 eV

Components:
Nuclear Repulsion  :       2254.71837109219814 Eh           61354.00605 eV
Electronic Energy  :      -4505.10984437569823 Eh         -122590.27123 eV
One Electron Energy:      -7591.90114332408666 Eh         -206586.13275 eV
Two Electron Energy:       3086.79129894838843 Eh           83995.86151 eV

Virial components:
Potential Energy   :      -4494.02349860751292 Eh         -122288.59643 eV
Kinetic Energy     :       2243.63203024982749 Eh           61052.33138 eV
Virial Ratio       :          2.00301272134500

DFT components:
N(Alpha)           :      107.000058625369 electrons
N(Beta)            :      107.000058625369 electrons
N(Total)           :      214.000117250737 electrons
E(X)               :     -175.611586745024 Eh       
E(C)               :       -9.203007819833 Eh       
E(XC)              :     -184.814594564857 Eh       

---------------
SCF CONVERGENCE
---------------

  Last Energy change         ...    3.3588e-09  Tolerance :   1.0000e-08
  Last MAX-Density change    ...    7.1649e-06  Tolerance :   1.0000e-07
  Last RMS-Density change    ...    7.3075e-08  Tolerance :   5.0000e-09
  Last DIIS Error            ...    1.1294e-03  Tolerance :   5.0000e-07
  Last Orbital Gradient      ...    6.1194e-06  Tolerance :   1.0000e-05
  Last Orbital Rotation      ...    2.9079e-06  Tolerance :   1.0000e-05


Total SCF time: 0 days 0 hours 0 min 12 sec 
Finished LeanSCF after  12.7 sec

Maximum memory used throughout the entire LEANSCF-calculation: 98.2 MB


-------------------------------------------------------------------------------
                          DFT DISPERSION CORRECTION                            
                                                                               
                                DFTD4 V3.4.0                                   
-------------------------------------------------------------------------------
-------------------------   ----------------
Dispersion correction           -0.073110491
-------------------------   ----------------


-------------------------   --------------------
FINAL SINGLE POINT ENERGY     -2250.464578849037
-------------------------   --------------------



           ************************************************************
           *        Program running with 30 parallel MPI-processes    *
           *              working on a common directory               *
           ************************************************************
------------------------------------------------------------------------------
                         ORCA SCF GRADIENT CALCULATION
------------------------------------------------------------------------------

Nuc. rep. gradient        (SHARK) ... done (  0.0 sec)
HCore & Overlap gradient  (SHARK) ... done (  0.1 sec)
Split-RIJ-J gradient      (SHARK) ... done (  0.7 sec)
COSX-gradient                     ... done (  5.9 sec)
XC gradient                       ... done (  0.9 sec)
Dispersion correction             ... done (  0.0 sec)

-------------------
DISPERSION GRADIENT
-------------------

   1   N   :   -0.000253004    0.000339361   -0.000125704
   2   N   :   -0.000403930   -0.000133352    0.000020810
   3   C   :    0.000317003    0.000505425   -0.000426271
   4   C   :    0.000592328    0.000291014   -0.000058307
   5   C   :    0.000658633   -0.000399541    0.000051283
   6   C   :   -0.000457189   -0.000043791   -0.000218972
   7   C   :   -0.000425992    0.000380811    0.000339297
   8   C   :   -0.000349703    0.000142777    0.000329077
   9   C   :    0.000411719   -0.000307609    0.000203964
  10   C   :   -0.000537307   -0.000492153   -0.000099309
  11   H   :    0.000057192    0.000103214   -0.000177488
  12   H   :    0.000065145    0.000185432   -0.000097287
  13   H   :    0.000149047    0.000099400    0.000065649
  14   H   :    0.000123935    0.000098778   -0.000047786
  15   H   :    0.000227219   -0.000183962    0.000080730
  16   H   :    0.000179937   -0.000134485   -0.000043936
  17   H   :   -0.000077587   -0.000110714   -0.000228589
  18   H   :   -0.000079519    0.000181381    0.000180798
  19   H   :   -0.000103324    0.000052279    0.000164597
  20   H   :    0.000102207   -0.000081463    0.000078392
  21   H   :    0.000106171   -0.000073428    0.000039297
  22   H   :    0.000073084   -0.000072356    0.000041165
  23   H   :   -0.000115444   -0.000122325   -0.000042982
  24   H   :   -0.000114269   -0.000135929    0.000004607
  25   H   :   -0.000146160   -0.000088636   -0.000032997
  26   O   :    0.000491052   -0.000317312    0.000814442
  27   F   :   -0.000462238    0.000531317    0.000476065
  28   O   :   -0.000499493   -0.000703457    0.000297494
  29   F   :    0.000401471    0.000315425    0.000046811
  30   F   :   -0.000401896    0.000286527    0.000161497
  31   S   :    0.001386556   -0.000350601    0.000115502
  32   C   :   -0.000719639    0.000293526    0.000065257
  33   F   :    0.000444311    0.000671205   -0.000024264
  34   C   :    0.000626275    0.000276709   -0.000077773
  35   O   :    0.000525678   -0.000591569   -0.000093142
  36   S   :   -0.001307856   -0.000402068   -0.000210810
  37   N   :    0.000031102   -0.000552974   -0.000559282
  38   F   :   -0.000427691    0.000567441   -0.000118512
  39   F   :    0.000343286    0.000331231   -0.000350977
  40   O   :   -0.000431112   -0.000355526   -0.000542348

Difference to translation invariance:
           :    0.0000000000   -0.0000000000   -0.0000000000

Difference to rotation invariance:
           :   -0.0000000000   -0.0000000000    0.0000000000

Norm of the Dispersion gradient    ...    0.0039885001
RMS gradient                       ...    0.0003640986
MAX gradient                       ...    0.0013865562

------------------
CARTESIAN GRADIENT
------------------

   1   N   :    0.000015590   -0.000201814    0.000120179
   2   N   :   -0.000091028   -0.000038145    0.000094736
   3   C   :   -0.000060433    0.000076277   -0.000007390
   4   C   :   -0.000110755   -0.000056495   -0.000033869
   5   C   :    0.000070601    0.000045190    0.000035831
   6   C   :    0.000060051    0.000138185   -0.000040244
   7   C   :   -0.000003436    0.000030438   -0.000040863
   8   C   :    0.000034298   -0.000127474   -0.000083689
   9   C   :   -0.000002042    0.000056327   -0.000069343
  10   C   :    0.000097763    0.000077673   -0.000049618
  11   H   :   -0.000016326   -0.000022593   -0.000007594
  12   H   :    0.000049395   -0.000024511    0.000007337
  13   H   :   -0.000033209   -0.000011778    0.000005882
  14   H   :   -0.000022253   -0.000012024    0.000003644
  15   H   :   -0.000063172   -0.000023975    0.000021927
  16   H   :    0.000007838    0.000005203   -0.000017487
  17   H   :   -0.000005563   -0.000010709    0.000025791
  18   H   :    0.000008300    0.000006017    0.000000396
  19   H   :    0.000013540    0.000005664   -0.000022550
  20   H   :    0.000000113   -0.000019944   -0.000003961
  21   H   :   -0.000041698   -0.000009933    0.000021129
  22   H   :   -0.000013432    0.000020202    0.000009795
  23   H   :   -0.000008318    0.000021462    0.000012588
  24   H   :    0.000016499    0.000022216    0.000000884
  25   H   :    0.000018594    0.000005606    0.000001953
  26   O   :   -0.000168083   -0.000043990    0.000055683
  27   F   :   -0.000085685    0.000050014   -0.000063108
  28   O   :   -0.000054831   -0.000020135    0.000065326
  29   F   :   -0.000107381   -0.000008679   -0.000047240
  30   F   :   -0.000161644    0.000049138    0.000029517
  31   S   :    0.000429015   -0.000029370    0.000069585
  32   C   :    0.000200103   -0.000017697    0.000121967
  33   F   :   -0.000033464    0.000020738   -0.000026479
  34   C   :    0.000187920    0.000003043    0.000090332
  35   O   :    0.000034978    0.000076356    0.000014804
  36   S   :    0.000116042    0.000022185    0.000006475
  37   N   :   -0.000210329    0.000004145   -0.000024575
  38   F   :   -0.000004014    0.000014960   -0.000022427
  39   F   :    0.000031578    0.000016241   -0.000086280
  40   O   :   -0.000095120   -0.000088013   -0.000169044

Difference to translation invariance:
           :    0.0000000001    0.0000000003    0.0000000000

Difference to rotation invariance:
           :   -0.0000791924   -0.0007865219    0.0003074356

Norm of the Cartesian gradient     ...    0.0008448925
RMS gradient                       ...    0.0000771278
MAX gradient                       ...    0.0004290152

-------
TIMINGS
-------

Total SCF gradient time     ....        7.766 sec

Densities                   ....       0.023 sec  (  0.3%)
One electron gradient       ....       0.132 sec  (  1.7%)
RI-J Coulomb gradient       ....       0.737 sec  (  9.5%)
COSX gradient               ....       5.922 sec  ( 76.3%)
XC gradient                 ....       0.922 sec  ( 11.9%)

Maximum memory used throughout the entire SCFGRAD-calculation: 117.6 MB
------------------------------------------------------------------------------
                         ORCA GEOMETRY RELAXATION STEP
------------------------------------------------------------------------------

Reading the OPT-File                    .... done
Getting information on internals        .... done
Copying old internal coords+grads       .... done
Making the new internal coordinates     .... (2022 redundants) done
Validating the new internal coordinates .... (2022 redundants) done
Calculating the B-matrix                .... done
Calculating the G,G- and P matrices     .... done
Transforming gradient to internals      .... done
Projecting the internal gradient        .... done
Number of atoms                         ....  40
Number of internal coordinates          .... 1750
Current Energy                          .... -2250.464578849 Eh
Current gradient norm                   ....     0.000844893 Eh/bohr
Maximum allowed component of the step   ....  0.300
Current trust radius                    ....  0.675
Updating the Hessian (BFGS)             .... done
Forming the augmented Hessian           .... done
Diagonalizing the augmented Hessian     .... done
Last element of RFO vector              ....  0.876063318
Lowest eigenvalues of augmented Hessian:
 -0.000010850  0.000002012  0.000069907  0.001329159  0.001368434
Length of the computed step             ....  0.550412365
The final length of the internal step   ....  0.550412365
Converting the step to Cartesian space:
 Initial RMS(Int)=    0.0131573721
Transforming coordinates:
 Iter   0:  RMS(Cart)=    0.0203926812 RMS(Int)=    0.2122701501
done
Storing new coordinates                 .... done
The predicted energy change is          ....    -0.000007068
Previously predicted energy change      ....    -0.000002856
Actually observed energy change         ....    -0.000003552
Ratio of predicted to observed change   ....     1.243530705
New trust radius                        ....     0.700000000

                                .--------------------.
          ----------------------|Geometry convergence|-------------------------
          Item                value                   Tolerance       Converged
          ---------------------------------------------------------------------
          Energy change      -0.0000035520            0.0000010000      NO
          RMS gradient        0.0000082566            0.0000300000      YES
          MAX gradient        0.0000999216            0.0001000000      YES
          RMS step            0.0131573721            0.0006000000      NO
          MAX step            0.0357448330            0.0010000000      NO
          ........................................................
          Max(Bonds)      0.0189      Max(Angles)    0.15
          Max(Dihed)        1.40      Max(Improp)    0.00
          ---------------------------------------------------------------------

The optimization has not yet converged - more geometry cycles are needed


    ---------------------------------------------------------------------------
                         Redundant Internal Coordinates
                            (Angstroem and degrees)

        Definition                    Value    dE/dq     Step     New-Value
    ----------------------------------------------------------------------------
     1. B(C   2,N   0)                1.4756  0.000002  0.0004    1.4760   
     2. B(C   3,C   2)                1.5250 -0.000053  0.0005    1.5255   
     3. B(C   4,C   3)                1.5273 -0.000067  0.0003    1.5276   
     4. B(C   5,N   0)                1.3309 -0.000010  0.0001    1.3309   
     5. B(C   5,N   1)                1.3338  0.000001  0.0001    1.3339   
     6. B(C   6,N   0)                1.3768 -0.000041  0.0001    1.3769   
     7. B(C   7,N   1)                1.3777 -0.000040  0.0001    1.3779   
     8. B(C   7,C   6)                1.3579  0.000004  0.0001    1.3580   
     9. B(C   8,C   4)                1.5268 -0.000044  0.0002    1.5270   
    10. B(C   9,N   1)                1.4640 -0.000007  0.0004    1.4644   
    11. B(H  10,C   2)                1.0900  0.000006 -0.0001    1.0899   
    12. B(H  10,N   0)                2.0708  0.000000  0.0002    2.0710   
    13. B(H  11,C   2)                1.0897 -0.000026  0.0000    1.0897   
    14. B(H  11,N   0)                2.0762 -0.000001  0.0005    2.0767   
    15. B(H  12,C   3)                1.0944  0.000016  0.0000    1.0944   
    16. B(H  13,C   3)                1.0933  0.000008  0.0000    1.0934   
    17. B(H  14,C   4)                1.0956  0.000019 -0.0002    1.0955   
    18. B(H  15,C   4)                1.0957  0.000022 -0.0000    1.0957   
    19. B(H  16,C   5)                1.0760 -0.000006 -0.0001    1.0759   
    20. B(H  16,N   1)                2.1460 -0.000011  0.0000    2.1460   
    21. B(H  17,C   6)                1.0752  0.000008  0.0000    1.0752   
    22. B(H  17,N   0)                2.1513 -0.000025  0.0000    2.1513   
    23. B(H  18,N   1)                2.1521 -0.000036  0.0002    2.1523   
    24. B(H  18,C   7)                1.0755  0.000003  0.0001    1.0756   
    25. B(H  19,C   8)                1.0921 -0.000010  0.0001    1.0922   
    26. B(H  20,C   8)                1.0916 -0.000006  0.0001    1.0917   
    27. B(H  21,C   8)                1.0902 -0.000012  0.0001    1.0902   
    28. B(H  22,C   9)                1.0867 -0.000017  0.0000    1.0867   
    29. B(H  23,C   9)                1.0883 -0.000003  0.0000    1.0883   
    30. B(H  24,C   9)                1.0884  0.000001  0.0000    1.0884   
    31. B(O  25,N   1)               57.2867 -0.000004 -0.0111   57.2756   
    32. B(O  25,C   5)               56.4322 -0.000008 -0.0116   56.4206   
    33. B(O  25,C   7)               56.6222 -0.000000 -0.0106   56.6117   
    34. B(O  25,H  13)               52.1734  0.000001 -0.0129   52.1605   
    35. B(O  25,H  10)               54.3380 -0.000001 -0.0131   54.3249   
    36. B(O  25,C   9)               58.7147 -0.000010 -0.0108   58.7039   
    37. B(O  25,C   3)               53.0647  0.000007 -0.0126   53.0521   
    38. B(O  25,H  11)               53.5359 -0.000002 -0.0113   53.5246   
    39. B(O  25,H  23)               58.9531 -0.000009 -0.0104   58.9427   
    40. B(O  25,N   0)               55.2250  0.000000 -0.0113   55.2137   
    41. B(O  25,H  22)               58.9708 -0.000006 -0.0113   58.9595   
    42. B(O  25,H  20)               51.8809  0.000001 -0.0124   51.8684   
    43. B(O  25,H  15)               54.0605 -0.000002 -0.0123   54.0482   
    44. B(O  25,C   2)               53.9998 -0.000005 -0.0123   53.9875   
    45. B(O  25,C   6)               55.3245 -0.000004 -0.0106   55.3139   
    46. B(O  25,H  24)               59.3000 -0.000006 -0.0104   59.2896   
    47. B(O  25,H  18)               57.1401 -0.000005 -0.0101   57.1300   
    48. B(O  25,H  20)               51.8809  0.000001 -0.0124   51.8684   
    49. B(O  25,H  12)               52.7405 -0.000001 -0.0124   52.7281   
    50. B(O  25,C   4)               53.7000 -0.000012 -0.0119   53.6881   
    51. B(O  25,H  16)               56.6963 -0.000005 -0.0123   56.6840   
    52. B(O  25,H  19)               52.4324 -0.000004 -0.0113   52.4211   
    53. B(O  25,H  17)               54.4927 -0.000007 -0.0104   54.4823   
    54. B(O  25,H  14)               54.5906 -0.000000 -0.0117   54.5789   
    55. B(O  25,H  21)               53.2778 -0.000006 -0.0122   53.2656   
    56. B(O  25,C   8)               52.7610 -0.000003 -0.0119   52.7491   
    57. B(F  26,H  13)               51.1226 -0.000000 -0.0113   51.1113   
    58. B(F  26,H  19)               51.4907  0.000000 -0.0131   51.4776   
    59. B(F  26,C   2)               52.8879 -0.000006 -0.0106   52.8773   
    60. B(F  26,C   6)               54.1623 -0.000003 -0.0107   54.1516   
    61. B(F  26,N   0)               54.0990 -0.000000 -0.0104   54.0886   
    62. B(F  26,H  24)               58.1464 -0.000008 -0.0099   58.1364   
    63. B(F  26,C   8)               51.8368  0.000001 -0.0124   51.8244   
    64. B(F  26,N   1)               56.1644 -0.000003 -0.0108   56.1536   
    65. B(F  26,H  15)               53.0983 -0.000002 -0.0108   53.0875   
    66. B(F  26,H  12)               51.6619 -0.000001 -0.0128   51.6491   
    67. B(F  26,H  21)               52.4061 -0.000001 -0.0130   52.3931   
    68. B(F  26,H  14)               53.6016  0.000001 -0.0121   53.5895   
    69. B(F  26,H  10)               53.2460 -0.000001 -0.0104   53.2356   
    70. B(F  26,C   9)               57.6066 -0.000009 -0.0105   57.5961   
    71. B(F  26,H  16)               55.6240 -0.000003 -0.0105   55.6135   
    72. B(F  26,H  22)               57.8923 -0.000005 -0.0103   57.8820   
    73. B(F  26,C   7)               55.4632  0.000001 -0.0109   55.4523   
    74. B(F  26,H  18)               55.9605 -0.000005 -0.0111   55.9494   
    75. B(F  26,H  11)               52.3725 -0.000004 -0.0094   52.3631   
    76. B(F  26,H  20)               50.9678  0.000002 -0.0122   50.9556   
    77. B(F  26,C   5)               55.3297 -0.000008 -0.0105   55.3192   
    78. B(F  26,H  23)               57.8722 -0.000006 -0.0108   57.8613   
    79. B(F  26,C   4)               52.7177 -0.000011 -0.0115   52.7062   
    80. B(F  26,C   3)               52.0080  0.000008 -0.0118   51.9962   
    81. B(F  26,H  17)               53.3055 -0.000007 -0.0109   53.2946   
    82. B(O  27,C   8)               49.7588 -0.000000 -0.0131   49.7457   
    83. B(O  27,C   3)               50.0296  0.000008 -0.0135   50.0161   
    84. B(O  27,H  14)               51.5737  0.000002 -0.0129   51.5608   
    85. B(O  27,H  12)               49.7053  0.000000 -0.0136   49.6917   
    86. B(O  27,C   9)               55.6742 -0.000008 -0.0119   55.6622   
    87. B(O  27,H  17)               51.4429 -0.000005 -0.0116   51.4312   
    88. B(O  27,H  24)               56.2515 -0.000005 -0.0115   56.2400   
    89. B(O  27,H  19)               49.4311 -0.000001 -0.0127   49.4183   
    90. B(O  27,N   0)               52.1779  0.000001 -0.0123   52.1656   
    91. B(O  27,C   4)               50.6817 -0.000011 -0.0129   50.6687   
    92. B(O  27,H  10)               51.2917 -0.000002 -0.0137   51.2780   
    93. B(O  27,C   5)               53.3885 -0.000008 -0.0125   53.3759   
    94. B(O  27,H  18)               54.0962 -0.000003 -0.0114   54.0848   
    95. B(O  27,C   2)               50.9522 -0.000005 -0.0131   50.9391   
    96. B(O  27,C   7)               53.5768  0.000002 -0.0118   53.5650   
    97. B(O  27,C   6)               52.2764 -0.000002 -0.0118   52.2646   
    98. B(O  27,H  22)               55.9326 -0.000005 -0.0123   55.9203   
    99. B(O  27,H  16)               53.6558 -0.000005 -0.0131   53.6427   
   100. B(O  27,H  23)               55.9217 -0.000006 -0.0117   55.9101   
   101. B(O  27,H  15)               51.0435 -0.000002 -0.0131   51.0304   
   102. B(O  27,N   1)               54.2432 -0.000003 -0.0122   54.2310   
   103. B(O  27,H  20)               48.8784  0.000002 -0.0134   48.8649   
   104. B(O  27,H  21)               50.2897 -0.000004 -0.0134   50.2762   
   105. B(O  27,H  11)               50.4790 -0.000003 -0.0120   50.4669   
   106. B(O  27,H  13)               49.1372  0.000001 -0.0137   49.1234   
   107. B(F  28,H  18)               59.6502 -0.000002 -0.0126   59.6376   
   108. B(F  28,N   1)               59.7543 -0.000004 -0.0132   59.7411   
   109. B(F  28,H  22)               61.4199 -0.000007 -0.0131   61.4068   
   110. B(F  28,H  20)               54.3537 -0.000002 -0.0124   54.3413   
   111. B(F  28,H  14)               57.0758 -0.000000 -0.0125   57.0633   
   112. B(F  28,H  12)               55.2221 -0.000001 -0.0141   55.2079   
   113. B(F  28,C   9)               61.1846 -0.000009 -0.0128   61.1718   
   114. B(F  28,C   7)               59.1119  0.000001 -0.0129   59.0990   
   115. B(F  28,H  15)               56.4993 -0.000007 -0.0127   56.4866   
   116. B(F  28,C   6)               57.8031 -0.000003 -0.0130   57.7900   
   117. B(F  28,H  17)               56.9812 -0.000005 -0.0130   56.9682   
   118. B(F  28,H  16)               59.1167 -0.000007 -0.0140   59.1027   
   119. B(F  28,H  10)               56.7363 -0.000005 -0.0148   56.7216   
   120. B(F  28,C   3)               55.5189  0.000005 -0.0140   55.5050   
   121. B(F  28,C   5)               58.8748 -0.000010 -0.0135   58.8614   
   122. B(F  28,C   2)               56.4264 -0.000007 -0.0142   56.4122   
   123. B(F  28,H  13)               54.6087 -0.000003 -0.0142   54.5946   
   124. B(F  28,C   4)               56.1671 -0.000014 -0.0126   56.1545   
   125. B(F  28,H  24)               61.7632 -0.000006 -0.0127   61.7505   
   126. B(F  28,H  11)               55.9512 -0.000005 -0.0136   55.9375   
   127. B(F  28,H  21)               55.7757 -0.000006 -0.0118   55.7639   
   128. B(F  28,N   0)               57.6736 -0.000001 -0.0134   57.6602   
   129. B(F  28,C   8)               55.2521 -0.000004 -0.0120   55.2401   
   130. B(F  28,H  23)               61.4507 -0.000007 -0.0122   61.4384   
   131. B(F  28,H  19)               54.9522 -0.000003 -0.0117   54.9405   
   132. B(F  29,C   3)               50.0470  0.000006 -0.0112   50.0358   
   133. B(F  29,H  13)               49.1587 -0.000002 -0.0105   49.1482   
   134. B(F  29,H  19)               49.5815 -0.000005 -0.0127   49.5687   
   135. B(F  29,N   0)               52.1178 -0.000003 -0.0101   52.1078   
   136. B(F  29,C   8)               49.9238 -0.000003 -0.0116   49.9122   
   137. B(F  29,H  14)               51.6670 -0.000003 -0.0115   51.6555   
   138. B(F  29,N   1)               54.1885 -0.000007 -0.0105   54.1780   
   139. B(F  29,H  18)               53.9849 -0.000011 -0.0114   53.9735   
   140. B(F  29,H  16)               53.6486 -0.000004 -0.0097   53.6389   
   141. B(F  29,C   7)               53.4857 -0.000004 -0.0110   53.4746   
   142. B(F  29,H  17)               51.3222 -0.000012 -0.0111   51.3111   
   143. B(F  29,C   5)               53.3522 -0.000010 -0.0100   53.3422   
   144. B(F  29,H  10)               51.2613 -0.000001 -0.0094   51.2520   
   145. B(F  29,H  12)               49.7031 -0.000005 -0.0126   49.6905   
   146. B(F  29,H  15)               51.1591 -0.000004 -0.0096   51.1496   
   147. B(F  29,H  20)               49.0535 -0.000000 -0.0111   49.0424   
   148. B(F  29,C   4)               50.7803 -0.000013 -0.0107   50.7696   
   149. B(F  29,C   2)               50.9051 -0.000007 -0.0100   50.8951   
   150. B(F  29,H  24)               56.1610 -0.000012 -0.0098   56.1513   
   151. B(F  29,H  22)               55.9216 -0.000007 -0.0098   55.9118   
   152. B(F  29,H  23)               55.9148 -0.000010 -0.0107   55.9041   
   153. B(F  29,C   9)               55.6343 -0.000012 -0.0102   55.6241   
   154. B(F  29,H  21)               50.5109 -0.000004 -0.0120   50.4988   
   155. B(F  29,C   6)               52.1811 -0.000008 -0.0108   52.1703   
   156. B(F  29,H  11)               50.3744 -0.000006 -0.0089   50.3656   
   157. B(S  30,H  14)               54.4816  0.000015 -0.0123   54.4693   
   158. B(S  30,H  17)               54.4199  0.000010 -0.0125   54.4073   
   159. B(S  30,H  20)               51.7517  0.000014 -0.0123   51.7394   
   160. B(S  30,H  10)               54.1706  0.000012 -0.0148   54.1558   
   161. B(S  30,N   1)               57.1827  0.000012 -0.0129   57.1697   
   162. B(S  30,H  15)               53.9080  0.000010 -0.0127   53.8953   
   163. B(S  30,O  25)                1.4397  0.000081 -0.0002    1.4395   
   164. B(S  30,C   2)               53.8592  0.000009 -0.0140   53.8452   
   165. B(S  30,H  21)               53.1658  0.000008 -0.0117   53.1541   
   166. B(S  30,H  24)               59.1974  0.000010 -0.0124   59.1850   
   167. B(S  30,H  22)               58.8431  0.000009 -0.0129   58.8302   
   168. B(S  30,C   9)               58.6100  0.000006 -0.0125   58.5974   
   169. B(S  30,H  23)               58.8684  0.000008 -0.0119   58.8565   
   170. B(S  30,H  16)               56.5437  0.000009 -0.0139   56.5298   
   171. B(S  30,H  18)               57.0850  0.000012 -0.0121   57.0729   
   172. B(S  30,C   3)               52.9389  0.000022 -0.0138   52.9251   
   173. B(S  30,C   7)               56.5446  0.000016 -0.0125   56.5321   
   174. B(S  30,C   5)               56.3033  0.000006 -0.0133   56.2900   
   175. B(S  30,C   8)               52.6490  0.000012 -0.0118   52.6372   
   176. B(S  30,H  12)               52.6422  0.000015 -0.0138   52.6284   
   177. B(S  30,H  19)               52.3485  0.000011 -0.0113   52.3372   
   178. B(S  30,C   6)               55.2377  0.000012 -0.0126   55.2251   
   179. B(S  30,N   0)               55.1054  0.000015 -0.0131   55.0922   
   180. B(S  30,C   4)               53.5744  0.000002 -0.0124   53.5620   
   181. B(S  30,H  11)               53.3948  0.000012 -0.0135   53.3814   
   182. B(S  30,H  13)               52.0307  0.000014 -0.0141   52.0166   
   183. B(C  31,H  16)               54.6543  0.000010 -0.0103   54.6440   
   184. B(C  31,H  20)               50.0258  0.000013 -0.0107   50.0151   
   185. B(C  31,C   7)               54.5389  0.000013 -0.0112   54.5276   
   186. B(C  31,C   4)               51.7725  0.000001 -0.0106   51.7619   
   187. B(C  31,C   5)               54.3738  0.000005 -0.0105   54.3633   
   188. B(C  31,F  29)                1.3467  0.000051 -0.0001    1.3466   
   189. B(C  31,F  26)                1.3364 -0.000030  0.0000    1.3365   
   190. B(C  31,H  21)               51.4795  0.000010 -0.0113   51.4683   
   191. B(C  31,H  11)               51.4042  0.000009 -0.0097   51.3945   
   192. B(C  31,C   2)               51.9233  0.000007 -0.0106   51.9126   
   193. B(C  31,C   6)               53.2313  0.000009 -0.0111   53.2202   
   194. B(C  31,H  24)               57.2053  0.000005 -0.0102   57.1951   
   195. B(C  31,N   0)               53.1477  0.000013 -0.0105   53.1372   
   196. B(C  31,C   8)               50.9057  0.000011 -0.0111   50.8946   
   197. B(C  31,H  22)               56.9391  0.000008 -0.0102   56.9290   
   198. B(C  31,H  12)               50.7282  0.000011 -0.0126   50.7156   
   199. B(C  31,C   9)               56.6670  0.000004 -0.0105   56.6565   
   200. B(C  31,H  14)               52.6674  0.000012 -0.0112   52.6561   
   201. B(C  31,H  19)               50.5774  0.000010 -0.0119   50.5655   
   202. B(C  31,H  17)               52.3825  0.000005 -0.0113   52.3712   
   203. B(C  31,H  23)               56.9482  0.000006 -0.0107   56.9375   
   204. B(C  31,H  10)               52.2648  0.000013 -0.0102   52.2546   
   205. B(C  31,N   1)               55.2242  0.000009 -0.0109   55.2133   
   206. B(C  31,H  15)               52.1366  0.000010 -0.0097   52.1270   
   207. B(C  31,H  18)               55.0508  0.000007 -0.0115   55.0392   
   208. B(C  31,H  13)               50.1605  0.000013 -0.0109   50.1496   
   209. B(C  31,C   3)               51.0570  0.000020 -0.0114   51.0456   
   210. B(F  32,H  21)               54.6877 -0.000006 -0.0119   54.6759   
   211. B(F  32,H  11)               54.6840  0.000002 -0.0131   54.6709   
   212. B(F  32,C   3)               54.3171  0.000010 -0.0137   54.3034   
   213. B(F  32,C   8)               54.1320 -0.000003 -0.0120   54.1199   
   214. B(F  32,H  12)               54.0097  0.000003 -0.0143   53.9953   
   215. B(F  32,H  19)               53.8241 -0.000003 -0.0123   53.8118   
   216. B(F  32,N   1)               58.5155  0.000002 -0.0131   58.5024   
   217. B(F  32,H  24)               60.5059 -0.000001 -0.0126   60.4932   
   218. B(F  32,H  23)               60.2389 -0.000002 -0.0124   60.2264   
   219. B(F  32,H  22)               60.2055 -0.000002 -0.0127   60.1928   
   220. B(F  32,C   9)               59.9544 -0.000004 -0.0127   59.9416   
   221. B(F  32,H  13)               53.4088  0.000001 -0.0136   53.3953   
   222. B(F  32,H  18)               58.3819  0.000003 -0.0131   58.3688   
   223. B(F  32,H  16)               57.9036 -0.000001 -0.0133   57.8903   
   224. B(F  32,C   7)               57.8536  0.000007 -0.0132   57.8405   
   225. B(F  32,C   5)               57.6455 -0.000004 -0.0131   57.6324   
   226. B(F  32,C   6)               56.5418  0.000003 -0.0132   56.5287   
   227. B(F  32,N   0)               56.4309  0.000005 -0.0131   56.4177   
   228. B(F  32,H  20)               53.2386 -0.000001 -0.0121   53.2265   
   229. B(F  32,H  14)               55.9168  0.000001 -0.0126   55.9042   
   230. B(F  32,H  17)               55.7064  0.000001 -0.0133   55.6931   
   231. B(F  32,H  10)               55.5098  0.000002 -0.0137   55.4960   
   232. B(F  32,H  15)               55.3525 -0.000005 -0.0119   55.3406   
   233. B(F  32,C   2)               55.1901 -0.000002 -0.0136   55.1765   
   234. B(F  32,C   4)               55.0104 -0.000012 -0.0123   54.9981   
   235. B(C  33,H  21)               54.6614  0.000002 -0.0111   54.6503   
   236. B(C  33,F  32)                1.3403  0.000032 -0.0001    1.3401   
   237. B(C  33,S  30)                1.8670  0.000010 -0.0003    1.8668   
   238. B(C  33,C   3)               54.3641  0.000016 -0.0136   54.3505   
   239. B(C  33,F  28)                1.3454 -0.000022 -0.0000    1.3454   
   240. B(C  33,C   8)               54.1273  0.000005 -0.0114   54.1159   
   241. B(C  33,H  12)               54.0724  0.000010 -0.0140   54.0584   
   242. B(C  33,H  19)               53.8335  0.000005 -0.0113   53.8222   
   243. B(C  33,H  24)               60.5985  0.000006 -0.0126   60.5858   
   244. B(C  33,C   9)               60.0273  0.000002 -0.0127   60.0146   
   245. B(C  33,H  13)               53.4495  0.000008 -0.0137   53.4358   
   246. B(C  33,N   1)               58.5947  0.000008 -0.0131   58.5816   
   247. B(C  33,H  18)               58.4973  0.000009 -0.0127   58.4846   
   248. B(C  33,C   7)               57.9548  0.000013 -0.0129   57.9418   
   249. B(C  33,H  16)               57.9504  0.000005 -0.0136   57.9367   
   250. B(C  33,C   5)               57.7106  0.000002 -0.0133   57.6973   
   251. B(C  33,H  20)               53.2254  0.000007 -0.0117   53.2137   
   252. B(C  33,H  23)               60.3052  0.000004 -0.0121   60.2930   
   253. B(C  33,C   6)               56.6422  0.000009 -0.0130   56.6292   
   254. B(C  33,N   0)               56.5081  0.000011 -0.0132   56.4949   
   255. B(C  33,H  14)               55.9393  0.000009 -0.0121   55.9272   
   256. B(C  33,H  17)               55.8208  0.000007 -0.0130   55.8078   
   257. B(C  33,H  10)               55.5617  0.000007 -0.0143   55.5474   
   258. B(C  33,H  15)               55.3538  0.000003 -0.0120   55.3418   
   259. B(C  33,C   2)               55.2567  0.000005 -0.0139   55.2428   
   260. B(C  33,C   4)               55.0264 -0.000004 -0.0120   55.0143   
   261. B(C  33,H  22)               60.2604  0.000005 -0.0128   60.2476   
   262. B(C  33,H  11)               54.7722  0.000008 -0.0135   54.7588   
   263. B(O  34,H  17)               54.7318 -0.000001 -0.0157   54.7161   
   264. B(O  34,H  14)               54.6951  0.000011 -0.0150   54.6801   
   265. B(O  34,H  20)               51.9287  0.000011 -0.0151   51.9137   
   266. B(O  34,H  10)               54.4063  0.000003 -0.0189   54.3873   
   267. B(O  34,C   2)               54.1138 -0.000000 -0.0178   54.0960   
   268. B(O  34,H  15)               54.0944  0.000006 -0.0161   54.0782   
   269. B(O  34,C   4)               53.7798 -0.000003 -0.0154   53.7644   
   270. B(O  34,H  24)               59.4785  0.000000 -0.0158   59.4627   
   271. B(O  34,H  23)               59.1258 -0.000001 -0.0149   59.1109   
   272. B(O  34,H  22)               59.0830  0.000000 -0.0164   59.0666   
   273. B(O  34,C   9)               58.8715 -0.000003 -0.0159   58.8556   
   274. B(O  34,H  21)               53.3301  0.000006 -0.0139   53.3161   
   275. B(O  34,H  11)               53.6719  0.000001 -0.0174   53.6544   
   276. B(O  34,N   1)               57.4519  0.000002 -0.0163   57.4357   
   277. B(O  34,C   3)               53.1767  0.000014 -0.0171   53.1596   
   278. B(O  34,H  18)               57.3976  0.000001 -0.0150   57.3826   
   279. B(O  34,C   7)               56.8404  0.000005 -0.0157   56.8247   
   280. B(O  34,H  16)               56.7739  0.000000 -0.0177   56.7562   
   281. B(O  34,H  12)               52.9001  0.000007 -0.0167   52.8834   
   282. B(O  34,C   5)               56.5555 -0.000003 -0.0169   56.5387   
   283. B(O  34,C   8)               52.8362  0.000008 -0.0143   52.8219   
   284. B(O  34,H  19)               52.5543  0.000007 -0.0134   52.5409   
   285. B(O  34,C   6)               55.5327  0.000001 -0.0159   55.5168   
   286. B(O  34,N   0)               55.3725  0.000005 -0.0167   55.3558   
   287. B(O  34,H  13)               52.2607  0.000007 -0.0177   52.2430   
   288. B(O  34,S  30)                1.4397 -0.000045  0.0002    1.4398   
   289. B(S  35,N   1)               54.6788  0.000005 -0.0119   54.6669   
   290. B(S  35,H  17)               51.8874  0.000003 -0.0120   51.8754   
   291. B(S  35,H  18)               54.5590  0.000006 -0.0119   54.5471   
   292. B(S  35,H  19)               49.9341  0.000006 -0.0111   49.9230   
   293. B(S  35,H  10)               51.6773  0.000005 -0.0126   51.6646   
   294. B(S  35,H  16)               54.0612  0.000003 -0.0121   54.0490   
   295. B(S  35,C   7)               54.0255  0.000010 -0.0119   54.0136   
   296. B(S  35,H  15)               51.4790  0.000003 -0.0109   51.4681   
   297. B(S  35,C   5)               53.8070 -0.000000 -0.0119   53.7951   
   298. B(S  35,H  13)               49.5569  0.000007 -0.0125   49.5444   
   299. B(S  35,C   2)               51.3569  0.000002 -0.0124   51.3445   
   300. B(S  35,H  20)               49.3482  0.000007 -0.0110   49.3371   
   301. B(S  35,C   4)               51.1363 -0.000004 -0.0112   51.1250   
   302. B(S  35,H  11)               50.8683  0.000004 -0.0118   50.8565   
   303. B(S  35,H  24)               56.6796  0.000003 -0.0114   56.6682   
   304. B(S  35,H  21)               50.7860  0.000003 -0.0108   50.7751   
   305. B(S  35,H  23)               56.3866  0.000003 -0.0112   56.3754   
   306. B(S  35,H  22)               56.3594  0.000003 -0.0115   56.3479   
   307. B(S  35,C   9)               56.1133  0.000000 -0.0115   56.1018   
   308. B(S  35,C   6)               52.7158  0.000006 -0.0119   52.7039   
   309. B(S  35,N   0)               52.5979  0.000008 -0.0119   52.5860   
   310. B(S  35,C   3)               50.4634  0.000015 -0.0125   50.4509   
   311. B(S  35,C  31)                1.8705  0.000100 -0.0003    1.8702   
   312. B(S  35,C   8)               50.2413  0.000006 -0.0110   50.2304   
   313. B(S  35,O  27)                1.4390  0.000052 -0.0000    1.4390   
   314. B(S  35,H  14)               52.0416  0.000009 -0.0114   52.0302   
   315. B(S  35,H  12)               50.1578  0.000008 -0.0131   50.1448   
   316. B(N  36,C   3)               51.7468  0.000003 -0.0139   51.7330   
   317. B(N  36,C   8)               51.5036 -0.000006 -0.0114   51.4922   
   318. B(N  36,C   6)               54.0367 -0.000007 -0.0134   54.0232   
   319. B(N  36,N   0)               53.8969 -0.000004 -0.0136   53.8834   
   320. B(N  36,H  12)               51.4584 -0.000004 -0.0142   51.4442   
   321. B(N  36,H  19)               51.2129 -0.000006 -0.0113   51.2016   
   322. B(N  36,H  14)               53.3185 -0.000003 -0.0122   53.3063   
   323. B(N  36,H  24)               57.9905 -0.000009 -0.0130   57.9775   
   324. B(N  36,H  23)               57.6918 -0.000010 -0.0124   57.6794   
   325. B(N  36,H  22)               57.6443 -0.000009 -0.0131   57.6313   
   326. B(N  36,H  17)               53.2194 -0.000009 -0.0135   53.2059   
   327. B(N  36,C   9)               57.4148 -0.000012 -0.0130   57.4018   
   328. B(N  36,H  10)               52.9469 -0.000008 -0.0146   52.9324   
   329. B(N  36,H  13)               50.8314 -0.000005 -0.0140   50.8174   
   330. B(N  36,H  15)               52.7299 -0.000009 -0.0121   52.7179   
   331. B(N  36,N   1)               55.9837 -0.000007 -0.0134   55.9703   
   332. B(N  36,H  20)               50.6004 -0.000004 -0.0116   50.5887   
   333. B(N  36,C   2)               52.6437 -0.000010 -0.0142   52.6295   
   334. B(N  36,H  18)               55.8965 -0.000006 -0.0132   55.8833   
   335. B(N  36,C   4)               52.4043 -0.000016 -0.0121   52.3922   
   336. B(N  36,S  35)                1.5753 -0.000004 -0.0004    1.5749   
   337. B(N  36,C   7)               55.3495 -0.000003 -0.0134   55.3362   
   338. B(N  36,H  16)               55.3335 -0.000009 -0.0138   55.3197   
   339. B(N  36,S  30)                1.5823  0.000060 -0.0001    1.5822   
   340. B(N  36,H  11)               52.1646 -0.000009 -0.0139   52.1507   
   341. B(N  36,C   5)               55.0967 -0.000012 -0.0136   55.0832   
   342. B(N  36,H  21)               52.0364 -0.000008 -0.0110   52.0254   
   343. B(F  37,H  11)               51.8893  0.000002 -0.0100   51.8792   
   344. B(F  37,C   3)               51.5851  0.000012 -0.0111   51.5739   
   345. B(F  37,C   8)               51.4810  0.000002 -0.0099   51.4711   
   346. B(F  37,C   6)               53.7565  0.000001 -0.0117   53.7448   
   347. B(F  37,N   0)               53.6590  0.000006 -0.0108   53.6482   
   348. B(F  37,H  12)               51.2708  0.000003 -0.0127   51.2581   
   349. B(F  37,H  19)               51.1689  0.000001 -0.0112   51.1577   
   350. B(F  37,H  24)               57.7189 -0.000002 -0.0107   57.7082   
   351. B(F  37,H  14)               53.2260  0.000004 -0.0106   53.2154   
   352. B(F  37,H  23)               57.4964 -0.000001 -0.0110   57.4855   
   353. B(F  37,H  22)               57.4559  0.000001 -0.0100   57.4459   
   354. B(F  37,C   9)               57.1926 -0.000003 -0.0107   57.1819   
   355. B(F  37,H  17)               52.9112 -0.000002 -0.0122   52.8990   
   356. B(F  37,H  10)               52.7500  0.000005 -0.0098   52.7402   
   357. B(F  37,H  13)               50.6780  0.000004 -0.0104   50.6676   
   358. B(F  37,H  15)               52.6701 -0.000000 -0.0084   52.6618   
   359. B(F  37,H  20)               50.5918  0.000003 -0.0093   50.5825   
   360. B(F  37,N   1)               55.7470  0.000002 -0.0111   55.7359   
   361. B(F  37,C  31)                1.3425  0.000009 -0.0001    1.3424   
   362. B(F  37,C   2)               52.4235  0.000000 -0.0105   52.4130   
   363. B(F  37,H  18)               55.5930 -0.000001 -0.0125   55.5805   
   364. B(F  37,C   4)               52.3211 -0.000008 -0.0097   52.3114   
   365. B(F  37,H  16)               55.1552  0.000004 -0.0100   55.1452   
   366. B(F  37,C   7)               55.0710  0.000005 -0.0119   55.0590   
   367. B(F  37,H  21)               52.0683  0.000000 -0.0097   52.0586   
   368. B(F  37,C   5)               54.8841 -0.000002 -0.0105   54.8737   
   369. B(F  38,C   3)               54.4389  0.000011 -0.0140   54.4249   
   370. B(F  38,C   8)               54.2196  0.000000 -0.0108   54.2088   
   371. B(F  38,H  12)               54.1718  0.000007 -0.0144   54.1574   
   372. B(F  38,H  19)               53.9511  0.000002 -0.0108   53.9403   
   373. B(F  38,H  24)               60.6860  0.000002 -0.0135   60.6725   
   374. B(F  38,H  23)               60.4121  0.000002 -0.0127   60.3994   
   375. B(F  38,H  22)               60.3280 -0.000000 -0.0134   60.3146   
   376. B(F  38,C   9)               60.1150 -0.000002 -0.0134   60.1016   
   377. B(F  38,H  13)               53.5098  0.000002 -0.0140   53.4958   
   378. B(F  38,N   1)               58.6836  0.000004 -0.0138   58.6698   
   379. B(F  38,H  18)               58.6288  0.000007 -0.0137   58.6151   
   380. B(F  38,C   7)               58.0669  0.000010 -0.0138   58.0531   
   381. B(F  38,H  16)               57.9970 -0.000001 -0.0142   57.9828   
   382. B(F  38,H  20)               53.3031  0.000001 -0.0109   53.2922   
   383. B(F  38,C   5)               57.7781 -0.000003 -0.0140   57.7641   
   384. B(F  38,C   6)               56.7469  0.000005 -0.0139   56.7330   
   385. B(F  38,N   0)               56.5842  0.000006 -0.0140   56.5702   
   386. B(F  38,H  14)               56.0305  0.000005 -0.0119   56.0186   
   387. B(F  38,H  17)               55.9380  0.000004 -0.0141   55.9239   
   388. B(F  38,C  33)                1.3400  0.000088 -0.0002    1.3398   
   389. B(F  38,H  10)               55.5959  0.000000 -0.0149   55.5810   
   390. B(F  38,H  15)               55.4066 -0.000004 -0.0117   55.3949   
   391. B(F  38,C   2)               55.3151 -0.000001 -0.0146   55.3005   
   392. B(F  38,C   4)               55.1034 -0.000009 -0.0118   55.0916   
   393. B(F  38,H  11)               54.8287  0.000002 -0.0145   54.8142   
   394. B(F  38,H  21)               54.7549 -0.000002 -0.0101   54.7448   
   395. B(O  39,C   6)               51.7849 -0.000006 -0.0130   51.7719   
   396. B(O  39,H  11)               49.8955 -0.000011 -0.0128   49.8827   
   397. B(O  39,N   0)               51.6465 -0.000005 -0.0126   51.6339   
   398. B(O  39,H  21)               49.8821 -0.000009 -0.0094   49.8727   
   399. B(O  39,N   1)               53.7393 -0.000007 -0.0127   53.7267   
   400. B(O  39,C   3)               49.5186  0.000002 -0.0127   49.5060   
   401. B(O  39,H  18)               53.6501 -0.000004 -0.0132   53.6369   
   402. B(O  39,C   8)               49.3289 -0.000007 -0.0100   49.3190   
   403. B(O  39,H  12)               49.2314 -0.000004 -0.0135   49.2179   
   404. B(O  39,H  14)               51.1200 -0.000004 -0.0110   51.1089   
   405. B(O  39,H  17)               50.9644 -0.000008 -0.0133   50.9511   
   406. B(O  39,C   7)               53.1018 -0.000001 -0.0130   53.0888   
   407. B(O  39,H  19)               49.0412 -0.000005 -0.0104   49.0307   
   408. B(O  39,H  16)               53.0917 -0.000011 -0.0124   53.0794   
   409. B(O  39,C   5)               52.8514 -0.000014 -0.0125   52.8389   
   410. B(O  39,H  13)               48.6002 -0.000008 -0.0125   48.5877   
   411. B(O  39,H  10)               50.6944 -0.000011 -0.0129   50.6815   
   412. B(O  39,H  20)               48.4245 -0.000007 -0.0099   48.4147   
   413. B(O  39,S  35)                1.4391  0.000070  0.0000    1.4391   
   414. B(O  39,H  24)               55.7359 -0.000010 -0.0124   55.7236   
   415. B(O  39,H  15)               50.5281 -0.000013 -0.0101   50.5179   
   416. B(O  39,H  23)               55.4680 -0.000008 -0.0118   55.4562   
   417. B(O  39,H  22)               55.4075 -0.000011 -0.0119   55.3956   
   418. B(O  39,C   2)               50.3918 -0.000012 -0.0130   50.3789   
   419. B(O  39,C   9)               55.1749 -0.000012 -0.0122   55.1627   
   420. B(O  39,C   4)               50.2031 -0.000018 -0.0107   50.1924   
   421. A(C   2,N   0,O  27)           33.38 -0.000003   -0.03     33.35   
   422. A(C   6,N   0,S  35)           94.16  0.000001   -0.00     94.16   
   423. A(C   6,N   0,F  26)           91.91 -0.000000   -0.01     91.89   
   424. A(C   2,N   0,S  30)           31.96 -0.000003   -0.04     31.92   
   425. A(C   2,N   0,O  39)           31.32 -0.000004    0.00     31.32   
   426. A(C   5,N   0,C  31)          156.83  0.000001    0.00    156.83   
   427. A(C   5,N   0,C  33)          154.33 -0.000000   -0.01    154.32   
   428. A(C   6,N   0,O  25)           93.43 -0.000000    0.03     93.46   
   429. A(O  34,N   0,F  37)            5.34  0.000001    0.00      5.34   
   430. A(C   6,N   0,F  28)           94.72  0.000001    0.01     94.73   
   431. A(C   6,N   0,F  37)           93.33 -0.000000   -0.04     93.29   
   432. A(C   2,N   0,O  25)           33.44 -0.000002   -0.04     33.39   
   433. A(C   6,N   0,C  33)           94.89  0.000001    0.01     94.90   
   434. A(C   5,N   0,S  30)          153.87  0.000000   -0.02    153.85   
   435. A(C   5,N   0,C   6)          108.43 -0.000001    0.01    108.45   
   436. A(C   6,N   0,F  38)           96.10  0.000001    0.00     96.10   
   437. A(C   5,N   0,F  29)          157.78  0.000002    0.00    157.78   
   438. A(C   5,N   0,F  28)          154.22  0.000000   -0.02    154.20   
   439. A(C   5,N   0,F  38)          153.48 -0.000001   -0.00    153.48   
   440. A(C   5,N   0,F  26)          157.36  0.000001   -0.01    157.34   
   441. A(C   2,N   0,F  26)           34.39 -0.000003    0.01     34.40   
   442. A(C   2,N   0,F  28)           31.91 -0.000003   -0.03     31.88   
   443. A(C   2,N   0,S  35)           32.31 -0.000003   -0.01     32.30   
   444. A(C   6,N   0,O  34)           95.98  0.000000    0.03     96.01   
   445. A(C   2,N   0,N  36)           31.44 -0.000003   -0.02     31.42   
   446. A(C   6,N   0,O  39)           95.01  0.000001   -0.02     94.99   
   447. A(C   6,N   0,F  29)           91.88 -0.000001   -0.03     91.85   
   448. A(C   2,N   0,O  34)           31.06 -0.000003   -0.06     31.00   
   449. A(C   6,N   0,S  30)           94.81  0.000001    0.02     94.83   
   450. A(C   2,N   0,F  37)           32.71 -0.000002    0.04     32.75   
   451. A(C   6,N   0,O  27)           93.35  0.000000    0.02     93.37   
   452. A(C   5,N   0,S  35)          154.99  0.000000   -0.01    154.98   
   453. A(C   5,N   0,O  25)          154.81  0.000001   -0.04    154.78   
   454. A(C   2,N   0,F  38)           30.29 -0.000004   -0.02     30.27   
   455. A(C   6,N   0,C  31)           92.74 -0.000000   -0.02     92.72   
   456. A(C   2,N   0,C  31)           33.47 -0.000002    0.02     33.49   
   457. A(C   6,N   0,F  32)           93.93  0.000001   -0.00     93.92   
   458. A(C   2,N   0,C  33)           31.60 -0.000003   -0.02     31.57   
   459. A(C   2,N   0,C   5)          125.80  0.000004   -0.03    125.77   
   460. A(C   5,N   0,F  37)          156.73  0.000001    0.02    156.76   
   461. A(C   5,N   0,O  27)          155.15  0.000001   -0.03    155.12   
   462. A(C   2,N   0,F  32)           32.36 -0.000003   -0.01     32.35   
   463. A(C   5,N   0,F  32)          155.60  0.000000   -0.01    155.60   
   464. A(C   5,N   0,O  34)          152.42  0.000000   -0.03    152.40   
   465. A(C   6,N   0,N  36)           95.10  0.000001    0.00     95.10   
   466. A(C   2,N   0,C   6)          125.69 -0.000003    0.01    125.70   
   467. A(C   5,N   0,O  39)          154.55  0.000000    0.01    154.57   
   468. A(C   5,N   0,N  36)          154.05  0.000000   -0.01    154.05   
   469. A(C   2,N   0,F  29)           34.26 -0.000002    0.03     34.29   
   470. A(F  29,N   0,O  34)            5.61  0.000002    0.00      5.62   
   471. A(C   5,N   1,O  27)           49.60 -0.000002   -0.01     49.59   
   472. A(C   5,N   1,C   9)          125.90  0.000004   -0.01    125.89   
   473. A(C   5,N   1,O  39)           47.73 -0.000003    0.02     47.74   
   474. A(C   9,N   1,O  27)          167.65  0.000003   -0.02    167.63   
   475. A(C   9,N   1,N  36)          167.68  0.000003    0.01    167.68   
   476. A(C   7,N   1,S  30)           61.80 -0.000006    0.02     61.82   
   477. A(C   9,N   1,F  26)          169.99  0.000004   -0.03    169.96   
   478. A(C   9,N   1,S  30)          166.99  0.000002   -0.00    166.99   
   479. A(C   9,N   1,O  25)          167.12  0.000002   -0.02    167.10   
   480. A(C   9,N   1,O  39)          168.54  0.000003    0.02    168.56   
   481. A(C   5,N   1,F  28)           48.26 -0.000003   -0.01     48.25   
   482. A(C   5,N   1,C  33)           47.99 -0.000003   -0.01     47.98   
   483. A(C   5,N   1,F  29)           50.62 -0.000001    0.03     50.65   
   484. A(C   5,N   1,N  36)           47.80 -0.000003   -0.00     47.80   
   485. A(C   9,N   1,F  38)          167.74  0.000002    0.01    167.76   
   486. A(C   5,N   1,F  38)           46.76 -0.000003   -0.00     46.76   
   487. A(C   7,N   1,F  28)           61.62 -0.000006    0.02     61.64   
   488. A(C   5,N   1,O  34)           47.28 -0.000002   -0.03     47.25   
   489. A(C   7,N   1,N  36)           61.97 -0.000006    0.01     61.97   
   490. A(C   7,N   1,O  25)           60.56 -0.000007    0.03     60.59   
   491. A(C   9,N   1,O  34)          165.67  0.000002    0.00    165.67   
   492. A(C   5,N   1,F  37)           49.16 -0.000002    0.04     49.21   
   493. A(C   9,N   1,F  37)          170.80  0.000004    0.01    170.81   
   494. A(C   7,N   1,C  33)           61.73 -0.000006    0.01     61.74   
   495. A(F  29,N   1,O  34)            5.40  0.000002    0.00      5.40   
   496. A(C   5,N   1,S  35)           48.65 -0.000003    0.00     48.66   
   497. A(C   5,N   1,O  25)           49.64 -0.000002   -0.02     49.62   
   498. A(C   9,N   1,C  33)          167.97  0.000002    0.00    167.97   
   499. A(C   9,N   1,S  35)          168.34  0.000003    0.00    168.34   
   500. A(C   9,N   1,F  32)          169.25  0.000002    0.00    169.25   
   501. A(O  34,N   1,F  37)            5.15  0.000001    0.00      5.15   
   502. A(C   7,N   1,C   9)          125.72  0.000005    0.00    125.72   
   503. A(C   7,N   1,F  29)           58.70 -0.000008   -0.02     58.68   
   504. A(C   7,N   1,O  34)           63.03 -0.000006    0.03     63.06   
   505. A(C   7,N   1,F  26)           58.80 -0.000007   -0.01     58.80   
   506. A(C   7,N   1,C  31)           59.55 -0.000007   -0.02     59.53   
   507. A(C   7,N   1,S  35)           61.06 -0.000006    0.00     61.06   
   508. A(C   5,N   1,F  26)           50.73 -0.000002    0.02     50.74   
   509. A(C   7,N   1,F  32)           60.69 -0.000006    0.00     60.70   
   510. A(C   5,N   1,F  32)           48.79 -0.000003    0.00     48.79   
   511. A(C   7,N   1,O  39)           61.78 -0.000005   -0.01     61.77   
   512. A(C   9,N   1,C  31)          170.12  0.000004   -0.01    170.11   
   513. A(C   5,N   1,C   7)          108.38 -0.000008    0.00    108.38   
   514. A(C   7,N   1,F  37)           60.00 -0.000007   -0.03     59.96   
   515. A(C   7,N   1,O  27)           60.44 -0.000006    0.02     60.46   
   516. A(C   9,N   1,F  29)          170.84  0.000004   -0.02    170.82   
   517. A(C   5,N   1,C  31)           49.85 -0.000002    0.03     49.88   
   518. A(C   7,N   1,F  38)           62.81 -0.000005    0.00     62.81   
   519. A(C   5,N   1,S  30)           48.25 -0.000003   -0.02     48.23   
   520. A(C   9,N   1,F  28)          167.53  0.000002   -0.00    167.53   
   521. A(F  26,C   2,O  34)            5.12  0.000001    0.00      5.12   
   522. A(N   0,C   2,C  33)          147.60  0.000003    0.02    147.63   
   523. A(O  34,C   2,F  37)            5.47  0.000001    0.00      5.48   
   524. A(C   3,C   2,F  29)           55.05 -0.000007   -0.04     55.00   
   525. A(H  11,C   2,O  39)           62.35 -0.000006    0.01     62.36   
   526. A(H  10,C   2,F  37)          106.86  0.000002    0.04    106.91   
   527. A(F  29,C   2,O  34)            5.78  0.000002    0.00      5.78   
   528. A(H  10,C   2,O  27)          107.57  0.000001   -0.03    107.53   
   529. A(N   0,C   2,C  31)          145.63  0.000002   -0.02    145.61   
   530. A(C   3,C   2,S  30)           52.23 -0.000008    0.02     52.26   
   531. A(N   0,C   2,F  29)          144.80  0.000002   -0.03    144.78   
   532. A(N   0,C   2,H  10)          106.67 -0.000004   -0.00    106.67   
   533. A(C   3,C   2,S  35)           53.44 -0.000007    0.01     53.45   
   534. A(C   3,C   2,O  39)           54.36 -0.000007    0.03     54.38   
   535. A(H  10,C   2,F  26)          108.62  0.000001    0.01    108.63   
   536. A(C   3,C   2,O  25)           51.54 -0.000009    0.00     51.54   
   537. A(N   0,C   2,C   3)          112.17  0.000005   -0.04    112.13   
   538. A(H  10,C   2,C  31)          107.69  0.000002    0.02    107.72   
   539. A(H  10,C   2,F  29)          108.50  0.000002    0.03    108.53   
   540. A(C   3,C   2,H  10)          111.18 -0.000002   -0.00    111.18   
   541. A(H  11,C   2,F  29)           60.32 -0.000006    0.07     60.39   
   542. A(N   0,C   2,F  28)          147.30  0.000003    0.03    147.33   
   543. A(N   0,C   2,F  38)          148.94  0.000004    0.02    148.96   
   544. A(N   0,C   2,N  36)          147.72  0.000003    0.02    147.74   
   545. A(C   3,C   2,O  27)           52.09 -0.000008   -0.01     52.08   
   546. A(C   3,C   2,H  11)          111.58 -0.000010    0.03    111.61   
   547. A(N   0,C   2,S  35)          146.81  0.000003    0.01    146.82   
   548. A(C   3,C   2,C  33)           53.53 -0.000008    0.02     53.56   
   549. A(H  10,C   2,F  28)          105.99  0.000000   -0.03    105.96   
   550. A(H  10,C   2,O  25)          107.53  0.000001   -0.05    107.48   
   551. A(N   0,C   2,O  27)          145.70  0.000003    0.03    145.74   
   552. A(H  11,C   2,F  26)           61.25 -0.000006    0.07     61.32   
   553. A(H  10,C   2,S  35)          106.51  0.000001   -0.01    106.50   
   554. A(N   0,C   2,F  32)          146.82  0.000003    0.01    146.83   
   555. A(H  11,C   2,F  38)           62.98 -0.000005    0.00     62.99   
   556. A(C   3,C   2,N  36)           53.31 -0.000008    0.03     53.33   
   557. A(C   3,C   2,F  32)           54.43 -0.000008    0.01     54.43   
   558. A(H  11,C   2,S  35)           62.81 -0.000005    0.03     62.85   
   559. A(H  10,C   2,F  38)          104.39 -0.000000   -0.02    104.37   
   560. A(N   0,C   2,O  25)          145.70  0.000002    0.04    145.74   
   561. A(H  10,C   2,F  32)          106.51  0.000001   -0.01    106.51   
   562. A(H  11,C   2,C  31)           61.02 -0.000006    0.05     61.08   
   563. A(C   3,C   2,C  31)           54.69 -0.000007   -0.02     54.67   
   564. A(H  11,C   2,F  28)           63.64 -0.000005    0.03     63.67   
   565. A(N   0,C   2,F  26)          144.71  0.000003   -0.01    144.70   
   566. A(H  11,C   2,O  25)           64.28 -0.000004    0.06     64.33   
   567. A(C   3,C   2,F  38)           54.28 -0.000008    0.04     54.33   
   568. A(H  10,C   2,O  39)          105.52 -0.000000    0.01    105.53   
   569. A(H  11,C   2,F  37)           60.12 -0.000006    0.03     60.15   
   570. A(H  11,C   2,F  32)           61.82 -0.000005    0.03     61.85   
   571. A(H  11,C   2,O  34)           65.55 -0.000005    0.02     65.57   
   572. A(C   3,C   2,F  28)           52.86 -0.000008    0.02     52.88   
   573. A(N   0,C   2,F  37)          146.42  0.000002   -0.04    146.38   
   574. A(H  10,C   2,S  30)          106.05  0.000001   -0.04    106.00   
   575. A(H  10,C   2,H  11)          107.88 -0.000000    0.01    107.89   
   576. A(H  11,C   2,C  33)           63.10 -0.000005    0.02     63.12   
   577. A(H  10,C   2,N  36)          105.59  0.000001   -0.02    105.57   
   578. A(C   3,C   2,F  26)           54.08 -0.000007   -0.04     54.04   
   579. A(H  11,C   2,S  30)           64.25 -0.000004    0.03     64.28   
   580. A(N   0,C   2,O  34)          148.14  0.000003    0.06    148.20   
   581. A(H  11,C   2,O  27)           63.71 -0.000005    0.06     63.77   
   582. A(N   0,C   2,S  30)          147.20  0.000003    0.04    147.25   
   583. A(H  11,C   2,N  36)           63.39 -0.000005    0.02     63.40   
   584. A(H  10,C   2,O  34)          105.01  0.000001   -0.06    104.95   
   585. A(C   3,C   2,F  37)           55.95 -0.000007   -0.01     55.93   
   586. A(H  10,C   2,C  33)          105.71  0.000001   -0.02    105.69   
   587. A(C   3,C   2,O  34)           51.45 -0.000008    0.05     51.49   
   588. A(N   0,C   2,H  11)          107.10  0.000012    0.01    107.11   
   589. A(N   0,C   2,O  39)          147.81  0.000004   -0.00    147.80   
   590. A(H  12,C   3,S  30)           73.70 -0.000001    0.00     73.70   
   591. A(C   2,C   3,C  33)          125.18  0.000009   -0.03    125.15   
   592. A(C   2,C   3,O  25)          127.17  0.000009   -0.00    127.17   
   593. A(C   2,C   3,F  32)          124.27  0.000008   -0.01    124.26   
   594. A(C   2,C   3,F  28)          125.89  0.000008   -0.02    125.86   
   595. A(H  12,C   3,S  35)           73.19 -0.000001   -0.03     73.16   
   596. A(C   4,C   3,S  35)          115.36  0.000004    0.05    115.41   
   597. A(H  12,C   3,F  28)           73.72 -0.000001   -0.01     73.71   
   598. A(H  13,C   3,F  26)           35.57 -0.000001    0.04     35.61   
   599. A(C   2,C   3,N  36)          125.34  0.000008   -0.03    125.31   
   600. A(H  12,C   3,F  26)           70.99 -0.000002   -0.05     70.94   
   601. A(C   4,C   3,F  26)          116.95  0.000005    0.01    116.95   
   602. A(C   2,C   3,F  26)          124.56  0.000008    0.04    124.60   
   603. A(H  12,C   3,O  34)           74.79 -0.000001    0.02     74.81   
   604. A(C   2,C   3,S  30)          126.46  0.000009   -0.03    126.44   
   605. A(H  13,C   3,C  33)           32.91 -0.000002   -0.01     32.90   
   606. A(H  13,C   3,N  36)           32.81 -0.000002   -0.01     32.80   
   607. A(H  13,C   3,O  39)           32.51 -0.000003    0.02     32.53   
   608. A(C   4,C   3,H  12)          110.20  0.000004   -0.02    110.17   
   609. A(H  12,C   3,N  36)           74.13 -0.000001   -0.02     74.11   
   610. A(H  13,C   3,F  29)           35.30 -0.000001    0.06     35.37   
   611. A(F  29,C   3,O  34)            5.93  0.000002    0.00      5.93   
   612. A(H  12,C   3,O  27)           72.16 -0.000002   -0.00     72.15   
   613. A(C   2,C   3,F  37)          122.65  0.000008    0.01    122.66   
   614. A(H  13,C   3,F  37)           33.60 -0.000001    0.07     33.67   
   615. A(H  12,C   3,F  37)           72.73 -0.000002   -0.09     72.64   
   616. A(C   4,C   3,F  29)          117.93  0.000006    0.01    117.95   
   617. A(H  13,C   3,O  34)           32.77 -0.000001   -0.06     32.71   
   618. A(C   4,C   3,F  32)          116.28  0.000004    0.05    116.33   
   619. A(C   4,C   3,F  37)          118.07  0.000005    0.05    118.12   
   620. A(H  12,C   3,O  25)           72.20 -0.000002    0.01     72.21   
   621. A(C   2,C   3,S  35)          125.17  0.000008   -0.01    125.16   
   622. A(H  12,C   3,O  39)           74.17 -0.000001   -0.05     74.13   
   623. A(C   4,C   3,O  27)          114.48  0.000004    0.02    114.50   
   624. A(C   4,C   3,O  25)          113.83  0.000003    0.02    113.86   
   625. A(H  12,C   3,F  29)           71.09 -0.000003   -0.08     71.02   
   626. A(F  26,C   3,O  34)            5.22  0.000001    0.00      5.23   
   627. A(H  13,C   3,O  25)           35.05 -0.000000   -0.03     35.03   
   628. A(H  12,C   3,C  31)           71.93 -0.000002   -0.06     71.86   
   629. A(C   2,C   3,C   4)          114.21 -0.000013   -0.00    114.21   
   630. A(C   4,C   3,N  36)          114.74  0.000004    0.07    114.80   
   631. A(C   2,C   3,C  31)          123.91  0.000008    0.02    123.94   
   632. A(O  34,C   3,F  37)            5.60  0.000001    0.00      5.60   
   633. A(C   4,C   3,S  30)          113.84  0.000003    0.05    113.89   
   634. A(C   4,C   3,O  39)          115.84  0.000004    0.08    115.91   
   635. A(C   2,C   3,H  12)          109.56  0.000002   -0.02    109.54   
   636. A(H  12,C   3,H  13)          106.02 -0.000004   -0.01    106.01   
   637. A(H  13,C   3,S  35)           33.64 -0.000002    0.01     33.65   
   638. A(C   2,C   3,H  13)          106.58  0.000003    0.05    106.64   
   639. A(C   4,C   3,F  28)          114.40  0.000004    0.05    114.45   
   640. A(H  13,C   3,C  31)           34.57 -0.000001    0.05     34.62   
   641. A(H  12,C   3,C  33)           73.98 -0.000001   -0.02     73.97   
   642. A(C   4,C   3,C  33)          114.97  0.000004    0.06    115.04   
   643. A(H  13,C   3,F  32)           33.50 -0.000002    0.01     33.52   
   644. A(C   2,C   3,O  39)          124.21  0.000007   -0.03    124.18   
   645. A(C   2,C   3,F  38)          124.41  0.000008   -0.04    124.37   
   646. A(C   4,C   3,O  34)          112.51  0.000004    0.06    112.57   
   647. A(H  12,C   3,F  38)           75.31 -0.000000   -0.02     75.29   
   648. A(H  13,C   3,F  28)           33.33 -0.000002   -0.02     33.31   
   649. A(H  12,C   3,F  32)           73.13 -0.000001   -0.04     73.09   
   650. A(C   2,C   3,O  34)          127.27  0.000008   -0.05    127.22   
   651. A(C   2,C   3,O  27)          126.53  0.000009    0.01    126.54   
   652. A(C   2,C   3,F  29)          123.52  0.000007    0.04    123.57   
   653. A(H  13,C   3,S  30)           33.50 -0.000001   -0.03     33.47   
   654. A(H  13,C   3,O  27)           34.92 -0.000001   -0.01     34.91   
   655. A(C   4,C   3,F  38)          115.07  0.000004    0.08    115.15   
   656. A(C   4,C   3,C  31)          117.18  0.000005    0.03    117.21   
   657. A(C   4,C   3,H  13)          109.90  0.000007    0.01    109.90   
   658. A(H  13,C   3,F  38)           31.51 -0.000003   -0.01     31.50   
   659. A(C   3,C   4,O  27)           63.95 -0.000003   -0.02     63.93   
   660. A(C   8,C   4,S  30)           52.04 -0.000007    0.03     52.07   
   661. A(C   3,C   4,H  15)          109.21 -0.000010    0.01    109.22   
   662. A(C   3,C   4,S  30)           64.67 -0.000003   -0.05     64.62   
   663. A(C   3,C   4,O  39)           62.59 -0.000004   -0.08     62.52   
   664. A(C   8,C   4,F  29)           55.16 -0.000006   -0.04     55.12   
   665. A(C   3,C   4,C  31)           61.32 -0.000004   -0.03     61.29   
   666. A(O  34,C   4,F  37)            5.57  0.000001    0.00      5.57   
   667. A(H  15,C   4,F  32)          107.65  0.000000    0.02    107.67   
   668. A(H  14,C   4,C  33)          146.12 -0.000002    0.01    146.13   
   669. A(H  15,C   4,O  39)          106.66 -0.000001    0.03    106.69   
   670. A(H  15,C   4,O  34)          106.12  0.000001   -0.04    106.08   
   671. A(C   3,C   4,F  28)           64.18 -0.000003   -0.05     64.13   
   672. A(C   8,C   4,S  35)           53.42 -0.000006    0.02     53.44   
   673. A(C   3,C   4,S  35)           63.09 -0.000004   -0.05     63.04   
   674. A(H  14,C   4,F  37)          145.34 -0.000004   -0.07    145.27   
   675. A(C   8,C   4,F  32)           54.22 -0.000007    0.02     54.24   
   676. A(H  14,C   4,O  39)          146.47 -0.000002   -0.02    146.45   
   677. A(H  15,C   4,S  30)          107.17  0.000001   -0.02    107.15   
   678. A(H  14,C   4,S  35)          145.38 -0.000003   -0.01    145.37   
   679. A(H  14,C   4,O  34)          146.34 -0.000002    0.05    146.39   
   680. A(C   8,C   4,O  25)           51.40 -0.000008    0.01     51.41   
   681. A(C   3,C   4,O  25)           64.68 -0.000003   -0.02     64.65   
   682. A(C   8,C   4,H  14)          109.10  0.000009    0.00    109.10   
   683. A(H  15,C   4,F  38)          105.51 -0.000001    0.01    105.52   
   684. A(H  14,C   4,F  26)          143.43 -0.000003   -0.04    143.39   
   685. A(H  14,C   4,H  15)          106.55  0.000005   -0.00    106.54   
   686. A(C   3,C   4,H  14)          109.84 -0.000005    0.02    109.86   
   687. A(C   3,C   4,C   8)          112.39 -0.000009   -0.03    112.36   
   688. A(H  14,C   4,S  30)          145.57 -0.000002    0.03    145.60   
   689. A(H  14,C   4,C  31)          144.41 -0.000004   -0.05    144.36   
   690. A(C   8,C   4,H  15)          109.57  0.000011    0.01    109.58   
   691. A(H  15,C   4,C  31)          108.84  0.000001    0.05    108.89   
   692. A(H  15,C   4,F  28)          107.12  0.000000   -0.01    107.11   
   693. A(H  15,C   4,S  35)          107.65  0.000000    0.01    107.66   
   694. A(C   8,C   4,C  31)           54.71 -0.000006   -0.02     54.69   
   695. A(C   8,C   4,O  39)           54.36 -0.000006    0.04     54.39   
   696. A(F  29,C   4,O  34)            5.94  0.000002    0.00      5.94   
   697. A(H  14,C   4,O  25)          144.04 -0.000003    0.03    144.06   
   698. A(C   3,C   4,F  37)           60.45 -0.000005   -0.05     60.40   
   699. A(C   3,C   4,O  34)           65.99 -0.000003   -0.06     65.92   
   700. A(H  15,C   4,F  26)          109.77  0.000001    0.04    109.81   
   701. A(H  14,C   4,F  28)          145.72 -0.000002    0.02    145.74   
   702. A(C   3,C   4,F  26)           61.57 -0.000005   -0.01     61.57   
   703. A(C   8,C   4,F  37)           55.92 -0.000006   -0.00     55.91   
   704. A(C   3,C   4,N  36)           63.75 -0.000003   -0.07     63.68   
   705. A(F  26,C   4,O  34)            5.19  0.000001    0.00      5.19   
   706. A(H  14,C   4,F  38)          147.50 -0.000002    0.00    147.50   
   707. A(C   8,C   4,O  34)           51.18 -0.000007    0.06     51.24   
   708. A(C   8,C   4,F  38)           53.98 -0.000007    0.05     54.03   
   709. A(C   3,C   4,F  38)           63.49 -0.000003   -0.08     63.41   
   710. A(C   8,C   4,F  26)           54.09 -0.000006   -0.04     54.05   
   711. A(C   8,C   4,F  28)           52.55 -0.000007    0.03     52.58   
   712. A(H  14,C   4,N  36)          146.22 -0.000002    0.01    146.23   
   713. A(H  15,C   4,C  33)          106.84  0.000000    0.00    106.84   
   714. A(C   8,C   4,C  33)           53.28 -0.000007    0.03     53.31   
   715. A(C   3,C   4,C  33)           63.58 -0.000003   -0.06     63.52   
   716. A(H  15,C   4,F  29)          109.65  0.000001    0.06    109.71   
   717. A(H  14,C   4,F  32)          145.50 -0.000003   -0.01    145.48   
   718. A(C   3,C   4,F  32)           62.29 -0.000003   -0.05     62.24   
   719. A(H  14,C   4,F  29)          143.67 -0.000004   -0.06    143.61   
   720. A(C   3,C   4,F  29)           60.55 -0.000005   -0.02     60.53   
   721. A(H  15,C   4,N  36)          106.72  0.000000    0.00    106.72   
   722. A(C   8,C   4,N  36)           53.17 -0.000007    0.04     53.21   
   723. A(H  14,C   4,O  27)          144.14 -0.000003    0.01    144.16   
   724. A(H  15,C   4,O  27)          108.70  0.000001   -0.01    108.69   
   725. A(C   8,C   4,O  27)           52.12 -0.000007   -0.00     52.12   
   726. A(H  15,C   4,F  37)          108.01  0.000000    0.07    108.08   
   727. A(H  15,C   4,O  25)          108.66  0.000002   -0.02    108.63   
   728. A(H  16,C   5,C  31)          104.57  0.000003    0.01    104.58   
   729. A(N   0,C   5,C  31)           22.62 -0.000001   -0.00     22.61   
   730. A(N   0,C   5,F  38)           25.93  0.000001    0.00     25.94   
   731. A(H  16,C   5,F  38)          101.22  0.000001   -0.01    101.21   
   732. A(N   1,C   5,F  26)          128.21  0.000002   -0.02    128.19   
   733. A(H  16,C   5,O  25)          103.68  0.000003   -0.04    103.64   
   734. A(N   1,C   5,O  25)          129.32  0.000002    0.02    129.35   
   735. A(N   1,C   5,F  28)          130.77  0.000003    0.01    130.78   
   736. A(H  16,C   5,O  27)          103.83  0.000002   -0.03    103.80   
   737. A(H  16,C   5,S  35)          103.11  0.000002   -0.01    103.10   
   738. A(N   1,C   5,H  16)          125.54 -0.000007    0.00    125.54   
   739. A(N   1,C   5,F  38)          132.28  0.000004    0.00    132.28   
   740. A(N   1,C   5,F  32)          130.21  0.000003   -0.00    130.21   
   741. A(N   0,C   5,C  33)           25.09  0.000000    0.01     25.10   
   742. A(H  16,C   5,F  32)          103.36  0.000002   -0.01    103.35   
   743. A(N   0,C   5,F  32)           23.85 -0.000000    0.01     23.86   
   744. A(H  16,C   5,F  29)          105.44  0.000004    0.02    105.45   
   745. A(N   1,C   5,F  29)          128.28  0.000001   -0.03    128.24   
   746. A(N   0,C   5,F  29)           21.68 -0.000002   -0.00     21.68   
   747. A(N   1,C   5,C  33)          131.03  0.000003    0.01    131.03   
   748. A(N   1,C   5,S  35)          130.28  0.000003   -0.00    130.28   
   749. A(N   0,C   5,O  25)           24.61 -0.000000    0.03     24.65   
   750. A(N   0,C   5,O  34)           26.95 -0.000000    0.03     26.98   
   751. A(N   1,C   5,O  34)          131.73  0.000002    0.03    131.76   
   752. A(N   1,C   5,S  30)          130.74  0.000003    0.02    130.76   
   753. A(N   0,C   5,S  30)           25.53  0.000000    0.02     25.56   
   754. A(H  16,C   5,O  39)          102.34  0.000002    0.01    102.35   
   755. A(N   0,C   5,H  16)          125.51  0.000004    0.01    125.51   
   756. A(H  16,C   5,O  34)          101.17  0.000002   -0.04    101.13   
   757. A(F  29,C   5,O  34)            5.52  0.000002    0.00      5.53   
   758. A(N   0,C   5,S  35)           24.41 -0.000000    0.01     24.42   
   759. A(N   1,C   5,O  39)          131.20  0.000003   -0.02    131.19   
   760. A(N   0,C   5,O  39)           24.83  0.000000   -0.01     24.81   
   761. A(H  16,C   5,F  26)          105.34  0.000003   -0.00    105.34   
   762. A(N   0,C   5,F  26)           22.11 -0.000001    0.01     22.13   
   763. A(N   1,C   5,C  31)          129.07  0.000002   -0.03    129.05   
   764. A(N   0,C   5,F  28)           25.22  0.000000    0.02     25.23   
   765. A(H  16,C   5,S  30)          102.38  0.000002   -0.03    102.35   
   766. A(O  34,C   5,F  37)            5.24  0.000001    0.00      5.24   
   767. A(N   0,C   5,O  27)           24.25 -0.000001    0.03     24.28   
   768. A(H  16,C   5,N  36)          102.17  0.000002   -0.02    102.15   
   769. A(N   1,C   5,N  36)          131.17  0.000003    0.00    131.17   
   770. A(N   0,C   5,N  36)           25.34 -0.000000    0.01     25.35   
   771. A(H  16,C   5,F  28)          102.48  0.000002   -0.03    102.46   
   772. A(H  16,C   5,C  33)          102.36  0.000002   -0.02    102.34   
   773. A(H  16,C   5,F  37)          104.05  0.000004    0.03    104.08   
   774. A(N   1,C   5,F  37)          129.78  0.000002   -0.04    129.74   
   775. A(N   0,C   5,F  37)           22.72 -0.000001   -0.02     22.69   
   776. A(N   0,C   5,N   1)          108.95  0.000002   -0.01    108.94   
   777. A(N   1,C   5,O  27)          129.31  0.000002    0.01    129.32   
   778. A(H  17,C   6,F  38)           40.85  0.000004   -0.01     40.84   
   779. A(H  17,C   6,O  27)           38.80  0.000003    0.01     38.82   
   780. A(C   7,C   6,O  27)          163.05 -0.000000   -0.01    163.04   
   781. A(N   0,C   6,O  27)           85.14  0.000000   -0.02     85.12   
   782. A(N   0,C   6,F  38)           82.52 -0.000001   -0.00     82.52   
   783. A(H  17,C   6,F  29)           36.62  0.000002   -0.03     36.60   
   784. A(C   7,C   6,F  29)          163.68 -0.000000   -0.06    163.62   
   785. A(N   0,C   6,F  29)           86.61  0.000001    0.03     86.64   
   786. A(N   0,C   6,H  17)          122.17  0.000004   -0.00    122.17   
   787. A(H  17,C   6,F  26)           36.82  0.000002   -0.01     36.81   
   788. A(C   7,C   6,F  26)          163.13  0.000000   -0.04    163.09   
   789. A(N   0,C   6,F  26)           86.64  0.000001    0.01     86.65   
   790. A(C   7,C   6,O  39)          165.69  0.000001   -0.02    165.68   
   791. A(H  17,C   6,F  28)           39.80  0.000003    0.00     39.81   
   792. A(C   7,C   6,O  25)          162.67 -0.000001   -0.00    162.67   
   793. A(C   7,C   6,N  36)          165.01  0.000000   -0.00    165.00   
   794. A(O  34,C   6,F  37)            5.30  0.000001    0.00      5.31   
   795. A(H  17,C   6,O  39)           39.88  0.000004   -0.03     39.85   
   796. A(C   7,C   6,F  28)          164.37  0.000000   -0.00    164.37   
   797. A(N   0,C   6,F  28)           83.92 -0.000000   -0.01     83.91   
   798. A(H  17,C   6,F  37)           37.82  0.000002   -0.04     37.78   
   799. A(C   7,C   6,F  37)          165.29  0.000000   -0.05    165.24   
   800. A(N   0,C   6,F  37)           85.21  0.000001    0.04     85.25   
   801. A(C   7,C   6,F  38)          166.27  0.000001   -0.00    166.27   
   802. A(C   7,C   6,F  32)          164.84  0.000000   -0.01    164.83   
   803. A(C   7,C   6,C  31)          164.16 -0.000000   -0.04    164.11   
   804. A(H  17,C   6,F  32)           38.67  0.000003   -0.01     38.66   
   805. A(H  17,C   6,C  33)           39.84  0.000004   -0.00     39.83   
   806. A(N   0,C   6,C  33)           83.72 -0.000000   -0.01     83.71   
   807. A(H  17,C   6,C  31)           37.52  0.000002   -0.02     37.50   
   808. A(N   0,C   6,C  31)           85.78  0.000001    0.02     85.80   
   809. A(N   0,C   6,F  32)           84.68 -0.000000    0.00     84.68   
   810. A(H  17,C   6,O  34)           41.48  0.000003    0.02     41.50   
   811. A(C   7,C   6,O  34)          164.17 -0.000000    0.02    164.19   
   812. A(N   0,C   6,O  34)           82.61  0.000000   -0.03     82.58   
   813. A(H  17,C   6,O  25)           38.96  0.000003    0.02     38.98   
   814. A(N   0,C   6,O  25)           85.15  0.000001   -0.03     85.12   
   815. A(C   7,C   6,H  17)          130.65 -0.000004    0.01    130.66   
   816. A(F  29,C   6,O  34)            5.54  0.000002    0.00      5.54   
   817. A(H  17,C   6,S  30)           40.12  0.000003    0.01     40.12   
   818. A(C   7,C   6,S  30)          164.05 -0.000000    0.00    164.06   
   819. A(H  17,C   6,S  35)           39.23  0.000003   -0.01     39.23   
   820. A(C   7,C   6,S  35)          164.49  0.000000   -0.02    164.48   
   821. A(N   0,C   6,S  35)           84.34 -0.000000    0.00     84.34   
   822. A(N   0,C   6,S  30)           83.77 -0.000000   -0.02     83.75   
   823. A(N   0,C   6,C   7)          107.18 -0.000000   -0.01    107.18   
   824. A(N   0,C   6,N  36)           83.45 -0.000000   -0.00     83.44   
   825. A(C   7,C   6,C  33)          164.97  0.000000   -0.00    164.96   
   826. A(H  17,C   6,N  36)           40.15  0.000003   -0.01     40.15   
   827. A(N   0,C   6,O  39)           83.47 -0.000001    0.02     83.49   
   828. A(H  18,C   7,O  34)          120.75 -0.000003    0.04    120.78   
   829. A(H  18,C   7,F  32)          118.96 -0.000003    0.00    118.96   
   830. A(O  34,C   7,F  37)            5.18  0.000001    0.00      5.18   
   831. A(N   1,C   7,S  35)          117.66  0.000006   -0.00    117.66   
   832. A(C   6,C   7,F  29)           15.92  0.000000    0.05     15.97   
   833. A(C   6,C   7,F  28)           15.27 -0.000000    0.00     15.27   
   834. A(N   1,C   7,F  29)          120.04  0.000008    0.02    120.06   
   835. A(H  18,C   7,F  38)          121.04 -0.000002    0.01    121.05   
   836. A(N   1,C   7,F  38)          115.98  0.000005   -0.00    115.98   
   837. A(C   6,C   7,O  27)           16.52  0.000000    0.01     16.53   
   838. A(N   1,C   7,O  27)          118.28  0.000007   -0.02    118.26   
   839. A(H  18,C   7,C  33)          119.83 -0.000003    0.01    119.85   
   840. A(C   6,C   7,C  33)           14.68 -0.000000    0.00     14.69   
   841. A(N   1,C   7,C  33)          117.07  0.000006   -0.01    117.06   
   842. A(C   6,C   7,F  32)           14.81 -0.000000    0.01     14.82   
   843. A(N   1,C   7,F  32)          118.12  0.000006   -0.00    118.11   
   844. A(H  18,C   7,F  28)          119.58 -0.000003    0.02    119.60   
   845. A(H  18,C   7,O  27)          118.37 -0.000003    0.02    118.39   
   846. A(C   6,C   7,S  35)           15.12 -0.000000    0.02     15.14   
   847. A(F  29,C   7,O  34)            5.40  0.000002    0.00      5.41   
   848. A(C   6,C   7,O  34)           15.46  0.000000   -0.02     15.44   
   849. A(N   1,C   7,O  34)          115.73  0.000007   -0.03    115.70   
   850. A(N   1,C   7,O  25)          118.23  0.000007   -0.03    118.19   
   851. A(H  18,C   7,F  29)          117.15 -0.000005   -0.03    117.12   
   852. A(H  18,C   7,S  30)          119.69 -0.000003    0.02    119.72   
   853. A(C   6,C   7,S  30)           15.57  0.000000   -0.00     15.57   
   854. A(N   1,C   7,S  30)          116.97  0.000006   -0.02    116.95   
   855. A(H  18,C   7,O  39)          120.15 -0.000003   -0.01    120.14   
   856. A(C   6,C   7,O  39)           13.94 -0.000001    0.02     13.96   
   857. A(N   1,C   7,O  39)          116.91  0.000006    0.01    116.92   
   858. A(C   6,C   7,F  38)           13.41 -0.000001    0.00     13.41   
   859. A(H  18,C   7,F  26)          117.05 -0.000004   -0.01    117.04   
   860. A(C   6,C   7,F  26)           16.46 -0.000000    0.04     16.50   
   861. A(N   1,C   7,F  26)          119.98  0.000007    0.01    119.99   
   862. A(H  18,C   7,N  36)          120.09 -0.000003    0.01    120.10   
   863. A(C   6,C   7,N  36)           14.63 -0.000000    0.00     14.63   
   864. A(N   1,C   7,N  36)          116.78  0.000006   -0.01    116.77   
   865. A(C   6,C   7,O  25)           16.92  0.000001    0.00     16.92   
   866. A(N   1,C   7,C   6)          107.05  0.000007    0.00    107.05   
   867. A(H  18,C   7,O  25)          118.31 -0.000004    0.03    118.34   
   868. A(N   1,C   7,F  28)          117.20  0.000006   -0.02    117.19   
   869. A(H  18,C   7,F  37)          118.55 -0.000004   -0.04    118.51   
   870. A(C   6,C   7,F  37)           14.35 -0.000000    0.05     14.40   
   871. A(N   1,C   7,F  37)          118.76  0.000007    0.03    118.80   
   872. A(C   6,C   7,H  18)          130.81 -0.000005   -0.00    130.80   
   873. A(H  18,C   7,S  35)          119.24 -0.000003    0.00    119.25   
   874. A(H  18,C   7,C  31)          117.93 -0.000004   -0.02    117.91   
   875. A(C   6,C   7,C  31)           15.45  0.000000    0.04     15.50   
   876. A(N   1,C   7,C  31)          119.20  0.000007    0.02    119.22   
   877. A(N   1,C   7,H  18)          122.14 -0.000002    0.00    122.14   
   878. A(H  21,C   8,F  38)          118.90  0.000002    0.04    118.94   
   879. A(H  20,C   8,F  38)           32.59 -0.000004   -0.01     32.58   
   880. A(H  19,C   8,F  38)           75.20 -0.000000    0.00     75.21   
   881. A(C   4,C   8,F  38)          124.72  0.000007   -0.05    124.66   
   882. A(H  21,C   8,F  32)          120.15  0.000002    0.01    120.16   
   883. A(H  20,C   8,F  32)           34.74 -0.000003    0.01     34.74   
   884. A(H  19,C   8,F  32)           73.07 -0.000001   -0.01     73.06   
   885. A(C   4,C   8,F  32)          124.47  0.000007   -0.02    124.45   
   886. A(H  21,C   8,C  33)          118.83  0.000002    0.02    118.85   
   887. A(H  20,C   8,C  33)           33.96 -0.000003   -0.01     33.94   
   888. A(H  19,C   8,C  33)           73.84 -0.000001    0.01     73.84   
   889. A(C   4,C   8,C  33)          125.43  0.000008   -0.03    125.39   
   890. A(H  21,C   8,F  26)          120.97  0.000003   -0.04    120.93   
   891. A(C   4,C   8,F  26)          124.55  0.000006    0.04    124.59   
   892. A(H  21,C   8,S  35)          119.43  0.000002    0.01    119.44   
   893. A(H  19,C   8,S  35)           73.06 -0.000001   -0.01     73.05   
   894. A(H  19,C   8,F  26)           70.95 -0.000002   -0.04     70.91   
   895. A(H  20,C   8,N  36)           33.82 -0.000003   -0.01     33.81   
   896. A(H  19,C   8,N  36)           73.98 -0.000001    0.01     73.98   
   897. A(C   4,C   8,N  36)          125.47  0.000007   -0.04    125.43   
   898. A(H  21,C   8,F  37)          122.08  0.000003    0.01    122.10   
   899. A(H  20,C   8,F  37)           35.10 -0.000003    0.06     35.16   
   900. A(H  19,C   8,F  37)           72.81 -0.000002   -0.07     72.74   
   901. A(C   4,C   8,F  37)          122.68  0.000006    0.00    122.68   
   902. A(H  21,C   8,F  29)          122.05  0.000003   -0.03    122.03   
   903. A(H  20,C   8,S  35)           34.74 -0.000003   -0.00     34.73   
   904. A(H  20,C   8,F  29)           36.75 -0.000002    0.05     36.80   
   905. A(H  19,C   8,F  29)           71.13 -0.000003   -0.06     71.07   
   906. A(C   4,C   8,F  29)          123.40  0.000006    0.04    123.44   
   907. A(H  21,C   8,O  27)          118.59  0.000002   -0.02    118.57   
   908. A(H  20,C   8,O  27)           35.87 -0.000002   -0.03     35.85   
   909. A(H  19,C   8,O  27)           71.94 -0.000002    0.02     71.96   
   910. A(H  21,C   8,N  36)          118.73  0.000002    0.02    118.75   
   911. A(C   4,C   8,O  27)          126.49  0.000007    0.00    126.49   
   912. A(H  20,C   8,H  21)          107.77  0.000015   -0.00    107.77   
   913. A(F  26,C   8,O  34)            5.29  0.000001    0.00      5.29   
   914. A(O  34,C   8,F  37)            5.70  0.000001    0.00      5.70   
   915. A(C  31,C   8,O  34)            5.09  0.000001    0.00      5.10   
   916. A(F  29,C   8,O  34)            6.09  0.000002    0.00      6.09   
   917. A(H  21,C   8,O  34)          116.41  0.000002    0.02    116.43   
   918. A(H  20,C   8,O  34)           33.44 -0.000002   -0.06     33.38   
   919. A(H  19,C   8,O  34)           74.47 -0.000002    0.05     74.52   
   920. A(C   4,C   8,O  34)          127.53  0.000007   -0.06    127.47   
   921. A(H  21,C   8,O  25)          117.78  0.000001   -0.02    117.76   
   922. A(H  20,C   8,O  25)           35.92 -0.000002   -0.04     35.88   
   923. A(H  19,C   8,H  21)          107.76 -0.000007   -0.00    107.76   
   924. A(H  19,C   8,O  25)           71.93 -0.000002    0.03     71.96   
   925. A(C   4,C   8,O  25)          127.30  0.000008   -0.01    127.30   
   926. A(C   4,C   8,H  21)          111.05 -0.000006    0.02    111.07   
   927. A(H  21,C   8,F  28)          118.21  0.000002    0.01    118.22   
   928. A(H  20,C   8,F  28)           34.29 -0.000003   -0.02     34.27   
   929. A(H  19,C   8,F  28)           73.52 -0.000001    0.02     73.54   
   930. A(C   4,C   8,F  28)          126.19  0.000007   -0.03    126.16   
   931. A(H  21,C   8,O  39)          119.95  0.000003    0.04    119.98   
   932. A(H  19,C   8,H  20)          107.80 -0.000004   -0.01    107.79   
   933. A(H  20,C   8,O  39)           33.70 -0.000004    0.02     33.72   
   934. A(H  21,C   8,C  31)          121.24  0.000003   -0.01    121.22   
   935. A(H  20,C   8,C  31)           35.92 -0.000002    0.04     35.96   
   936. A(H  19,C   8,O  39)           74.11 -0.000001   -0.02     74.09   
   937. A(H  19,C   8,C  31)           71.92 -0.000002   -0.04     71.88   
   938. A(C   4,C   8,O  39)          124.20  0.000006   -0.04    124.17   
   939. A(H  21,C   8,S  30)          117.77  0.000001    0.01    117.78   
   940. A(C   4,C   8,C  31)          123.89  0.000006    0.02    123.91   
   941. A(H  20,C   8,S  30)           34.37 -0.000002   -0.04     34.34   
   942. A(C   4,C   8,H  20)          111.12 -0.000000    0.00    111.12   
   943. A(H  19,C   8,S  30)           73.46 -0.000001    0.03     73.48   
   944. A(C   4,C   8,S  30)          126.65  0.000008   -0.03    126.61   
   945. A(C   4,C   8,H  19)          111.18  0.000002   -0.01    111.17   
   946. A(C   4,C   8,S  35)          125.18  0.000007   -0.02    125.16   
   947. A(H  20,C   8,F  26)           36.87 -0.000003    0.03     36.90   
   948. A(N   1,C   9,C  33)           11.74 -0.000002   -0.00     11.74   
   949. A(H  24,C   9,F  28)          121.69  0.000002    0.01    121.69   
   950. A(H  22,C   9,F  28)          102.01  0.000003   -0.01    102.00   
   951. A(N   1,C   9,F  28)           12.17 -0.000002    0.00     12.17   
   952. A(H  23,C   9,F  38)          105.34  0.000002    0.04    105.38   
   953. A(H  22,C   9,F  38)          100.80  0.000002   -0.00    100.80   
   954. A(N   1,C   9,F  38)           11.96 -0.000002   -0.01     11.95   
   955. A(H  23,C   9,O  25)          102.13  0.000000    0.02    102.16   
   956. A(H  22,C   9,F  32)          102.85  0.000003    0.00    102.86   
   957. A(N   1,C   9,F  32)           10.49 -0.000002   -0.00     10.49   
   958. A(O  34,C   9,F  37)            5.03  0.000001    0.00      5.03   
   959. A(H  23,C   9,C  33)          104.29  0.000001    0.03    104.32   
   960. A(F  29,C   9,O  34)            5.28  0.000002    0.00      5.28   
   961. A(H  24,C   9,O  34)          123.46  0.000002    0.00    123.47   
   962. A(H  23,C   9,O  34)          103.00  0.000001    0.05    103.05   
   963. A(N   1,C   9,O  34)           13.98 -0.000002   -0.00     13.98   
   964. A(H  24,C   9,O  25)          122.08  0.000002    0.03    122.11   
   965. A(H  22,C   9,O  25)          103.11  0.000004   -0.03    103.09   
   966. A(N   1,C   9,O  25)           12.56 -0.000002    0.02     12.58   
   967. A(H  24,C   9,S  30)          122.22  0.000002    0.01    122.22   
   968. A(H  22,C   9,S  30)          101.87  0.000003   -0.02    101.85   
   969. A(H  22,C   9,F  37)          103.49  0.000004    0.04    103.53   
   970. A(H  24,C   9,F  26)          119.26  0.000000    0.03    119.29   
   971. A(H  23,C   9,F  26)          103.60  0.000002   -0.02    103.58   
   972. A(H  22,C   9,F  26)          104.72  0.000004    0.01    104.73   
   973. A(N   1,C   9,F  26)            9.76 -0.000004    0.03      9.78   
   974. A(H  22,C   9,C  33)          101.88  0.000003   -0.01    101.88   
   975. A(H  24,C   9,N  36)          121.47  0.000001   -0.00    121.47   
   976. A(H  23,C   9,N  36)          104.22  0.000002    0.03    104.25   
   977. A(H  22,C   9,N  36)          101.66  0.000003   -0.00    101.66   
   978. A(N   1,C   9,N  36)           12.01 -0.000002   -0.01     12.00   
   979. A(H  24,C   9,F  37)          118.44  0.000000    0.00    118.44   
   980. A(H  23,C   9,F  37)          105.69  0.000002   -0.01    105.67   
   981. A(N   1,C   9,F  37)            8.97 -0.000004   -0.01      8.96   
   982. A(H  24,C   9,F  32)          120.00  0.000002    0.01    120.00   
   983. A(H  23,C   9,F  28)          103.66  0.000002    0.03    103.69   
   984. A(H  24,C   9,C  31)          119.17  0.000000    0.02    119.19   
   985. A(H  22,C   9,C  31)          103.97  0.000004    0.02    103.99   
   986. A(N   1,C   9,C  31)            9.62 -0.000003    0.01      9.63   
   987. A(H  23,C   9,H  24)          109.92 -0.000006   -0.01    109.91   
   988. A(H  22,C   9,H  24)          109.46 -0.000002   -0.01    109.45   
   989. A(N   1,C   9,H  24)          109.55  0.000004    0.01    109.55   
   990. A(H  22,C   9,H  23)          109.44  0.000003   -0.01    109.43   
   991. A(H  22,C   9,O  34)          100.71  0.000004   -0.03    100.68   
   992. A(H  24,C   9,S  35)          120.88  0.000001    0.01    120.89   
   993. A(H  23,C   9,S  35)          104.01  0.000002    0.02    104.02   
   994. A(H  22,C   9,S  35)          102.55  0.000003    0.00    102.55   
   995. A(N   1,C   9,S  35)           11.36 -0.000003   -0.00     11.36   
   996. A(H  24,C   9,O  27)          121.56  0.000001    0.03    121.59   
   997. A(N   1,C   9,H  23)          109.46 -0.000001    0.01    109.47   
   998. A(H  23,C   9,O  27)          102.61  0.000001    0.01    102.62   
   999. A(H  22,C   9,O  27)          103.22  0.000004   -0.02    103.20   
  1000. A(N   1,C   9,O  27)           12.03 -0.000002    0.02     12.05   
  1001. A(H  24,C   9,F  29)          118.46 -0.000000    0.03    118.48   
  1002. A(H  23,C   9,F  29)          104.39  0.000001   -0.03    104.37   
  1003. A(H  22,C   9,F  29)          104.79  0.000005    0.02    104.82   
  1004. A(N   1,C   9,F  29)            8.92 -0.000004    0.02      8.94   
  1005. A(N   1,C   9,H  22)          109.00  0.000002    0.01    109.01   
  1006. A(H  24,C   9,O  39)          120.55  0.000001   -0.01    120.53   
  1007. A(H  23,C   9,O  39)          105.08  0.000002    0.02    105.10   
  1008. A(H  22,C   9,O  39)          101.81  0.000003    0.02    101.82   
  1009. A(N   1,C   9,O  39)           11.16 -0.000003   -0.02     11.14   
  1010. A(H  23,C   9,F  32)          104.65  0.000001    0.02    104.67   
  1011. A(H  24,C   9,F  38)          121.20  0.000002   -0.01    121.19   
  1012. A(H  23,C   9,S  30)          103.22  0.000001    0.03    103.26   
  1013. A(N   1,C   9,S  30)           12.69 -0.000002    0.00     12.69   
  1014. A(H  24,C   9,C  33)          121.21  0.000002    0.00    121.22   
  1015. A(H  23,C   9,C  31)          104.44  0.000002   -0.01    104.43   
  1016. A(C   2,O  25,S  30)           83.63  0.000008   -0.07     83.56   
  1017. A(C   9,O  25,S  30)           85.13  0.000008   -0.07     85.06   
  1018. A(C   4,O  25,S  30)           84.23  0.000007   -0.02     84.21   
  1019. A(N   1,O  25,S  30)           85.14  0.000008   -0.07     85.07   
  1020. A(C   7,O  25,S  30)           86.18  0.000007   -0.08     86.10   
  1021. A(C   5,O  25,S  30)           84.13  0.000008   -0.07     84.06   
  1022. A(C   3,O  25,S  30)           84.21  0.000007   -0.05     84.16   
  1023. A(C   6,O  25,S  30)           85.80  0.000007   -0.08     85.72   
  1024. A(C   8,O  25,S  30)           84.76  0.000007    0.00     84.76   
  1025. A(N   0,O  25,S  30)           84.49  0.000008   -0.07     84.41   
  1026. A(C   6,F  26,C  31)           45.33 -0.000005   -0.02     45.31   
  1027. A(C   3,F  26,C  31)           44.12 -0.000005    0.02     44.14   
  1028. A(N   0,F  26,C  31)           44.12 -0.000005   -0.00     44.11   
  1029. A(C   8,F  26,C  31)           45.30 -0.000006    0.08     45.39   
  1030. A(C   9,F  26,C  31)           44.85 -0.000005    0.00     44.85   
  1031. A(N   1,F  26,C  31)           44.80 -0.000005   -0.00     44.80   
  1032. A(C   2,F  26,C  31)           43.29 -0.000005    0.00     43.29   
  1033. A(C   7,F  26,C  31)           45.74 -0.000005   -0.02     45.72   
  1034. A(C   5,F  26,C  31)           43.85 -0.000005    0.00     43.85   
  1035. A(C   4,F  26,C  31)           44.48 -0.000005    0.06     44.53   
  1036. A(C   6,O  27,S  35)          107.03 -0.000003   -0.00    107.03   
  1037. A(N   1,O  27,S  35)          106.90 -0.000003    0.01    106.91   
  1038. A(N   0,O  27,S  35)          106.22 -0.000003    0.02    106.23   
  1039. A(C   7,O  27,S  35)          107.44 -0.000003   -0.01    107.43   
  1040. A(C   3,O  27,S  35)          106.76 -0.000004    0.04    106.80   
  1041. A(C   5,O  27,S  35)          106.17 -0.000003    0.03    106.20   
  1042. A(C   8,O  27,S  35)          108.81 -0.000005    0.09    108.91   
  1043. A(C   9,O  27,S  35)          107.07 -0.000003    0.02    107.08   
  1044. A(C   2,O  27,S  35)          105.56 -0.000003    0.03    105.59   
  1045. A(C   4,O  27,S  35)          107.65 -0.000004    0.07    107.72   
  1046. A(C   9,F  28,C  33)           30.34 -0.000006    0.01     30.35   
  1047. A(N   1,F  28,C  33)           30.14 -0.000006    0.01     30.15   
  1048. A(C   7,F  28,C  33)           30.34 -0.000006   -0.00     30.34   
  1049. A(C   5,F  28,C  33)           29.75 -0.000006    0.02     29.76   
  1050. A(C   6,F  28,C  33)           30.03 -0.000006    0.00     30.03   
  1051. A(N   0,F  28,C  33)           29.64 -0.000006    0.01     29.65   
  1052. A(C   2,F  28,C  33)           29.27 -0.000006    0.02     29.30   
  1053. A(C   4,F  28,C  33)           31.66 -0.000007    0.04     31.70   
  1054. A(C   3,F  28,C  33)           30.51 -0.000006    0.03     30.54   
  1055. A(C   8,F  28,C  33)           32.89 -0.000007    0.05     32.94   
  1056. A(C   6,F  29,C   8)            5.08 -0.000002   -0.01      5.08   
  1057. A(C   6,F  29,C  31)          140.78 -0.000015   -0.01    140.77   
  1058. A(N   1,F  29,C  31)          139.81 -0.000015   -0.01    139.80   
  1059. A(N   0,F  29,C  31)          139.41 -0.000015   -0.02    139.39   
  1060. A(C   3,F  29,C  31)          138.08 -0.000014   -0.01    138.08   
  1061. A(C   7,F  29,C   8)            5.13 -0.000002   -0.01      5.12   
  1062. A(C   7,F  29,C  31)          141.00 -0.000015   -0.01    141.00   
  1063. A(C   5,F  29,C  31)          138.87 -0.000015   -0.02    138.85   
  1064. A(C   8,F  29,C  31)          136.28 -0.000014    0.04    136.33   
  1065. A(C   9,F  29,C  31)          139.63 -0.000014   -0.01    139.62   
  1066. A(C   2,F  29,C  31)          138.63 -0.000015   -0.03    138.59   
  1067. A(C   4,F  29,C  31)          136.95 -0.000014    0.01    136.96   
  1068. A(O  34,S  30,N  36)          111.10  0.000007   -0.02    111.08   
  1069. A(C  33,S  30,N  36)           98.92 -0.000020    0.01     98.92   
  1070. A(O  25,S  30,N  36)          116.83 -0.000007   -0.04    116.79   
  1071. A(C   2,S  30,N  36)           39.27  0.000013   -0.01     39.25   
  1072. A(C   2,S  30,O  34)           99.43 -0.000000   -0.15     99.28   
  1073. A(C   9,S  30,N  36)           40.44  0.000013   -0.03     40.41   
  1074. A(C   2,S  30,C  33)          137.81 -0.000005    0.02    137.82   
  1075. A(C   9,S  30,C  33)          138.80 -0.000005    0.00    138.80   
  1076. A(C   2,S  30,O  25)           94.84 -0.000008    0.07     94.92   
  1077. A(C   9,S  30,O  25)           93.47 -0.000008    0.07     93.54   
  1078. A(N   1,S  30,O  25)           93.43 -0.000008    0.07     93.50   
  1079. A(O  25,S  30,O  34)          118.86  0.000006    0.01    118.87   
  1080. A(N   1,S  30,N  36)           40.22  0.000013   -0.03     40.18   
  1081. A(N   1,S  30,O  34)          100.07 -0.000000   -0.14     99.93   
  1082. A(C   4,S  30,N  36)           41.74  0.000013    0.01     41.75   
  1083. A(N   1,S  30,C  33)          138.53 -0.000005    0.00    138.53   
  1084. A(C   4,S  30,O  34)           97.44  0.000001   -0.12     97.32   
  1085. A(C   4,S  30,C  33)          140.43 -0.000006    0.03    140.46   
  1086. A(C   4,S  30,O  25)           94.24 -0.000008    0.02     94.26   
  1087. A(O  25,S  30,C  33)          104.39  0.000012    0.04    104.43   
  1088. A(C   7,S  30,O  34)          101.14 -0.000001   -0.13    101.01   
  1089. A(C   7,S  30,C  33)          138.43 -0.000005   -0.01    138.42   
  1090. A(C   7,S  30,O  25)           92.36 -0.000008    0.08     92.44   
  1091. A(C   5,S  30,N  36)           39.79  0.000013   -0.02     39.77   
  1092. A(C   5,S  30,O  34)           99.37 -0.000000   -0.15     99.22   
  1093. A(C   5,S  30,C  33)          138.30 -0.000005    0.01    138.31   
  1094. A(C   5,S  30,O  25)           94.41 -0.000008    0.07     94.48   
  1095. A(C   7,S  30,N  36)           40.42  0.000013   -0.05     40.37   
  1096. A(C   3,S  30,N  36)           40.55  0.000013   -0.01     40.54   
  1097. A(C   3,S  30,O  34)           98.74  0.000000   -0.14     98.60   
  1098. A(C   3,S  30,C  33)          139.11 -0.000006    0.02    139.13   
  1099. A(C   3,S  30,O  25)           94.24 -0.000008    0.05     94.29   
  1100. A(C   6,S  30,N  36)           40.08  0.000013   -0.05     40.03   
  1101. A(C   6,S  30,O  34)          101.09 -0.000001   -0.13    100.96   
  1102. A(C  33,S  30,O  34)          103.25 -0.000002    0.02    103.27   
  1103. A(C   6,S  30,C  33)          138.15 -0.000005   -0.01    138.14   
  1104. A(C   6,S  30,O  25)           92.71 -0.000008    0.08     92.79   
  1105. A(C   8,S  30,N  36)           43.03  0.000012    0.02     43.04   
  1106. A(C   8,S  30,O  34)           96.69  0.000001   -0.10     96.59   
  1107. A(C   8,S  30,C  33)          141.74 -0.000007    0.03    141.77   
  1108. A(C   8,S  30,O  25)           93.68 -0.000008   -0.00     93.68   
  1109. A(N   0,S  30,N  36)           39.67  0.000013   -0.03     39.64   
  1110. A(N   0,S  30,O  34)           99.96 -0.000000   -0.14     99.81   
  1111. A(N   0,S  30,C  33)          138.07 -0.000005    0.01    138.08   
  1112. A(N   0,S  30,O  25)           94.02 -0.000008    0.07     94.10   
  1113. A(C   9,S  30,O  34)           99.77 -0.000000   -0.14     99.64   
  1114. A(C   5,C  31,S  35)           71.42  0.000007   -0.05     71.37   
  1115. A(C   5,C  31,F  29)           40.20  0.000014    0.02     40.22   
  1116. A(C   5,C  31,F  26)          135.17  0.000005   -0.00    135.17   
  1117. A(F  29,C  31,F  37)          107.65 -0.000008   -0.00    107.65   
  1118. A(F  26,C  31,F  37)          108.07 -0.000001    0.01    108.08   
  1119. A(C   2,C  31,F  37)          111.19 -0.000005    0.00    111.20   
  1120. A(C   2,C  31,S  35)           71.39  0.000007   -0.06     71.33   
  1121. A(C   2,C  31,F  29)           40.39  0.000014    0.03     40.43   
  1122. A(C   2,C  31,F  26)          135.70  0.000005   -0.00    135.69   
  1123. A(F  29,C  31,S  35)          109.76  0.000022   -0.02    109.74   
  1124. A(F  26,C  31,S  35)          112.10  0.000004    0.03    112.13   
  1125. A(C   4,C  31,F  37)          113.44 -0.000006    0.04    113.48   
  1126. A(C   4,C  31,S  35)           69.14  0.000008   -0.02     69.11   
  1127. A(C   4,C  31,F  29)           42.04  0.000013   -0.01     42.02   
  1128. A(C   4,C  31,F  26)          134.49  0.000005   -0.06    134.43   
  1129. A(C   9,C  31,F  37)          112.43 -0.000005   -0.01    112.42   
  1130. A(C   9,C  31,S  35)           71.88  0.000007   -0.04     71.84   
  1131. A(C   9,C  31,F  29)           39.49  0.000014    0.01     39.50   
  1132. A(C   9,C  31,F  26)          134.20  0.000005   -0.00    134.19   
  1133. A(F  26,C  31,F  29)          107.86 -0.000007   -0.01    107.85   
  1134. A(C   6,C  31,F  37)          112.37 -0.000005   -0.03    112.34   
  1135. A(C   6,C  31,S  35)           73.03  0.000007   -0.03     73.00   
  1136. A(C   6,C  31,F  29)           38.30  0.000014    0.01     38.31   
  1137. A(C   6,C  31,F  26)          133.65  0.000005    0.02    133.66   
  1138. A(N   0,C  31,F  37)          111.72 -0.000005   -0.01    111.71   
  1139. A(N   0,C  31,S  35)           71.94  0.000007   -0.05     71.89   
  1140. A(N   0,C  31,F  29)           39.64  0.000014    0.02     39.67   
  1141. A(N   0,C  31,F  26)          134.88  0.000005    0.00    134.88   
  1142. A(C   3,C  31,F  37)          112.47 -0.000005    0.02    112.49   
  1143. A(C   3,C  31,S  35)           70.50  0.000007   -0.04     70.46   
  1144. A(C   3,C  31,F  29)           40.91  0.000014    0.01     40.91   
  1145. A(C   3,C  31,F  26)          134.84  0.000005   -0.02    134.81   
  1146. A(C   8,C  31,F  37)          114.69 -0.000006    0.06    114.75   
  1147. A(C   8,C  31,S  35)           68.21  0.000009    0.00     68.21   
  1148. A(C   8,C  31,F  29)           42.67  0.000013   -0.04     42.63   
  1149. A(N   1,C  31,F  37)          112.28 -0.000005   -0.01    112.27   
  1150. A(C   8,C  31,F  26)          133.63  0.000006   -0.08    133.54   
  1151. A(N   1,C  31,S  35)           72.12  0.000007   -0.04     72.08   
  1152. A(N   1,C  31,F  29)           39.28  0.000014    0.01     39.30   
  1153. A(N   1,C  31,F  26)          134.22  0.000005    0.00    134.22   
  1154. A(C   7,C  31,F  37)          112.70 -0.000005   -0.03    112.67   
  1155. A(C   7,C  31,S  35)           73.12  0.000007   -0.02     73.10   
  1156. A(C   7,C  31,F  29)           38.11  0.000014    0.01     38.11   
  1157. A(C   7,C  31,F  26)          133.26  0.000005    0.02    133.27   
  1158. A(S  35,C  31,F  37)          111.24 -0.000011   -0.01    111.23   
  1159. A(C   5,C  31,F  37)          111.69 -0.000005    0.00    111.69   
  1160. A(C   3,F  32,C  33)           91.30  0.000002    0.00     91.31   
  1161. A(C   8,F  32,C  33)           89.09  0.000003    0.03     89.12   
  1162. A(C   9,F  32,C  33)           92.48  0.000002    0.00     92.48   
  1163. A(N   1,F  32,C  33)           92.73  0.000002    0.00     92.74   
  1164. A(C   7,F  32,C  33)           93.67  0.000001    0.01     93.68   
  1165. A(C   5,F  32,C  33)           92.12  0.000002   -0.01     92.11   
  1166. A(C   6,F  32,C  33)           93.62  0.000001    0.01     93.63   
  1167. A(N   0,F  32,C  33)           92.63  0.000002   -0.00     92.62   
  1168. A(C   2,F  32,C  33)           92.15  0.000002   -0.01     92.14   
  1169. A(C   4,F  32,C  33)           89.98  0.000003    0.01     90.00   
  1170. A(C   3,C  33,F  38)           92.50 -0.000004   -0.01     92.48   
  1171. A(C   3,C  33,F  32)           87.28 -0.000002   -0.00     87.28   
  1172. A(C   3,C  33,S  30)           39.60  0.000006   -0.02     39.58   
  1173. A(C   3,C  33,F  28)          148.77  0.000006   -0.03    148.74   
  1174. A(C   8,C  33,F  38)           93.24 -0.000005    0.03     93.27   
  1175. A(C   8,C  33,F  32)           89.49 -0.000003   -0.03     89.46   
  1176. A(C   8,C  33,S  30)           37.04  0.000007   -0.03     37.01   
  1177. A(C   8,C  33,F  28)          146.33  0.000007   -0.05    146.29   
  1178. A(C   9,C  33,F  38)           93.12 -0.000004   -0.03     93.09   
  1179. A(C   9,C  33,F  32)           86.24 -0.000002   -0.00     86.24   
  1180. A(N   1,C  33,F  38)           93.15 -0.000004   -0.03     93.12   
  1181. A(N   1,C  33,F  32)           85.96 -0.000002   -0.00     85.96   
  1182. A(N   1,C  33,S  30)           40.26  0.000005   -0.00     40.26   
  1183. A(N   1,C  33,F  28)          149.20  0.000006   -0.01    149.19   
  1184. A(C   7,C  33,F  38)           94.14 -0.000005   -0.04     94.10   
  1185. A(C   7,C  33,F  32)           85.01 -0.000002   -0.01     85.00   
  1186. A(C   7,C  33,S  30)           40.34  0.000005    0.01     40.35   
  1187. A(C   7,C  33,F  28)          148.99  0.000006    0.00    148.99   
  1188. A(C   5,C  33,F  38)           92.22 -0.000004   -0.03     92.19   
  1189. A(C   5,C  33,F  32)           86.55 -0.000002    0.00     86.56   
  1190. A(C   5,C  33,S  30)           40.47  0.000005   -0.01     40.46   
  1191. A(C   5,C  33,F  28)          149.59  0.000006   -0.02    149.57   
  1192. A(S  30,C  33,F  32)          111.69 -0.000000   -0.01    111.68   
  1193. A(F  28,C  33,F  32)          107.77  0.000001    0.01    107.78   
  1194. A(F  28,C  33,S  30)          109.41  0.000000   -0.01    109.40   
  1195. A(C   6,C  33,F  38)           93.81 -0.000005   -0.04     93.77   
  1196. A(C   6,C  33,F  32)           85.03 -0.000002   -0.01     85.02   
  1197. A(C   6,C  33,S  30)           40.59  0.000005    0.01     40.60   
  1198. A(C   6,C  33,F  28)          149.29  0.000006   -0.00    149.29   
  1199. A(N   0,C  33,F  38)           92.58 -0.000004   -0.03     92.54   
  1200. A(N   0,C  33,F  32)           86.02 -0.000002    0.00     86.02   
  1201. A(N   0,C  33,S  30)           40.67  0.000005   -0.01     40.66   
  1202. A(N   0,C  33,F  28)          149.69  0.000006   -0.01    149.67   
  1203. A(C   9,C  33,S  30)           40.03  0.000005   -0.00     40.03   
  1204. A(C   9,C  33,F  28)          149.01  0.000006   -0.01    149.00   
  1205. A(C   2,C  33,F  38)           91.80 -0.000004   -0.03     91.77   
  1206. A(C   2,C  33,F  32)           86.46 -0.000002    0.01     86.47   
  1207. A(C   2,C  33,S  30)           40.89  0.000005   -0.02     40.88   
  1208. A(C   2,C  33,F  28)          150.05  0.000006   -0.02    150.02   
  1209. A(C   4,C  33,F  38)           92.60 -0.000004    0.01     92.61   
  1210. A(C   4,C  33,F  32)           88.62 -0.000003   -0.01     88.61   
  1211. A(C   4,C  33,S  30)           38.33  0.000006   -0.03     38.31   
  1212. A(C   4,C  33,F  28)          147.61  0.000007   -0.04    147.57   
  1213. A(F  32,C  33,F  38)          108.05 -0.000005    0.01    108.06   
  1214. A(S  30,C  33,F  38)          112.01  0.000003   -0.03    111.99   
  1215. A(F  28,C  33,F  38)          107.74  0.000001    0.02    107.76   
  1216. A(C   2,O  34,S  30)           79.06  0.000001    0.15     79.22   
  1217. A(C   9,O  34,S  30)           78.85  0.000001    0.14     78.98   
  1218. A(C   4,O  34,S  30)           81.03 -0.000000    0.12     81.16   
  1219. A(N   1,O  34,S  30)           78.51  0.000001    0.14     78.65   
  1220. A(C   7,O  34,S  30)           77.44  0.000001    0.13     77.56   
  1221. A(C   5,O  34,S  30)           79.19  0.000001    0.15     79.33   
  1222. A(C   3,O  34,S  30)           79.73  0.000000    0.13     79.86   
  1223. A(C   6,O  34,S  30)           77.45  0.000001    0.13     77.58   
  1224. A(N   0,O  34,S  30)           78.57  0.000001    0.14     78.72   
  1225. A(C   8,O  34,S  30)           81.76 -0.000001    0.10     81.86   
  1226. A(C   3,S  35,O  39)           48.34  0.000016   -0.01     48.34   
  1227. A(C   3,S  35,N  36)          144.04 -0.000005   -0.06    143.98   
  1228. A(C   3,S  35,C  31)          107.50 -0.000008    0.04    107.54   
  1229. A(C   3,S  35,O  27)           71.67  0.000003   -0.04     71.63   
  1230. A(C  31,S  35,N  36)          104.49  0.000017    0.03    104.52   
  1231. A(O  27,S  35,N  36)          115.73 -0.000005    0.02    115.75   
  1232. A(C   8,S  35,O  39)           50.02  0.000015    0.05     50.07   
  1233. A(C   8,S  35,N  36)          142.72 -0.000005   -0.01    142.71   
  1234. A(C   7,S  35,O  39)           49.48  0.000016   -0.06     49.42   
  1235. A(C   7,S  35,N  36)          146.74 -0.000006   -0.07    146.67   
  1236. A(C   8,S  35,C  31)          109.81 -0.000010   -0.00    109.81   
  1237. A(C   7,S  35,C  31)          104.98 -0.000008    0.02    105.00   
  1238. A(C   7,S  35,O  27)           71.10  0.000003    0.01     71.11   
  1239. A(C   8,S  35,O  27)           69.63  0.000004   -0.09     69.54   
  1240. A(O  27,S  35,C  31)          104.03 -0.000013    0.01    104.03   
  1241. A(C   5,S  35,O  39)           47.82  0.000016   -0.03     47.79   
  1242. A(C   5,S  35,N  36)          144.48 -0.000005   -0.08    144.40   
  1243. A(C   5,S  35,C  31)          106.69 -0.000008    0.05    106.74   
  1244. A(C   5,S  35,O  27)           72.36  0.000003   -0.03     72.33   
  1245. A(C   2,S  35,O  39)           47.28  0.000016   -0.03     47.26   
  1246. A(C   2,S  35,N  36)          144.26 -0.000005   -0.09    144.17   
  1247. A(C   2,S  35,C  31)          106.63 -0.000008    0.06    106.69   
  1248. A(C   2,S  35,O  27)           72.89  0.000003   -0.03     72.87   
  1249. A(C   4,S  35,O  39)           48.96  0.000015    0.03     48.99   
  1250. A(C   9,S  35,O  39)           48.74  0.000016   -0.03     48.70   
  1251. A(C   4,S  35,N  36)          143.09 -0.000005   -0.04    143.05   
  1252. A(C   9,S  35,N  36)          145.26 -0.000005   -0.07    145.18   
  1253. A(C   9,S  35,C  31)          106.31 -0.000008    0.04    106.34   
  1254. A(C   9,S  35,O  27)           71.53  0.000003   -0.02     71.51   
  1255. A(C   4,S  35,C  31)          108.90 -0.000009    0.02    108.93   
  1256. A(C   4,S  35,O  27)           70.82  0.000004   -0.07     70.75   
  1257. A(C   6,S  35,O  39)           49.10  0.000016   -0.06     49.04   
  1258. A(C   6,S  35,N  36)          146.52 -0.000006   -0.08    146.44   
  1259. A(C   6,S  35,C  31)          105.02 -0.000008    0.03    105.05   
  1260. A(C   6,S  35,O  27)           71.47  0.000003    0.00     71.48   
  1261. A(N  36,S  35,O  39)          108.62 -0.000016    0.01    108.63   
  1262. A(C  31,S  35,O  39)          102.77  0.000001   -0.04    102.73   
  1263. A(N   0,S  35,O  39)           48.02  0.000016   -0.04     47.98   
  1264. A(N   0,S  35,N  36)          145.06 -0.000005   -0.08    144.98   
  1265. A(N   0,S  35,C  31)          106.12 -0.000008    0.05    106.17   
  1266. A(N   0,S  35,O  27)           72.28  0.000003   -0.02     72.26   
  1267. A(O  27,S  35,O  39)          119.14  0.000018   -0.03    119.11   
  1268. A(N   1,S  35,O  39)           48.67  0.000016   -0.04     48.63   
  1269. A(N   1,S  35,N  36)          145.47 -0.000005   -0.08    145.40   
  1270. A(N   1,S  35,C  31)          106.02 -0.000008    0.04    106.05   
  1271. A(N   1,S  35,O  27)           71.66  0.000003   -0.01     71.65   
  1272. A(S  30,N  36,S  35)          127.60 -0.000005   -0.05    127.55   
  1273. A(C   6,N  36,S  35)           32.56  0.000005    0.08     32.64   
  1274. A(C   6,N  36,S  30)          138.84 -0.000014    0.05    138.89   
  1275. A(N   0,N  36,S  35)           33.98  0.000005    0.08     34.06   
  1276. A(N   0,N  36,S  30)          139.25 -0.000014    0.03    139.28   
  1277. A(C   3,N  36,S  35)           34.93  0.000005    0.06     34.99   
  1278. A(C   3,N  36,S  30)          138.31 -0.000014    0.01    138.32   
  1279. A(C   9,N  36,S  35)           33.85  0.000005    0.07     33.92   
  1280. A(C   9,N  36,S  30)          138.54 -0.000014    0.03    138.57   
  1281. A(C   8,N  36,S  35)           36.22  0.000005    0.01     36.22   
  1282. A(C   8,N  36,S  30)          135.77 -0.000013   -0.02    135.75   
  1283. A(N   1,N  36,S  35)           33.62  0.000005    0.07     33.69   
  1284. A(N   1,N  36,S  30)          138.74 -0.000014    0.03    138.77   
  1285. A(C   7,N  36,S  35)           32.37  0.000005    0.07     32.44   
  1286. A(C   7,N  36,S  30)          138.52 -0.000014    0.05    138.57   
  1287. A(C   2,N  36,S  35)           34.73  0.000005    0.09     34.82   
  1288. A(C   2,N  36,S  30)          139.64 -0.000014    0.01    139.66   
  1289. A(C   5,N  36,S  35)           34.57  0.000005    0.08     34.65   
  1290. A(C   5,N  36,S  30)          139.16 -0.000014    0.02    139.18   
  1291. A(C   4,N  36,S  35)           35.88  0.000005    0.04     35.91   
  1292. A(C   4,N  36,S  30)          137.11 -0.000013   -0.01    137.09   
  1293. A(C   6,F  37,C  31)           66.31  0.000005    0.03     66.34   
  1294. A(N   0,F  37,C  31)           66.95  0.000004    0.01     66.96   
  1295. A(C   3,F  37,C  31)           66.15  0.000005   -0.02     66.14   
  1296. A(C   9,F  37,C  31)           66.33  0.000005    0.01     66.34   
  1297. A(C   8,F  37,C  31)           63.95  0.000006   -0.06     63.89   
  1298. A(N   1,F  37,C  31)           66.44  0.000005    0.01     66.46   
  1299. A(C   7,F  37,C  31)           66.01  0.000005    0.03     66.04   
  1300. A(C   2,F  37,C  31)           67.44  0.000004   -0.00     67.44   
  1301. A(C   5,F  37,C  31)           67.01  0.000005   -0.00     67.01   
  1302. A(C   4,F  37,C  31)           65.21  0.000005   -0.04     65.17   
  1303. A(C   8,F  38,C  33)           85.34  0.000004   -0.03     85.31   
  1304. A(C   9,F  38,C  33)           85.61  0.000003    0.03     85.64   
  1305. A(N   1,F  38,C  33)           85.54  0.000003    0.03     85.57   
  1306. A(C   7,F  38,C  33)           84.54  0.000004    0.04     84.58   
  1307. A(C   5,F  38,C  33)           86.45  0.000003    0.03     86.48   
  1308. A(C   6,F  38,C  33)           84.84  0.000004    0.04     84.88   
  1309. A(N   0,F  38,C  33)           86.07  0.000003    0.03     86.10   
  1310. A(C   2,F  38,C  33)           86.81  0.000003    0.03     86.84   
  1311. A(C   4,F  38,C  33)           86.01  0.000004   -0.01     86.00   
  1312. A(C   3,F  38,C  33)           86.10  0.000004    0.01     86.11   
  1313. A(C   2,O  39,S  35)          131.51 -0.000017    0.03    131.54   
  1314. A(C   6,O  39,C   8)            5.02 -0.000002   -0.01      5.01   
  1315. A(C   6,O  39,S  35)          129.70 -0.000017    0.06    129.76   
  1316. A(C   4,O  39,S  35)          129.80 -0.000016   -0.03    129.77   
  1317. A(N   1,O  39,S  35)          130.18 -0.000017    0.04    130.22   
  1318. A(N   0,O  39,S  35)          130.79 -0.000017    0.04    130.83   
  1319. A(C   7,O  39,S  35)          129.34 -0.000017    0.06    129.40   
  1320. A(C   3,O  39,S  35)          130.41 -0.000016    0.01    130.42   
  1321. A(C   5,O  39,S  35)          131.03 -0.000017    0.03    131.06   
  1322. A(C   8,O  39,S  35)          128.70 -0.000016   -0.05    128.65   
  1323. A(C   9,O  39,S  35)          130.14 -0.000017    0.03    130.17   
  1324. D(C   3,C   2,N   0,C   6)     70.97 -0.000004   -0.28     70.69   
  1325. D(C   3,C   2,N   0,C   5)   -105.33 -0.000007   -0.15   -105.47   
  1326. D(H  10,C   2,N   0,C   5)     16.63 -0.000009   -0.17     16.45   
  1327. D(C   4,C   3,C   2,H  10)    -57.75 -0.000000   -0.12    -57.86   
  1328. D(H  12,C   3,C   2,N   0)    -62.56 -0.000001   -0.10    -62.65   
  1329. D(C   4,C   3,C   2,N   0)     61.60 -0.000003   -0.15     61.45   
  1330. D(C   8,C   4,C   3,C   2)    177.05 -0.000001    0.08    177.13   
  1331. D(C   8,C   4,C   3,H  12)    -59.13 -0.000004    0.03    -59.10   
  1332. D(H  14,C   4,C   3,C   2)    -61.29  0.000001    0.07    -61.22   
  1333. D(H  16,C   5,N   1,C   7)    179.79 -0.000012   -0.08    179.71   
  1334. D(N   1,C   5,N   0,C   6)      0.25  0.000000   -0.03      0.23   
  1335. D(H  16,C   5,N   0,C   2)     -2.86  0.000014   -0.06     -2.91   
  1336. D(N   1,C   5,N   0,C   2)    177.08  0.000003   -0.14    176.94   
  1337. D(N   0,C   5,N   1,C   9)    179.40 -0.000002   -0.01    179.39   
  1338. D(N   0,C   5,N   1,C   7)     -0.15 -0.000001    0.01     -0.14   
  1339. D(C   7,C   6,N   0,C   5)     -0.26  0.000001    0.04     -0.23   
  1340. D(H  17,C   6,N   0,C   2)      3.23 -0.000006    0.11      3.34   
  1341. D(C   7,C   6,N   0,C   2)   -177.10 -0.000002    0.15   -176.94   
  1342. D(N   1,C   7,C   6,N   0)      0.17 -0.000002   -0.03      0.14   
  1343. D(H  18,C   7,C   6,N   0)   -179.36  0.000006    0.01   -179.35   
  1344. D(C   6,C   7,N   1,C   5)     -0.02  0.000002    0.01     -0.01   
  1345. D(H  18,C   7,N   1,C   5)    179.56 -0.000005   -0.02    179.54   
  1346. D(N   1,C   7,C   6,H  17)    179.80  0.000004    0.02    179.83   
  1347. D(C   6,C   7,N   1,C   9)   -179.57  0.000002    0.03   -179.53   
  1348. D(H  19,C   8,C   4,H  14)    -62.11  0.000010   -0.00    -62.11   
  1349. D(H  20,C   8,C   4,C   3)    -60.09  0.000008    0.01    -60.08   
  1350. D(H  19,C   8,C   4,C   3)     59.98  0.000003   -0.00     59.98   
  1351. D(H  22,C   9,N   1,C   7)   -179.16 -0.000001    0.02   -179.14   
  1352. D(H  23,C   9,N   1,C   5)    121.04  0.000004    0.04    121.08   
  1353. D(H  22,C   9,N   1,C   5)      1.37 -0.000000    0.04      1.41   
  1354. D(S  30,O  25,N   0,C   2)      8.55 -0.000007    0.87      9.42   
  1355. D(S  30,O  25,C   7,N   1)     30.56 -0.000001    0.70     31.26   
  1356. D(S  30,O  25,C   7,C   6)    -21.04 -0.000003    0.55    -20.50   
  1357. D(S  30,O  25,C   8,C   4)    -65.68 -0.000003    1.12    -64.56   
  1358. D(S  30,O  25,C   5,N   0)   -127.95 -0.000000    0.68   -127.27   
  1359. D(S  30,O  25,C   9,H  22)     27.46 -0.000002    0.72     28.18   
  1360. D(S  30,O  25,C   6,N   0)     22.62 -0.000001    0.71     23.33   
  1361. D(S  30,O  25,N   1,C   7)   -149.39 -0.000001    0.70   -148.69   
  1362. D(S  30,O  25,C   3,C   2)    -63.30  0.000001    1.02    -62.28   
  1363. D(S  30,O  25,C   8,H  19)   -168.93 -0.000002    1.11   -167.82   
  1364. D(S  30,O  25,C   4,C   3)    -89.31 -0.000002    1.07    -88.23   
  1365. D(S  30,O  25,N   0,C   5)     52.00 -0.000000    0.68     52.68   
  1366. D(S  30,O  25,C   3,C   4)     90.54 -0.000002    1.07     91.61   
  1367. D(S  30,O  25,C   5,N   1)   -166.68 -0.000002    0.68   -166.00   
  1368. D(S  30,O  25,C   2,C   3)    116.58  0.000001    1.02    117.60   
  1369. D(S  30,O  25,C   4,C   8)    114.20 -0.000003    1.12    115.33   
  1370. D(S  30,O  25,C   2,N   0)   -171.44 -0.000007    0.87   -170.57   
  1371. D(S  30,O  25,C   9,N   1)    -91.98  0.000003    0.57    -91.41   
  1372. D(S  30,O  25,N   1,C   5)     13.30 -0.000002    0.67     13.98   
  1373. D(S  30,O  25,C   6,C   7)    158.95 -0.000003    0.55    159.49   
  1374. D(C  31,F  26,C   6,N   0)     33.08 -0.000003    0.91     33.98   
  1375. D(C  31,F  26,C   4,C   8)    126.76 -0.000005    1.27    128.03   
  1376. D(C  31,F  26,C   4,C   3)    -75.29 -0.000004    1.30    -73.98   
  1377. D(C  31,F  26,C   5,N   0)   -120.00 -0.000006    1.01   -118.99   
  1378. D(C  31,F  26,C   3,C   2)    -52.08 -0.000001    1.19    -50.89   
  1379. D(C  31,F  26,C   5,N   1)   -152.95 -0.000002    0.87   -152.07   
  1380. D(C  31,F  26,C   2,C   3)    126.79 -0.000001    1.21    127.99   
  1381. D(C  31,F  26,C   3,C   4)    103.24 -0.000004    1.31    104.56   
  1382. D(C  31,F  26,N   1,C   7)   -139.71 -0.000004    0.93   -138.78   
  1383. D(C  31,F  26,C   2,N   0)   -155.74 -0.000005    1.07   -154.67   
  1384. D(C  31,F  26,N   0,C   2)     23.87 -0.000005    1.05     24.92   
  1385. D(C  31,F  26,N   1,C   5)     26.56 -0.000002    0.86     27.42   
  1386. D(C  31,F  26,N   0,C   5)     59.52 -0.000006    1.00     60.52   
  1387. D(C  31,F  26,C   8,C   4)    -52.15 -0.000005    1.25    -50.90   
  1388. D(C  31,F  26,C   8,H  19)   -155.23 -0.000005    1.29   -153.94   
  1389. D(C  31,F  26,C   7,C   6)     -1.20 -0.000000    0.73     -0.47   
  1390. D(C  31,F  26,C   7,N   1)     39.52 -0.000004    0.91     40.43   
  1391. D(C  31,F  26,C   9,N   1)    -79.17 -0.000001    1.00    -78.17   
  1392. D(C  31,F  26,C   9,H  22)     38.12 -0.000004    0.93     39.06   
  1393. D(C  31,F  26,C   6,C   7)    178.79 -0.000000    0.73    179.52   
  1394. D(S  35,O  27,C   6,C   7)   -164.83 -0.000004    0.76   -164.07   
  1395. D(S  35,O  27,C   7,N   1)     65.19 -0.000002    0.92     66.11   
  1396. D(S  35,O  27,C   6,N   0)     57.57 -0.000002    0.93     58.50   
  1397. D(S  35,O  27,C   9,H  22)     61.75 -0.000003    0.94     62.68   
  1398. D(S  35,O  27,C   5,N   0)    -94.64 -0.000003    0.91    -93.74   
  1399. D(S  35,O  27,C   7,C   6)     15.20 -0.000004    0.76     15.96   
  1400. D(S  35,O  27,C   8,C   4)    -32.75 -0.000002    1.33    -31.41   
  1401. D(S  35,O  27,C   8,H  19)   -136.13 -0.000002    1.33   -134.80   
  1402. D(S  35,O  27,C   9,N   1)    -58.43 -0.000000    0.82    -57.61   
  1403. D(S  35,O  27,C   4,C   3)    -55.93 -0.000002    1.29    -54.64   
  1404. D(S  35,O  27,C   2,C   3)    150.75  0.000001    1.22    151.97   
  1405. D(S  35,O  27,C   2,N   0)   -136.29 -0.000006    1.07   -135.22   
  1406. D(S  35,O  27,N   1,C   7)   -115.17 -0.000002    0.92   -114.25   
  1407. D(S  35,O  27,C   3,C   2)    -29.44  0.000001    1.22    -28.22   
  1408. D(S  35,O  27,N   1,C   5)     48.31 -0.000002    0.88     49.19   
  1409. D(S  35,O  27,C   3,C   4)    124.47 -0.000002    1.29    125.76   
  1410. D(S  35,O  27,N   0,C   5)     85.53 -0.000003    0.91     86.44   
  1411. D(S  35,O  27,C   4,C   8)    147.50 -0.000002    1.33    148.83   
  1412. D(S  35,O  27,C   5,N   1)   -131.93 -0.000002    0.88   -131.05   
  1413. D(S  35,O  27,N   0,C   2)     43.89 -0.000007    1.07     44.97   
  1414. D(C  33,F  28,C   8,H  19)   -114.31 -0.000000    0.89   -113.42   
  1415. D(C  33,F  28,C   7,C   6)     28.26 -0.000003    0.47     28.73   
  1416. D(C  33,F  28,C   6,N   0)     72.30  0.000001    0.59     72.89   
  1417. D(C  33,F  28,C   7,N   1)     79.14  0.000000    0.57     79.71   
  1418. D(C  33,F  28,C   5,N   1)   -113.13  0.000001    0.57   -112.56   
  1419. D(C  33,F  28,C   9,H  22)     78.78 -0.000001    0.59     79.37   
  1420. D(C  33,F  28,C   3,C   4)    143.08 -0.000001    0.93    144.02   
  1421. D(C  33,F  28,C   9,N   1)    -47.56 -0.000002    0.46    -47.10   
  1422. D(C  33,F  28,N   1,C   7)    -98.87  0.000000    0.57    -98.30   
  1423. D(C  33,F  28,C   2,N   0)   -117.06 -0.000004    0.80   -116.26   
  1424. D(C  33,F  28,N   0,C   5)    100.36 -0.000001    0.55    100.91   
  1425. D(C  33,F  28,N   0,C   2)     61.69 -0.000005    0.79     62.49   
  1426. D(C  33,F  28,N   1,C   5)     65.33  0.000000    0.56     65.89   
  1427. D(C  33,F  28,C   5,N   0)    -78.67 -0.000001    0.55    -78.12   
  1428. D(C  33,F  28,C   4,C   8)    169.85  0.000000    0.93    170.78   
  1429. D(C  33,F  28,C   8,C   4)     -9.81  0.000000    0.90     -8.91   
  1430. D(C  33,F  28,C   4,C   3)    -35.52 -0.000001    0.90    -34.63   
  1431. D(C  33,F  28,C   2,C   3)    170.61  0.000004    0.89    171.50   
  1432. D(C  33,F  28,C   3,C   2)     -9.04  0.000004    0.86     -8.18   
  1433. D(C  33,F  28,C   6,C   7)   -151.45 -0.000003    0.48   -150.97   
  1434. D(C  31,F  29,N   1,C   7)    160.64 -0.000003    0.94    161.58   
  1435. D(C  31,F  29,C   6,C   7)    123.01  0.000002    0.79    123.79   
  1436. D(C  31,F  29,C   4,C   3)   -138.88 -0.000000    1.27   -137.62   
  1437. D(C  31,F  29,C   4,C   8)     63.29 -0.000002    1.21     64.50   
  1438. D(C  31,F  29,C   5,N   0)    179.03 -0.000005    1.00    180.03   
  1439. D(C  31,F  29,C   3,C   4)     42.22 -0.000001    1.29     43.52   
  1440. D(C  31,F  29,C   5,N   1)    148.90 -0.000001    0.85    149.75   
  1441. D(C  31,F  29,C   3,C   2)   -113.00  0.000000    1.15   -111.85   
  1442. D(C  31,F  29,C   6,N   0)    -25.28 -0.000002    0.95    -24.33   
  1443. D(C  31,F  29,C   2,C   3)     68.49 -0.000001    1.16     69.65   
  1444. D(C  31,F  29,C   7,N   1)    -19.87 -0.000002    0.96    -18.91   
  1445. D(C  31,F  29,C   7,C   6)    -57.42  0.000003    0.79    -56.63   
  1446. D(C   8,F  29,C   6,N   0)    -54.47  0.000005   -0.25    -54.72   
  1447. D(C  31,F  29,N   1,C   5)    -31.77 -0.000000    0.87    -30.90   
  1448. D(C  31,F  29,C   2,N   0)    147.40 -0.000004    1.03    148.44   
  1449. D(C  31,F  29,N   0,C   5)     -0.98 -0.000005    1.01      0.03   
  1450. D(C  31,F  29,N   0,C   2)    -33.18 -0.000004    1.05    -32.13   
  1451. D(C  31,F  29,C   9,H  22)    -21.63 -0.000003    0.94    -20.69   
  1452. D(C  31,F  29,C   9,N   1)   -140.93  0.000004    1.10   -139.83   
  1453. D(C   6,F  29,C   8,C   4)     35.44  0.000003    0.09     35.53   
  1454. D(C  31,F  29,C   8,H  19)    138.52 -0.000000    1.25    139.77   
  1455. D(C  31,F  29,C   8,C   4)   -118.06 -0.000001    1.19   -116.87   
  1456. D(C   8,F  29,C   7,N   1)    -44.09  0.000006   -0.21    -44.30   
  1457. D(O  34,S  30,O  25,C   8)    -99.72  0.000002    0.12    -99.60   
  1458. D(C  33,S  30,O  25,C   3)    143.29 -0.000005    0.06    143.35   
  1459. D(C  33,S  30,O  25,C   8)    145.97 -0.000007    0.05    146.03   
  1460. D(C  33,S  30,C   9,N   1)    -34.79 -0.000006    0.41    -34.38   
  1461. D(O  25,S  30,C   9,H  22)   -152.69 -0.000002    0.72   -151.97   
  1462. D(O  25,S  30,C   9,N   1)     81.78 -0.000001    0.57     82.35   
  1463. D(C  33,S  30,C   8,C   4)     -3.54 -0.000006    1.02     -2.52   
  1464. D(O  25,S  30,C   4,C   3)     89.97 -0.000003    1.07     91.04   
  1465. D(O  25,S  30,C   7,C   6)    157.09 -0.000005    0.59    157.68   
  1466. D(C  33,S  30,C   5,N   0)    -67.84 -0.000006    0.50    -67.34   
  1467. D(O  25,S  30,C   6,N   0)   -157.32 -0.000001    0.71   -156.61   
  1468. D(O  25,S  30,C   6,C   7)    -22.92 -0.000005    0.59    -22.33   
  1469. D(O  25,S  30,C   5,N   1)     13.61 -0.000001    0.69     14.30   
  1470. D(C  33,S  30,C   6,N   0)     87.48 -0.000007    0.55     88.03   
  1471. D(O  25,S  30,C   5,N   0)     49.63 -0.000002    0.66     50.29   
  1472. D(O  25,S  30,C   7,N   1)   -149.82 -0.000001    0.69   -149.13   
  1473. D(C  33,S  30,C   4,C   3)    -28.78 -0.000006    0.95    -27.83   
  1474. D(O  25,S  30,C   8,C   4)    115.38 -0.000002    1.11    116.50   
  1475. D(O  25,S  30,C   8,H  19)     10.97 -0.000002    1.10     12.07   
  1476. D(C  33,S  30,C   7,N   1)     95.25 -0.000007    0.54     95.79   
  1477. D(C  33,S  30,C   3,C   2)     -0.06 -0.000002    0.87      0.81   
  1478. D(O  25,S  30,C   3,C   4)    -90.14 -0.000002    1.07    -89.07   
  1479. D(O  25,S  30,C   3,C   2)    117.73  0.000002    1.01    118.75   
  1480. D(O  25,S  30,C   4,C   8)    -64.70 -0.000002    1.11    -63.59   
  1481. D(C  33,S  30,C   2,N   0)   -108.80 -0.000011    0.74   -108.05   
  1482. D(O  25,S  30,C   2,N   0)      8.91 -0.000007    0.91      9.82   
  1483. D(O  25,S  30,N   1,C   5)   -166.41 -0.000001    0.69   -165.72   
  1484. D(O  25,S  30,N   1,C   7)     30.21 -0.000001    0.69     30.90   
  1485. D(C  33,S  30,N   0,C   2)     72.08 -0.000012    0.75     72.82   
  1486. D(O  25,S  30,C   2,C   3)    -62.36  0.000002    1.01    -61.35   
  1487. D(O  25,S  30,N   0,C   5)   -130.40 -0.000001    0.66   -129.74   
  1488. D(O  25,S  30,N   0,C   2)   -171.10 -0.000007    0.91   -170.20   
  1489. D(C  33,S  30,N   1,C   5)     77.25 -0.000006    0.53     77.78   
  1490. D(S  35,C  31,F  29,C   8)    -13.66  0.000005    0.11    -13.54   
  1491. D(F  26,C  31,F  29,C   3)   -139.41 -0.000007    0.03   -139.38   
  1492. D(F  26,C  31,F  29,C   8)   -136.05 -0.000010    0.09   -135.96   
  1493. D(S  35,C  31,F  26,C   8)    -80.41 -0.000017   -0.01    -80.42   
  1494. D(F  29,C  31,C   9,N   1)     35.78  0.000000    1.03     36.81   
  1495. D(F  26,C  31,C   9,H  22)   -142.03 -0.000004    0.93   -141.10   
  1496. D(F  26,C  31,C   9,N   1)     95.31 -0.000001    1.02     96.33   
  1497. D(F  29,C  31,F  26,C   3)     36.93  0.000009    0.02     36.95   
  1498. D(F  29,C  31,C   8,C   4)     62.56 -0.000000    1.20     63.76   
  1499. D(F  26,C  31,C   8,H  19)     24.62 -0.000005    1.29     25.90   
  1500. D(F  29,C  31,F  26,C   8)     40.53  0.000008   -0.02     40.51   
  1501. D(F  29,C  31,C   7,N   1)    160.30 -0.000002    0.95    161.26   
  1502. D(F  26,C  31,C   7,N   1)   -140.85 -0.000003    0.90   -139.94   
  1503. D(F  26,C  31,C   5,N   1)     27.41 -0.000002    0.88     28.29   
  1504. D(F  26,C  31,C   6,N   0)   -146.89 -0.000003    0.91   -145.98   
  1505. D(F  29,C  31,C   5,N   0)     -0.93 -0.000004    0.96      0.03   
  1506. D(F  29,C  31,C   6,N   0)    154.70 -0.000002    0.95    155.65   
  1507. D(F  26,C  31,C   5,N   0)     57.97 -0.000005    0.98     58.95   
  1508. D(F  29,C  31,C   4,C   3)     40.75 -0.000001    1.26     42.00   
  1509. D(F  26,C  31,C   4,C   8)    -52.65 -0.000005    1.26    -51.38   
  1510. D(F  26,C  31,C   7,C   6)    178.72 -0.000000    0.77    179.50   
  1511. D(F  26,C  31,C   6,C   7)     -1.28 -0.000000    0.78     -0.51   
  1512. D(F  26,C  31,C   4,C   3)    104.17 -0.000004    1.31    105.47   
  1513. D(F  26,C  31,C   8,C   4)    128.42 -0.000005    1.24    129.67   
  1514. D(F  29,C  31,C   3,C   2)     67.62  0.000001    1.15     68.78   
  1515. D(F  26,C  31,C   3,C   4)    -77.28 -0.000004    1.32    -75.96   
  1516. D(F  26,C  31,C   3,C   2)    128.48 -0.000001    1.18    129.66   
  1517. D(F  26,C  31,N   0,C   2)   -155.52 -0.000006    1.08   -154.44   
  1518. D(F  29,C  31,N   1,C   5)    147.83 -0.000001    0.88    148.71   
  1519. D(F  26,C  31,N   1,C   5)   -153.08 -0.000002    0.87   -152.21   
  1520. D(F  29,C  31,N   0,C   2)    146.04 -0.000005    1.07    147.11   
  1521. D(F  26,C  31,N   1,C   7)     39.91 -0.000004    0.92     40.83   
  1522. D(F  26,C  31,N   0,C   5)   -122.50 -0.000005    0.98   -121.52   
  1523. D(F  26,C  31,C   2,C   3)    -52.64 -0.000001    1.20    -51.44   
  1524. D(F  29,C  31,C   2,N   0)    -33.37 -0.000005    1.06    -32.31   
  1525. D(F  26,C  31,C   2,N   0)     24.86 -0.000006    1.09     25.95   
  1526. D(C  33,F  32,C   9,H  22)    -40.53 -0.000004    0.58    -39.95   
  1527. D(C  33,F  32,C   9,N   1)   -167.52 -0.000005    0.51   -167.01   
  1528. D(C  33,F  32,C   8,H  19)    122.64 -0.000004    0.96    123.60   
  1529. D(C  33,F  32,C   7,C   6)    -82.23 -0.000006    0.47    -81.75   
  1530. D(C  33,F  32,C   7,N   1)    -38.32 -0.000003    0.56    -37.76   
  1531. D(C  33,F  32,C   6,C   7)     97.80 -0.000006    0.47     98.27   
  1532. D(C  33,F  32,C   6,N   0)    -44.49 -0.000003    0.57    -43.92   
  1533. D(C  33,F  32,C   5,N   1)    128.21 -0.000003    0.54    128.75   
  1534. D(C  33,F  32,C   4,C   8)     47.06 -0.000003    0.94     48.00   
  1535. D(C  33,F  32,C   2,N   0)    125.34 -0.000007    0.76    126.10   
  1536. D(C  33,F  32,C   3,C   2)   -130.44  0.000000    0.85   -129.60   
  1537. D(C  33,F  32,C   2,C   3)     49.59  0.000000    0.85     50.43   
  1538. D(C  33,F  32,C   3,C   4)     22.41 -0.000004    0.95     23.36   
  1539. D(C  33,F  32,N   1,C   7)    141.72 -0.000003    0.56    142.28   
  1540. D(C  33,F  32,C   4,C   3)   -157.60 -0.000004    0.95   -156.65   
  1541. D(C  33,F  32,C   8,C   4)   -132.93 -0.000003    0.94   -131.99   
  1542. D(C  33,F  32,C   5,N   0)    158.83 -0.000004    0.55    159.38   
  1543. D(C  33,F  32,N   1,C   5)    -51.82 -0.000003    0.54    -51.28   
  1544. D(C  33,F  32,N   0,C   5)    -21.18 -0.000004    0.55    -20.63   
  1545. D(C  33,F  32,N   0,C   2)    -54.69 -0.000007    0.76    -53.93   
  1546. D(S  30,C  33,F  28,C   3)     -6.00  0.000003    0.00     -6.00   
  1547. D(S  30,C  33,F  28,C   8)     -3.97  0.000003   -0.07     -4.04   
  1548. D(S  30,C  33,C   9,N   1)    141.99 -0.000008    0.45    142.44   
  1549. D(F  28,C  33,C   9,N   1)    130.14 -0.000001    0.47    130.61   
  1550. D(S  30,C  33,C   8,C   4)    176.51 -0.000006    1.00    177.51   
  1551. D(F  28,C  33,C   8,H  19)     65.48 -0.000000    0.89     66.37   
  1552. D(S  30,C  33,C   7,N   1)    -85.37 -0.000007    0.54    -84.83   
  1553. D(F  28,C  33,C   7,C   6)   -150.53 -0.000003    0.49   -150.04   
  1554. D(F  28,C  33,C   7,N   1)   -101.19  0.000000    0.57   -100.63   
  1555. D(S  30,C  33,C   6,N   0)    -92.39 -0.000007    0.55    -91.83   
  1556. D(F  28,C  33,C   6,C   7)     29.76 -0.000003    0.50     30.25   
  1557. D(F  28,C  33,C   6,N   0)   -107.63  0.000000    0.59   -107.04   
  1558. D(S  30,C  33,C   5,N   0)    109.73 -0.000007    0.51    110.24   
  1559. D(F  28,C  33,C   5,N   1)     67.40  0.000001    0.57     67.97   
  1560. D(F  28,C  33,C   5,N   0)     99.95 -0.000000    0.55    100.50   
  1561. D(S  30,C  33,C   4,C   3)    150.93 -0.000007    0.96    151.89   
  1562. D(F  28,C  33,C   4,C   8)    -10.05  0.000000    0.92     -9.14   
  1563. D(F  28,C  33,C   4,C   3)    144.27 -0.000001    0.90    145.17   
  1564. D(S  30,C  33,C   3,C   2)    179.94 -0.000002    0.85    180.79   
  1565. D(F  28,C  33,C   3,C   4)    -37.12 -0.000001    0.93    -36.18   
  1566. D(F  28,C  33,C   3,C   2)    171.04  0.000004    0.85    171.89   
  1567. D(S  30,C  33,C   2,N   0)     73.14 -0.000011    0.75     73.89   
  1568. D(F  28,C  33,C   2,C   3)     -9.31  0.000004    0.89     -8.42   
  1569. D(F  28,C  33,C   8,C   4)    170.29  0.000000    0.89    171.18   
  1570. D(F  28,C  33,C   2,N   0)     63.89 -0.000005    0.81     64.70   
  1571. D(S  30,C  33,N   1,C   5)   -101.69 -0.000006    0.53   -101.16   
  1572. D(F  28,C  33,N   1,C   7)     80.78  0.000000    0.57     81.35   
  1573. D(F  28,C  33,C   9,H  22)   -101.36 -0.000001    0.59   -100.77   
  1574. D(F  28,C  33,N   1,C   5)   -114.13  0.000000    0.57   -113.56   
  1575. D(S  30,C  33,N   0,C   2)   -105.97 -0.000011    0.76   -105.21   
  1576. D(F  28,C  33,N   0,C   5)    -81.02 -0.000000    0.55    -80.46   
  1577. D(F  32,C  33,F  28,C   8)    117.66  0.000003   -0.08    117.58   
  1578. D(F  28,C  33,N   0,C   2)   -117.34 -0.000005    0.80   -116.54   
  1579. D(S  30,C  33,F  32,C   8)    -30.39 -0.000006    0.05    -30.34   
  1580. D(F  28,C  33,F  32,C   3)   -152.10 -0.000006    0.03   -152.07   
  1581. D(F  28,C  33,F  32,C   8)   -150.59 -0.000007    0.06   -150.53   
  1582. D(F  32,C  33,S  30,O  25)    -58.50  0.000006   -0.16    -58.66   
  1583. D(F  28,C  33,S  30,O  34)    -64.18 -0.000004   -0.20    -64.38   
  1584. D(F  28,C  33,S  30,O  25)     60.73  0.000007   -0.16     60.58   
  1585. D(C   3,O  34,S  30,O  25)     99.79 -0.000008   -0.02     99.77   
  1586. D(C   8,O  34,S  30,O  25)     97.96 -0.000007   -0.06     97.90   
  1587. D(S  30,O  34,C   9,H  22)    147.54  0.000002    0.72    148.26   
  1588. D(S  30,O  34,C   9,N   1)     19.78  0.000003    0.52     20.30   
  1589. D(S  30,O  34,C   8,C   4)     55.99  0.000003    1.12     57.11   
  1590. D(S  30,O  34,C   7,C   6)     92.00  0.000001    0.60     92.60   
  1591. D(S  30,O  34,C   7,N   1)    150.56  0.000003    0.69    151.25   
  1592. D(S  30,O  34,C   6,C   7)    -87.91  0.000001    0.60    -87.32   
  1593. D(S  30,O  34,C   6,N   0)    142.69  0.000003    0.72    143.41   
  1594. D(S  30,O  34,C   5,N   1)    -47.08  0.000003    0.70    -46.39   
  1595. D(S  30,O  34,C   5,N   0)     -9.64  0.000002    0.63     -9.01   
  1596. D(S  30,O  34,C   4,C   8)   -123.85  0.000003    1.12   -122.73   
  1597. D(S  30,O  34,C   4,C   3)     29.48  0.000002    1.06     30.53   
  1598. D(S  30,O  34,C   3,C   4)   -150.40  0.000002    1.06   -149.34   
  1599. D(S  30,O  34,C   3,C   2)     58.78  0.000006    1.02     59.80   
  1600. D(S  30,O  34,C   2,C   3)   -121.01  0.000006    1.02   -119.99   
  1601. D(S  30,O  34,C   8,H  19)    -49.05  0.000003    1.09    -47.96   
  1602. D(S  30,O  34,C   2,N   0)    -52.62 -0.000002    0.92    -51.69   
  1603. D(S  30,O  34,N   1,C   7)    -29.31  0.000003    0.69    -28.62   
  1604. D(S  30,O  34,N   1,C   5)    132.77  0.000003    0.70    133.47   
  1605. D(C   8,O  34,S  30,C  33)   -147.12  0.000009    0.01   -147.11   
  1606. D(S  30,O  34,N   0,C   5)    170.34  0.000002    0.63    170.97   
  1607. D(S  30,O  34,N   0,C   2)    127.26 -0.000002    0.93    128.18   
  1608. D(N  36,S  35,C  31,F  26)    -65.08  0.000012   -0.04    -65.13   
  1609. D(O  27,S  35,C  31,F  26)     56.70  0.000008   -0.00     56.70   
  1610. D(N  36,S  35,O  27,C   8)   -139.75  0.000004    0.04   -139.72   
  1611. D(C  31,S  35,O  27,C   3)    104.11 -0.000005    0.03    104.14   
  1612. D(C  31,S  35,C   9,N   1)     15.90  0.000007    0.88     16.78   
  1613. D(O  27,S  35,C   9,H  22)   -118.53 -0.000003    0.93   -117.60   
  1614. D(O  27,S  35,C   9,N   1)    115.60 -0.000004    0.87    116.48   
  1615. D(O  27,S  35,C   8,H  19)     43.53 -0.000002    1.32     44.85   
  1616. D(O  27,S  35,C   8,C   4)    147.86 -0.000002    1.31    149.17   
  1617. D(C  31,S  35,C   7,N   1)    144.49  0.000009    0.91    145.40   
  1618. D(O  27,S  35,C   7,C   6)   -163.39 -0.000003    0.83   -162.56   
  1619. D(O  27,S  35,C   7,N   1)   -115.51 -0.000003    0.92   -114.60   
  1620. D(C  31,S  35,C   6,N   0)    137.63  0.000009    0.93    138.55   
  1621. D(O  27,S  35,C   6,C   7)     16.57 -0.000003    0.83     17.40   
  1622. D(O  27,S  35,C   6,N   0)   -122.31 -0.000002    0.93   -121.38   
  1623. D(C  31,S  35,C   5,N   0)    -17.68  0.000007    0.92    -16.76   
  1624. D(O  27,S  35,C   5,N   1)     48.99 -0.000001    0.89     49.88   
  1625. D(O  27,S  35,C   5,N   0)     82.12 -0.000004    0.90     83.02   
  1626. D(C  31,S  35,C   4,C   3)     24.68  0.000008    1.32     26.00   
  1627. D(O  27,S  35,C   4,C   8)    -31.88 -0.000002    1.30    -30.58   
  1628. D(O  27,S  35,C   4,C   3)    123.43 -0.000003    1.30    124.73   
  1629. D(C  31,S  35,C   3,C   2)     51.71  0.000012    1.22     52.93   
  1630. D(O  27,S  35,C   3,C   4)    -56.13 -0.000003    1.30    -54.83   
  1631. D(O  27,S  35,C   3,C   2)    151.11  0.000001    1.20    152.31   
  1632. D(C  31,S  35,C   2,N   0)    -54.61  0.000005    1.12    -53.49   
  1633. D(C  31,S  35,C   8,C   4)     49.75  0.000008    1.33     51.08   
  1634. D(O  27,S  35,C   2,C   3)    -28.68  0.000001    1.19    -27.48   
  1635. D(O  27,S  35,C   2,N   0)     45.34 -0.000006    1.10     46.44   
  1636. D(C  31,S  35,N   1,C   5)    129.44  0.000010    0.90    130.34   
  1637. D(C  31,S  35,O  27,C   8)    106.25 -0.000006   -0.02    106.24   
  1638. D(O  27,S  35,N   1,C   7)     64.10 -0.000002    0.91     65.01   
  1639. D(O  27,S  35,N   1,C   5)   -130.75 -0.000001    0.89   -129.85   
  1640. D(C  31,S  35,N   0,C   2)    125.60  0.000005    1.12    126.71   
  1641. D(O  27,S  35,C  31,F  29)    -63.14 -0.000001    0.01    -63.13   
  1642. D(O  27,S  35,N   0,C   5)    -97.69 -0.000004    0.91    -96.79   
  1643. D(O  27,S  35,N   0,C   2)   -134.47 -0.000006    1.11   -133.36   
  1644. D(C   8,N  36,S  35,O  27)     89.72 -0.000001   -0.13     89.59   
  1645. D(S  30,N  36,S  35,C  31)     84.82  0.000007   -0.12     84.71   
  1646. D(S  30,N  36,S  35,O  27)    -28.91  0.000014   -0.15    -29.06   
  1647. D(C   8,N  36,S  30,O  25)    -64.12 -0.000008   -0.08    -64.19   
  1648. D(S  35,N  36,S  30,C  33)   -127.27 -0.000006   -0.14   -127.40   
  1649. D(S  35,N  36,C   9,N   1)     41.41 -0.000009    0.83     42.23   
  1650. D(S  30,N  36,C   9,H  22)   -101.65  0.000009    0.87   -100.78   
  1651. D(S  30,N  36,C   9,N   1)    129.51  0.000007    0.76    130.26   
  1652. D(S  30,N  36,C   8,H  19)     64.22  0.000007    1.18     65.39   
  1653. D(S  30,N  36,C   8,C   4)    169.11  0.000007    1.17    170.28   
  1654. D(S  35,N  36,C   7,N   1)    172.89 -0.000007    0.95    173.84   
  1655. D(S  30,N  36,C   7,N   1)   -100.77  0.000011    0.84    -99.93   
  1656. D(S  35,N  36,C   6,N   0)    166.53 -0.000007    0.96    167.49   
  1657. D(S  30,N  36,C   6,C   7)     28.69  0.000009    0.79     29.48   
  1658. D(S  30,N  36,C   6,N   0)   -107.41  0.000011    0.87   -106.55   
  1659. D(S  35,N  36,C   5,N   0)     11.49 -0.000008    0.86     12.35   
  1660. D(S  30,N  36,C   5,N   1)     66.51  0.000010    0.85     67.36   
  1661. D(S  30,N  36,C   5,N   0)     99.52  0.000008    0.83    100.35   
  1662. D(S  35,N  36,C   4,C   3)     50.62 -0.000006    1.24     51.85   
  1663. D(S  30,N  36,C   4,C   8)    -11.16  0.000008    1.20     -9.96   
  1664. D(S  30,N  36,C   4,C   3)    143.00  0.000007    1.19    144.19   
  1665. D(S  30,N  36,C   7,C   6)   -151.51  0.000009    0.79   -150.72   
  1666. D(S  35,N  36,C   3,C   2)     80.62 -0.000002    1.18     81.80   
  1667. D(S  30,N  36,C   3,C   4)    -38.02  0.000008    1.22    -36.80   
  1668. D(S  30,N  36,C   3,C   2)    170.31  0.000012    1.13    171.45   
  1669. D(S  35,N  36,C   8,C   4)     74.65 -0.000004    1.24     75.89   
  1670. D(S  35,N  36,C   2,N   0)    -24.83 -0.000011    1.11    -23.72   
  1671. D(S  30,N  36,C   2,C   3)     -9.95  0.000013    1.16     -8.79   
  1672. D(S  30,N  36,C   2,N   0)     62.68  0.000005    1.10     63.77   
  1673. D(S  35,N  36,S  30,O  25)    -16.09 -0.000007   -0.10    -16.19   
  1674. D(S  35,N  36,N   1,C   5)    157.91 -0.000006    0.92    158.83   
  1675. D(S  30,N  36,N   1,C   7)     80.64  0.000010    0.85     81.49   
  1676. D(S  30,N  36,N   1,C   5)   -114.57  0.000011    0.85   -113.72   
  1677. D(S  35,N  36,N   0,C   2)    154.65 -0.000011    1.14    155.79   
  1678. D(S  30,N  36,N   0,C   5)    -81.17  0.000008    0.83    -80.35   
  1679. D(S  30,N  36,N   0,C   2)   -118.19  0.000006    1.09   -117.10   
  1680. D(C   8,F  37,C  31,F  29)    -45.33 -0.000012    0.05    -45.29   
  1681. D(C   8,F  37,C  31,F  26)   -161.59  0.000002    0.06   -161.54   
  1682. D(C  31,F  37,C   9,H  22)   -112.69 -0.000001    0.92   -111.76   
  1683. D(C  31,F  37,C   8,H  19)     48.80  0.000000    1.32     50.11   
  1684. D(C  31,F  37,C   8,C   4)    153.33  0.000000    1.26    154.59   
  1685. D(C  31,F  37,C   7,C   6)   -147.57  0.000003    0.83   -146.74   
  1686. D(C  31,F  37,C   7,N   1)   -110.32 -0.000001    0.91   -109.41   
  1687. D(C  31,F  37,C   6,C   7)     32.34  0.000003    0.83     33.17   
  1688. D(C  31,F  37,C   6,N   0)   -115.67  0.000000    0.91   -114.76   
  1689. D(C  31,F  37,C   5,N   1)     57.41  0.000002    0.87     58.28   
  1690. D(C  31,F  37,C   5,N   0)     83.96 -0.000002    0.95     84.91   
  1691. D(C  31,F  37,C   4,C   8)    -26.37  0.000000    1.25    -25.12   
  1692. D(C  31,F  37,C   4,C   3)    129.45  0.000000    1.32    130.77   
  1693. D(C  31,F  37,C   3,C   4)    -50.04  0.000000    1.31    -48.73   
  1694. D(C  31,F  37,C   3,C   2)    156.63  0.000003    1.15    157.78   
  1695. D(C  31,F  37,C   2,C   3)    -23.14  0.000003    1.14    -21.99   
  1696. D(C  31,F  37,C   2,N   0)     55.65 -0.000002    1.07     56.72   
  1697. D(C  31,F  37,C   9,N   1)    118.46 -0.000001    1.09    119.55   
  1698. D(C  31,F  37,N   1,C   7)     69.17 -0.000000    0.91     70.08   
  1699. D(C  31,F  37,N   1,C   5)   -122.21  0.000002    0.87   -121.34   
  1700. D(C  31,F  37,N   0,C   5)    -95.81 -0.000002    0.95    -94.85   
  1701. D(C   3,F  37,C  31,F  26)   -159.65  0.000001    0.00   -159.65   
  1702. D(C  31,F  37,N   0,C   2)   -124.05 -0.000002    1.08   -122.97   
  1703. D(C   3,F  38,C  33,F  28)    155.86  0.000005   -0.03    155.83   
  1704. D(C   8,F  38,C  33,S  30)     32.92  0.000003   -0.00     32.91   
  1705. D(C   8,F  38,C  33,F  28)    153.30  0.000006   -0.02    153.28   
  1706. D(C  33,F  38,C   9,N   1)     77.25 -0.000005    0.43     77.68   
  1707. D(C  33,F  38,C   8,H  19)     14.84  0.000001    0.93     15.78   
  1708. D(C  33,F  38,C   8,C   4)    120.61  0.000003    0.93    121.53   
  1709. D(C  33,F  38,C   7,N   1)   -146.05  0.000001    0.53   -145.52   
  1710. D(C  33,F  38,C   6,C   7)    -16.44 -0.000004    0.51    -15.93   
  1711. D(C  33,F  38,C   6,N   0)   -152.33  0.000001    0.56   -151.77   
  1712. D(C  33,F  38,C   5,N   1)     19.74  0.000002    0.55     20.29   
  1713. D(C  33,F  38,C   5,N   0)     49.74 -0.000001    0.50     50.24   
  1714. D(C  33,F  38,C   4,C   8)    -59.31  0.000002    0.93    -58.38   
  1715. D(C  33,F  38,C   4,C   3)     93.43  0.000000    0.92     94.35   
  1716. D(C  33,F  38,C   3,C   4)    -86.47 -0.000000    0.92    -85.55   
  1717. D(C  33,F  38,C   7,C   6)    163.55 -0.000004    0.51    164.06   
  1718. D(C  33,F  38,C   3,C   2)    123.17  0.000006    0.83    124.00   
  1719. D(C  33,F  38,C   2,C   3)    -56.77  0.000006    0.83    -55.93   
  1720. D(C  33,F  38,C   2,N   0)     16.20 -0.000003    0.79     16.99   
  1721. D(C  33,F  38,C   9,H  22)   -148.39  0.000000    0.56   -147.83   
  1722. D(C  33,F  38,N   1,C   7)     33.89  0.000001    0.53     34.42   
  1723. D(C  33,F  38,N   1,C   5)   -160.23  0.000002    0.55   -159.69   
  1724. D(C  33,F  38,N   0,C   5)   -130.23 -0.000001    0.50   -129.73   
  1725. D(C  33,F  38,N   0,C   2)   -163.79 -0.000004    0.79   -163.00   
  1726. D(C   8,O  39,S  35,C  31)   -105.28  0.000013   -0.03   -105.31   
  1727. D(C   8,O  39,S  35,O  27)      8.98  0.000007   -0.06      8.92   
  1728. D(S  35,O  39,C   9,H  22)   -131.26 -0.000004    1.02   -130.24   
  1729. D(C   6,O  39,C   8,C   4)     36.61  0.000004    0.08     36.69   
  1730. D(S  35,O  39,C   8,H  19)     34.95 -0.000007    1.37     36.31   
  1731. D(S  35,O  39,C   8,C   4)    140.06 -0.000006    1.35    141.41   
  1732. D(S  35,O  39,C   7,C   6)   -177.33 -0.000003    0.98   -176.35   
  1733. D(S  35,O  39,C   7,N   1)   -130.12 -0.000003    0.99   -129.13   
  1734. D(C   8,O  39,C   6,N   0)    -55.76  0.000004   -0.28    -56.03   
  1735. D(S  35,O  39,C   6,C   7)      2.69 -0.000003    0.99      3.67   
  1736. D(S  35,O  39,C   6,N   0)   -136.31 -0.000002    1.01   -135.30   
  1737. D(S  35,O  39,C   5,N   1)     37.53 -0.000002    1.02     38.54   
  1738. D(S  35,O  39,C   5,N   0)     67.70 -0.000007    1.00     68.70   
  1739. D(S  35,O  39,C   4,C   8)    -40.70 -0.000005    1.37    -39.33   
  1740. D(S  35,O  39,C   4,C   3)    113.44 -0.000007    1.39    114.82   
  1741. D(S  35,O  39,C   3,C   4)    -67.78 -0.000006    1.40    -66.38   
  1742. D(S  35,O  39,C   3,C   2)    140.56 -0.000000    1.29    141.85   
  1743. D(S  35,O  39,C   2,C   3)    -40.24  0.000000    1.31    -38.93   
  1744. D(S  35,O  39,C   2,N   0)     34.24 -0.000007    1.26     35.51   
  1745. D(S  35,O  39,C   9,N   1)     97.50 -0.000010    0.98     98.48   
  1746. D(S  35,O  39,N   1,C   7)     50.72 -0.000004    1.00     51.72   
  1747. D(S  35,O  39,N   1,C   5)   -143.03 -0.000002    1.00   -142.03   
  1748. D(S  35,O  39,N   0,C   5)   -112.80 -0.000006    1.00   -111.80   
  1749. D(C   3,O  39,S  35,O  27)     12.08  0.000005   -0.12     11.96   
  1750. D(S  35,O  39,N   0,C   2)   -146.18 -0.000006    1.25   -144.93   
    ----------------------------------------------------------------------------

Geometry step timings:
Preparation and reading OPT file:      0.005 s ( 0.472 %)
Internal coordinates            :      0.000 s ( 0.012 %)
B/P matrices and projection     :      0.496 s (42.668 %)
Hessian update/contruction      :      0.053 s ( 4.530 %)
Making the step                 :      0.585 s (50.292 %)
Converting the step to Cartesian:      0.011 s ( 0.918 %)
Storing new data                :      0.000 s ( 0.004 %)
Checking convergence            :      0.002 s ( 0.163 %)
Final printing                  :      0.011 s ( 0.942 %)
Total time                      :      1.162 s

Time for energy+gradient        :     27.726 s
Time for complete geometry iter :     29.967 s

         *************************************************************
         *                GEOMETRY OPTIMIZATION CYCLE   5            *
         *************************************************************
---------------------------------
CARTESIAN COORDINATES (ANGSTROEM)
---------------------------------
  N    -33.947697  -22.372318   -8.067814
  N    -35.722875  -23.585958   -7.786645
  C    -32.669907  -21.869684   -8.609223
  C    -31.476598  -22.307396   -7.765650
  C    -31.287385  -23.821170   -7.686021
  C    -34.669699  -23.368364   -8.575760
  C    -34.555737  -21.939472   -6.910798
  C    -35.668679  -22.697542   -6.734825
  C    -30.043045  -24.210026   -6.891007
  C    -36.766364  -24.589869   -8.004937
  H    -32.591702  -22.248205   -9.628282
  H    -32.748319  -20.784037   -8.660580
  H    -31.564515  -21.884645   -6.760028
  H    -30.591780  -21.844615   -8.211078
  H    -32.166862  -24.282319   -7.223520
  H    -31.217811  -24.229925   -8.700264
  H    -34.439535  -23.911497   -9.475565
  H    -34.154426  -21.136340   -6.319146
  H    -36.419707  -22.675389   -5.965203
  H    -30.098243  -23.838821   -5.865335
  H    -29.140504  -23.798142   -7.346653
  H    -29.928869  -25.293383   -6.846931
  H    -36.533802  -25.152189   -8.905300
  H    -36.801607  -25.267332   -7.153921
  H    -37.728402  -24.095175   -8.124967
  O     12.688141    5.383733    2.093670
  F     10.219196    7.198188    1.954619
  O      9.895902    4.276983    1.355654
  F     14.791529    7.115949    0.855689
  F      8.232490    6.789106    1.187559
  S     12.876757    5.309806    0.668522
  C      9.539338    6.827663    0.865247
  F     12.821920    7.977154    0.561944
  C     13.620735    6.959800    0.211497
  O     13.824012    4.362476    0.140827
  S     10.082981    5.154499    0.230669
  N     11.574080    5.371376   -0.227375
  F      9.700147    7.777738   -0.069458
  F     13.861684    7.054552   -1.103039
  O      9.263729    4.977496   -0.939157

----------------------------
CARTESIAN COORDINATES (A.U.)
----------------------------
  NO LB      ZA    FRAG     MASS         X           Y           Z
   0 N     7.0000    0    14.007  -64.151850  -42.277554  -15.245959
   1 N     7.0000    0    14.007  -67.506450  -44.571002  -14.714627
   2 C     6.0000    0    12.011  -61.737177  -41.327713  -16.269074
   3 C     6.0000    0    12.011  -59.482149  -42.154870  -14.674952
   4 C     6.0000    0    12.011  -59.124590  -45.015488  -14.524474
   5 C     6.0000    0    12.011  -65.516236  -44.159807  -16.205838
   6 C     6.0000    0    12.011  -65.300880  -41.459594  -13.059515
   7 C     6.0000    0    12.011  -67.404035  -42.892138  -12.726974
   8 C     6.0000    0    12.011  -56.773127  -45.750318  -13.022115
   9 C     6.0000    0    12.011  -69.478359  -46.468118  -15.127139
  10 H     1.0000    0     1.008  -61.589391  -42.043014  -18.194817
  11 H     1.0000    0     1.008  -61.885354  -39.276137  -16.366125
  12 H     1.0000    0     1.008  -59.648290  -41.355985  -12.774601
  13 H     1.0000    0     1.008  -57.810086  -41.280339  -15.516690
  14 H     1.0000    0     1.008  -60.786559  -45.886934  -13.650475
  15 H     1.0000    0     1.008  -58.993113  -45.787922  -16.441115
  16 H     1.0000    0     1.008  -65.081289  -45.186180  -17.906223
  17 H     1.0000    0     1.008  -64.542511  -39.941895  -11.941455
  18 H     1.0000    0     1.008  -68.823271  -42.850274  -11.272600
  19 H     1.0000    0     1.008  -56.877436  -45.048844  -11.083878
  20 H     1.0000    0     1.008  -55.067572  -44.971971  -13.883162
  21 H     1.0000    0     1.008  -56.557366  -47.797567  -12.938825
  22 H     1.0000    0     1.008  -69.038881  -47.530748  -16.828577
  23 H     1.0000    0     1.008  -69.544959  -47.748337  -13.518951
  24 H     1.0000    0     1.008  -71.296348  -45.533282  -15.353963
  25 O     8.0000    0    15.999   23.977111   10.173780    3.956462
  26 F     9.0000    0    18.998   19.311483   13.602604    3.693695
  27 O     8.0000    0    15.999   18.700544    8.082327    2.561815
  28 F     9.0000    0    18.998   27.951939   13.447195    1.617018
  29 F     9.0000    0    18.998   15.557151   12.829552    2.244161
  30 S    16.0000    0    32.060   24.333544   10.034079    1.263323
  31 C     6.0000    0    12.011   18.026736   12.902413    1.635080
  32 F     9.0000    0    18.998   24.229917   15.074637    1.061921
  33 C     6.0000    0    12.011   25.739460   13.152115    0.399672
  34 O     8.0000    0    15.999   26.123597    8.243886    0.266125
  35 S    16.0000    0    32.060   19.054072    9.740592    0.435901
  36 N     7.0000    0    14.007   21.871842   10.150430   -0.429677
  37 F     9.0000    0    18.998   18.330621   14.697795   -0.131256
  38 F     9.0000    0    18.998   26.194786   13.331171   -2.084442
  39 O     8.0000    0    15.999   17.505911    9.406104   -1.774749

--------------------------------
INTERNAL COORDINATES (ANGSTROEM)
--------------------------------
 N      0   0   0     0.000000000000     0.00000000     0.00000000
 N      1   0   0     2.168694405348     0.00000000     0.00000000
 C      1   2   0     1.475978258884   161.22086423     0.00000000
 C      3   1   2     1.525514850234   112.12620597   260.06820183
 C      4   3   1     1.527630039097   114.20717606    61.45107209
 C      1   2   3     1.330940904164    35.57382217     7.73749757
 C      1   2   6     1.376863756782    72.87241378   180.22472739
 C      7   1   2     1.358041432344   107.17641110   359.91077354
 C      5   4   3     1.526970328099   112.35984137   177.13094335
 C      2   1   3     1.464362761305   161.37221266   350.71676085
 H      3   1   2     1.089897121348   106.66779639    21.99352942
 H      3   1   2     1.089686157993   107.11393663   137.31004841
 H      4   3   1     1.094405957907   109.53852454   297.34548245
 H      4   3   1     1.093378036778   106.63678510   183.04420695
 H      5   4   3     1.095465174302   109.85932883   298.78377401
 H      5   4   3     1.095723393188   109.22486691    55.30822670
 H      6   1   2     1.075926623341   125.51452268   180.14816686
 H      7   1   2     1.075231807203   122.16679361   180.19138645
 H      8   7   1     1.075569505886   130.80303132   180.65348449
 H      9   5   4     1.092172555025   111.17444242    59.97493724
 H      9   5   4     1.091715205254   111.11986051   299.91916521
 H      9   5   4     1.090248551162   111.06568333   179.96011180
 H     10   2   1     1.086711020742   109.01126103     2.52007214
 H     10   2   1     1.088313590506   109.46699219   122.19040035
 H     10   2   1     1.088414856349   109.55404539   242.77677169
 O     21   9   5    51.868458727743   143.41723872   125.05569008
 F     26  21   9     3.067127123053    71.06003411   286.77902450
 O     27  26  21     2.999452426526    61.29290749   355.55673910
 F     26  21   9     2.992893596069   144.79572864   203.16303462
 F     27  26  21     2.168578404368   129.93359015   345.12447533
 S     26  21   9     1.439474705444    84.06391046   189.17190631
 C     27  26  21     1.336498110392   106.40485007   313.35240695
 F     29  26  21     2.169636355402    69.37427471    62.92503444
 C     33  29  26     1.340123130693    36.19124071   290.83773444
 O     31  26  21     1.439856654196   118.87079350   260.50996811
 S     28  27  26     1.438966394202    63.14018001   264.53410568
 N     36  28  27     1.574870691169   115.75070635    91.29795922
 F     32  27  26     1.342451590383   108.08242172   253.03050092
 F     34  33  29     1.339790899911   108.06431333   243.79415182
 O     36  28  27     1.439095163610   119.11077427   223.72316279

---------------------------
INTERNAL COORDINATES (A.U.)
---------------------------
 N      0   0   0     0.000000000000     0.00000000     0.00000000
 N      1   0   0     4.098238494276     0.00000000     0.00000000
 C      1   2   0     2.789194688914   161.22086423     0.00000000
 C      3   1   2     2.882805280172   112.12620597   260.06820183
 C      4   3   1     2.886802407845   114.20717606    61.45107209
 C      1   2   3     2.515113809304    35.57382217     7.73749757
 C      1   2   6     2.601895424039    72.87241378   180.22472739
 C      7   1   2     2.566326385649   107.17641110   359.91077354
 C      5   4   3     2.885555734730   112.35984137   177.13094335
 C      2   1   3     2.767244579579   161.37221266   350.71676085
 H      3   1   2     2.059607073497   106.66779639    21.99352942
 H      3   1   2     2.059208410531   107.11393663   137.31004841
 H      4   3   1     2.068127539776   109.53852454   297.34548245
 H      4   3   1     2.066185050356   106.63678510   183.04420695
 H      5   4   3     2.070129168680   109.85932883   298.78377401
 H      5   4   3     2.070617131656   109.22486691    55.30822670
 H      6   1   2     2.033206658309   125.51452268   180.14816686
 H      7   1   2     2.031893646094   122.16679361   180.19138645
 H      8   7   1     2.032531804121   130.80303132   180.65348449
 H      9   5   4     2.063907019982   111.17444242    59.97493724
 H      9   5   4     2.063042754168   111.11986051   299.91916521
 H      9   5   4     2.060271179601   111.06568333   179.96011180
 H     10   2   1     2.053586215916   109.01126103     2.52007214
 H     10   2   1     2.056614633880   109.46699219   122.19040035
 H     10   2   1     2.056805998592   109.55404539   242.77677169
 O     21   9   5    98.017181984031   143.41723872   125.05569008
 F     26  21   9     5.796030280492    71.06003411   286.77902450
 O     27  26  21     5.668143637861    61.29290749   355.55673910
 F     26  21   9     5.655749244538   144.79572864   203.16303462
 F     27  26  21     4.098019284191   129.93359015   345.12447533
 S     26  21   9     2.720212969997    84.06391046   189.17190631
 C     27  26  21     2.525615407144   106.40485007   313.35240695
 F     29  26  21     4.100018521910    69.37427471    62.92503444
 C     33  29  26     2.532465702744    36.19124071   290.83773444
 O     31  26  21     2.720934748535   118.87079350   260.50996811
 S     28  27  26     2.719252400958    63.14018001   264.53410568
 N     36  28  27     2.976074302649   115.75070635    91.29795922
 F     32  27  26     2.536865853871   108.08242172   253.03050092
 F     34  33  29     2.531837877551   108.06431333   243.79415182
 O     36  28  27     2.719495739874   119.11077427   223.72316279



           ************************************************************
           *        Program running with 30 parallel MPI-processes    *
           *              working on a common directory               *
           ************************************************************
------------------------------------------------------------------------------
                   ___                                                        
                  /   \      - P O W E R E D   B Y -                         
                 /     \                                                     
                 |  |  |   _    _      __       _____    __    __             
                 |  |  |  | |  | |    /  \     |  _  \  |  |  /  |          
                  \  \/   | |  | |   /    \    | | | |  |  | /  /          
                 / \  \   | |__| |  /  /\  \   | |_| |  |  |/  /          
                |  |  |   |  __  | /  /__\  \  |    /   |      \           
                |  |  |   | |  | | |   __   |  |    \   |  |\   \          
                \     /   | |  | | |  |  |  |  | |\  \  |  | \   \       
                 \___/    |_|  |_| |__|  |__|  |_| \__\ |__|  \__/        
                                                                              
                      - O R C A' S   B I G   F R I E N D -                    
                                      &                                       
                       - I N T E G R A L  F E E D E R -                       
                                                                              
 v1 FN, 2020, v2 2021, v3 2022-2024                                           
------------------------------------------------------------------------------


----------------------
SHARK INTEGRAL PACKAGE
----------------------

Number of atoms                             ...     40
Number of basis functions                   ...    877
Number of shells                            ...    339
Maximum angular momentum                    ...      3
Integral batch strategy                     ... SHARK/LIBINT Hybrid
RI-J (if used) integral strategy            ... SPLIT-RIJ (Revised 2003 algorithm where possible)
Printlevel                                  ...      1
Contraction scheme used                     ... SEGMENTED contraction
Prescreening option                         ... SCHWARTZ
   Thresh                                   ... 2.500e-11
   Tcut                                     ... 2.500e-12
   Tpresel                                  ... 2.500e-12 
Coulomb Range Separation                    ... NOT USED
Exchange Range Separation                   ... NOT USED
Multipole approximations                    ... NOT USED
Finite Nucleus Model                        ... NOT USED
CABS basis                                  ... NOT available
Auxiliary Coulomb fitting basis             ... AVAILABLE
   # of basis functions in Aux-J            ...   1394
   # of shells in Aux-J                     ...    454
   Maximum angular momentum in Aux-J        ...      4
Auxiliary J/K fitting basis                 ... NOT available
Auxiliary Correlation fitting basis         ... NOT available
Auxiliary 'external' fitting basis          ... NOT available

Checking pre-screening integrals            ... done (  0.0 sec) Dimension = 339
Check shell pair data                       ... done (  0.0 sec)
Shell pair information
Shell pair cut-off parameter TPreSel        ...   2.5e-12
Total number of shell pairs                 ...     57630
Shell pairs after pre-screening             ...     23187
Total number of primitive shell pairs       ...    183333
Primitive shell pairs kept                  ...     51014
          la=0 lb=0:   5702 shell pairs
          la=1 lb=0:   6568 shell pairs
          la=1 lb=1:   1992 shell pairs
          la=2 lb=0:   3211 shell pairs
          la=2 lb=1:   2009 shell pairs
          la=2 lb=2:    541 shell pairs
          la=3 lb=0:   1539 shell pairs
          la=3 lb=1:    983 shell pairs
          la=3 lb=2:    507 shell pairs
          la=3 lb=3:    135 shell pairs

Calculating one electron integrals          ... done (  0.1 sec)
Calculating RI/J V-Matrix + Cholesky decomp.... done (  0.1 sec)
Calculating Nuclear repulsion               ... done (  0.0 sec) ENN=   2254.877930989120 Eh

Diagonalization of the overlap matrix:
Smallest eigenvalue                        ... 8.161e-05
Time for diagonalization                   ...    0.098 sec
Threshold for overlap eigenvalues          ... 1.000e-07
Number of eigenvalues below threshold      ... 0
Time for construction of square roots      ...    0.053 sec
Total time needed                          ...    0.157 sec

-------------------
DFT GRID GENERATION
-------------------

General Integration Accuracy     IntAcc      ... 4.388
Radial Grid Type                 RadialGrid  ... OptM3 with GC (2021)
Angular Grid (max. ang.)         AngularGrid ... 4 (Lebedev-302)
Angular grid pruning method      GridPruning ... 4 (adaptive)
Weight generation scheme         WeightScheme... mBecke (2022)
Basis function cutoff            BFCut       ... 1.0000e-11
Integration weight cutoff        WCut        ... 1.0000e-14
Partially contracted basis set               ... off
Rotationally invariant grid construction     ... off
Angular grids for H and He will be reduced by one unit

Total number of grid points                  ...   201673
Total number of batches                      ...     3170
Average number of points per batch           ...       63
Average number of grid points per atom       ...     5042

--------------------
COSX GRID GENERATION
--------------------

GRIDX 1
-------
General Integration Accuracy     IntAcc      ... 3.816
Radial Grid Type                 RadialGrid  ... OptM3 with GC (2021)
Angular Grid (max. ang.)         AngularGrid ... 1 (Lebedev-50)
Angular grid pruning method      GridPruning ... 4 (adaptive)
Weight generation scheme         WeightScheme... mBecke (2022)
Basis function cutoff            BFCut       ... 1.0000e-11
Integration weight cutoff        WCut        ... 1.0000e-14
Partially contracted basis set               ... on
Rotationally invariant grid construction     ... off
Angular grids for H and He will be reduced by one unit

Total number of grid points                  ...    27642
Total number of batches                      ...      239
Average number of points per batch           ...      115
Average number of grid points per atom       ...      691
UseSFitting                                  ... on

GRIDX 2
-------
General Integration Accuracy     IntAcc      ... 4.020
Radial Grid Type                 RadialGrid  ... OptM3 with GC (2021)
Angular Grid (max. ang.)         AngularGrid ... 2 (Lebedev-110)
Angular grid pruning method      GridPruning ... 4 (adaptive)
Weight generation scheme         WeightScheme... mBecke (2022)
Basis function cutoff            BFCut       ... 1.0000e-11
Integration weight cutoff        WCut        ... 1.0000e-14
Partially contracted basis set               ... on
Rotationally invariant grid construction     ... off
Angular grids for H and He will be reduced by one unit

Total number of grid points                  ...    56704
Total number of batches                      ...      466
Average number of points per batch           ...      121
Average number of grid points per atom       ...     1418
UseSFitting                                  ... on

GRIDX 3
-------
General Integration Accuracy     IntAcc      ... 4.338
Radial Grid Type                 RadialGrid  ... OptM3 with GC (2021)
Angular Grid (max. ang.)         AngularGrid ... 3 (Lebedev-194)
Angular grid pruning method      GridPruning ... 4 (adaptive)
Weight generation scheme         WeightScheme... mBecke (2022)
Basis function cutoff            BFCut       ... 1.0000e-11
Integration weight cutoff        WCut        ... 1.0000e-14
Partially contracted basis set               ... on
Rotationally invariant grid construction     ... off
Angular grids for H and He will be reduced by one unit

Total number of grid points                  ...   125764
Total number of batches                      ...     1001
Average number of points per batch           ...      125
Average number of grid points per atom       ...     3144
UseSFitting                                  ... on
Initializing property integral containers    ... done (  0.0 sec)

SHARK setup successfully completed in   2.4 seconds

Maximum memory used throughout the entire STARTUP-calculation: 74.6 MB

ORCA finished by error termination in GUESS
Calling Command: mpirun -np 30  /home/yongsang/orca_6_0_1_linux_x86-64_shared_openmpi416/orca_guess_mpi complex.gbw complex 
[file orca_tools/qcmsg.cpp, line 394]: 
  .... aborting the run

