&INPUTPP
  outdir = './tmp',
  prefix = 'MIL125_NH2_opt'  
  filplot = 'valence_density',
  plot_num = 17,
  spin_component = 0  ! 전체 전자 밀도
/

&PLOT
  iflag = 3,
  output_format = 6,
  fileout = 'valence_density.cube'
/
