25
 i =      167, E =     -1376.2763646687
  H         2.4671104412        7.2450650633        9.9336997988
  H         0.9376084617        6.5359836038        9.3827449077
  C         1.5649153512        6.7144360837       10.2673474241
  H         2.4596236732        4.7353652747       10.2714109681
  H         1.0064183286        7.3817733937       10.9398016452
  C         1.9198429528        5.3927875342       10.9676099765
  H         2.6087457162        5.5900435193       11.8013935679
  H         1.3650451083        2.6188745593       11.4125401286
  H        -0.0448016269        4.4993879351       10.6651732202
  C         0.6657650794        4.6791264180       11.4854963966
  H         3.2468775780        1.8227368448       12.7930831258
  H         0.1294068045        5.3285426827       12.1909221920
  C         2.9201414218        2.6178755834       13.4530673002
  C         0.9067509484        3.3131105577       12.1264632023
  H         5.5319390945        2.3537591537       14.4028289818
  N         1.8290321444        3.3856288678       13.2817031471
  H         5.0553041128        2.9553646442       16.0201627283
  N         3.5337323355        3.0022045159       14.5897438038
  C         4.7344149459        2.3716207633       15.1530816946
  H        -0.0333225385        2.8698100763       12.4789340043
  C         2.8124868281        4.0395798491       15.1527416170
  H         0.9280635687        4.9893724258       14.4202140801
  C         1.7396624178        4.2783311052       14.3354197596
  H         3.1087183243        4.4985281595       16.0860570525
  H         4.4905372264        1.3480385749       15.4623249619
