25
 i =      273, E =     -1376.2724417929
H        3.9015000000      2.9416000000     15.7307000000                 
H        3.2143000000      4.5067000000     16.2075000000                 
C        3.8634000000      4.0108000000     15.4763000000                 
H        5.6822000000      4.4738000000     16.4578000000                 
H        1.3545000000      5.1417000000     14.7251000000                 
N        3.1795000000      4.1216000000     14.1705000000                 
C        5.2593000000      4.6355000000     15.4533000000                 
C        1.9809000000      4.6982000000     13.9611000000                 
H        5.9085000000      4.0640000000     14.7752000000                 
H        4.6742000000      6.6976000000     15.7922000000                 
C        5.2929000000      6.1235000000     15.0869000000                 
H        7.1916000000      6.6510000000     16.0574000000                 
H        4.8330000000      6.2646000000     14.0984000000                 
C        6.7252000000      6.6768000000     15.0614000000                 
H        7.3660000000      6.0965000000     14.3830000000                 
H        6.7486000000      7.7224000000     14.7269000000                 
C        3.6735000000      3.6720000000     12.9581000000                 
N        1.6967000000      4.6241000000     12.6452000000                 
H       -0.1712000000      5.5758000000     12.7419000000                 
H       -0.0200000000      4.3625000000     11.4363000000                 
C        2.7446000000      3.9850000000     12.0041000000                 
C        0.4983000000      5.1599000000     11.9845000000                 
H        2.7385000000      3.8147000000     10.9361000000                 
H        0.7945000000      5.9491000000     11.2850000000                 
H        4.6302000000      3.1723000000     12.8770000000                 
