25
 i =      273, E =     -1376.2724417929
H          4.03480        2.31620       13.80990
H          3.62350        3.78160       14.72240
C          4.01590        3.41490       13.76670
H          6.05970        3.63030       14.27900
H          1.49560        4.74010       13.93940
N          3.02360        3.79130       12.73770
C          5.40160        3.99190       13.47270
C          1.86180        4.43170       12.96800
H          5.80200        3.54090       12.55400
H          5.09170        5.96830       14.31380
C          5.45540        5.52080       13.37710
H          7.57820        5.79920       13.86860
H          4.76440        5.86020       12.59240
C          6.86970        6.02710       13.05840
H          7.26140        5.56780       12.14010
H          6.88720        7.11610       12.91840
C          3.14390        3.56590       11.37730
N          1.23640        4.61690       11.78790
H         -0.45870        5.58670       12.55620
H         -0.75310        4.63940       11.06770
C          2.02470        4.08100       10.78340
C         -0.04720        5.30290       11.58410
H          1.72430        4.11670        9.74510
H          0.11620        6.20160       10.97950
H          4.00290        3.06310       10.95180
