200
Lattice="32.018782 0.0 0.0 -14.043870532898428 28.753623292648026 0.0 -8.625062807759862 -14.478403582935226 26.22054754850901" Properties=species:S:1:pos:R:3 i=273 E=-1376.2724417929 pbc="T T T"
H        3.90150000       2.94160000      15.73070000
H        3.21430000       4.50670000      16.20750000
C        3.86340000       4.01080000      15.47630000
H        5.68220000       4.47380000      16.45780000
H        1.35450000       5.14170000      14.72510000
N        3.17950000       4.12160000      14.17050000
C        5.25930000       4.63550000      15.45330000
C        1.98090000       4.69820000      13.96110000
H        5.90850000       4.06400000      14.77520000
H        4.67420000       6.69760000      15.79220000
C        5.29290000       6.12350000      15.08690000
H        7.19160000       6.65100000      16.05740000
H        4.83300000       6.26460000      14.09840000
C        6.72520000       6.67680000      15.06140000
H        7.36600000       6.09650000      14.38300000
H        6.74860000       7.72240000      14.72690000
C        3.67350000       3.67200000      12.95810000
N        1.69670000       4.62410000      12.64520000
H       -0.17120000       5.57580000      12.74190000
H       -0.02000000       4.36250000      11.43630000
C        2.74460000       3.98500000      12.00410000
C        0.49830000       5.15990000      11.98450000
H        2.73850000       3.81470000      10.93610000
H        0.79450000       5.94910000      11.28500000
H        4.63020000       3.17230000      12.87700000
H       -0.41103140      -4.29760179      28.84097377
H       -1.09823140      -2.73250179      29.31777377
C       -0.44913140      -3.22840179      28.58657377
H        1.36966860      -2.76540179      29.56807377
H       -2.95803140      -2.09750179      27.83537377
N       -1.13303140      -3.11760179      27.28077377
C        0.94676860      -2.60370179      28.56357377
C       -2.33163140      -2.54100179      27.07137377
H        1.59596860      -3.17520179      27.88547377
H        0.36166860      -0.54160179      28.90247377
C        0.98036860      -1.11570179      28.19717377
H        2.87906860      -0.58820179      29.16767377
H        0.52046860      -0.97460179      27.20867377
C        2.41266860      -0.56240179      28.17167377
H        3.05346860      -1.14270179      27.49327377
H        2.43606860       0.48319821      27.83717377
C       -0.63903140      -3.56720179      26.06837377
N       -2.61583140      -2.61510179      25.75547377
H       -4.48373140      -1.66340179      25.85217377
H       -4.33253140      -2.87670179      24.54657377
C       -1.56793140      -3.25420179      25.11437377
C       -3.81423140      -2.07930179      25.09477377
H       -1.57403140      -3.42450179      24.04637377
H       -3.51803140      -1.29010179      24.39527377
H        0.31766860      -4.06690179      25.98727377
H       -3.12043527      17.31841165      15.73070000
H       -3.80763527      18.88351165      16.20750000
C       -3.15853527      18.38761165      15.47630000
H       -1.33973527      18.85061165      16.45780000
H       -5.66743527      19.51851165      14.72510000
N       -3.84243527      18.49841165      14.17050000
C       -1.76263527      19.01231165      15.45330000
C       -5.04103527      19.07501165      13.96110000
H       -1.11343527      18.44081165      14.77520000
H       -2.34773527      21.07441165      15.79220000
C       -1.72903527      20.50031165      15.08690000
H        0.16966473      21.02781165      16.05740000
H       -2.18893527      20.64141165      14.09840000
C       -0.29673527      21.05361165      15.06140000
H        0.34406473      20.47331165      14.38300000
H       -0.27333527      22.09921165      14.72690000
C       -3.34843527      18.04881165      12.95810000
N       -5.32523527      19.00091165      12.64520000
H       -7.19313527      19.95261165      12.74190000
H       -7.04193527      18.73931165      11.43630000
C       -4.27733527      18.36181165      12.00410000
C       -6.52363527      19.53671165      11.98450000
H       -4.28343527      18.19151165      10.93610000
H       -6.22743527      20.32591165      11.28500000
H       -2.39173527      17.54911165      12.87700000
H       -7.43296667      10.07920985      28.84097377
H       -8.12016667      11.64430985      29.31777377
C       -7.47106667      11.14840985      28.58657377
H       -5.65226667      11.61140985      29.56807377
H       -9.97996667      12.27930985      27.83537377
N       -8.15496667      11.25920985      27.28077377
C       -6.07516667      11.77310985      28.56357377
C       -9.35356667      11.83580985      27.07137377
H       -5.42596667      11.20160985      27.88547377
H       -6.66026667      13.83520985      28.90247377
C       -6.04156667      13.26110985      28.19717377
H       -4.14286667      13.78860985      29.16767377
H       -6.50146667      13.40220985      27.20867377
C       -4.60926667      13.81440985      28.17167377
H       -3.96846667      13.23410985      27.49327377
H       -4.58586667      14.86000985      27.83717377
C       -7.66096667      10.80960985      26.06837377
N       -9.63776667      11.76170985      25.75547377
H      -11.50566667      12.71340985      25.85217377
H      -11.35446667      11.50010985      24.54657377
C       -8.58986667      11.12260985      25.11437377
C      -10.83616667      12.29750985      25.09477377
H       -8.59596667      10.95230985      24.04637377
H      -10.53996667      13.08670985      24.39527377
H       -6.70426667      10.30990985      25.98727377
H       19.91089100       2.94160000      15.73070000
H       19.22369100       4.50670000      16.20750000
C       19.87279100       4.01080000      15.47630000
H       21.69159100       4.47380000      16.45780000
H       17.36389100       5.14170000      14.72510000
N       19.18889100       4.12160000      14.17050000
C       21.26869100       4.63550000      15.45330000
C       17.99029100       4.69820000      13.96110000
H       21.91789100       4.06400000      14.77520000
H       20.68359100       6.69760000      15.79220000
C       21.30229100       6.12350000      15.08690000
H       23.20099100       6.65100000      16.05740000
H       20.84239100       6.26460000      14.09840000
C       22.73459100       6.67680000      15.06140000
H       23.37539100       6.09650000      14.38300000
H       22.75799100       7.72240000      14.72690000
C       19.68289100       3.67200000      12.95810000
N       17.70609100       4.62410000      12.64520000
H       15.83819100       5.57580000      12.74190000
H       15.98939100       4.36250000      11.43630000
C       18.75399100       3.98500000      12.00410000
C       16.50769100       5.15990000      11.98450000
H       18.74789100       3.81470000      10.93610000
H       16.80389100       5.94910000      11.28500000
H       20.63959100       3.17230000      12.87700000
H       15.59835960      -4.29760179      28.84097377
H       14.91115960      -2.73250179      29.31777377
C       15.56025960      -3.22840179      28.58657377
H       17.37905960      -2.76540179      29.56807377
H       13.05135960      -2.09750179      27.83537377
N       14.87635960      -3.11760179      27.28077377
C       16.95615960      -2.60370179      28.56357377
C       13.67775960      -2.54100179      27.07137377
H       17.60535960      -3.17520179      27.88547377
H       16.37105960      -0.54160179      28.90247377
C       16.98975960      -1.11570179      28.19717377
H       18.88845960      -0.58820179      29.16767377
H       16.52985960      -0.97460179      27.20867377
C       18.42205960      -0.56240179      28.17167377
H       19.06285960      -1.14270179      27.49327377
H       18.44545960       0.48319821      27.83717377
C       15.37035960      -3.56720179      26.06837377
N       13.39355960      -2.61510179      25.75547377
H       11.52565960      -1.66340179      25.85217377
H       11.67685960      -2.87670179      24.54657377
C       14.44145960      -3.25420179      25.11437377
C       12.19515960      -2.07930179      25.09477377
H       14.43535960      -3.42450179      24.04637377
H       12.49135960      -1.29010179      24.39527377
H       16.32705960      -4.06690179      25.98727377
H       12.88895573      17.31841165      15.73070000
H       12.20175573      18.88351165      16.20750000
C       12.85085573      18.38761165      15.47630000
H       14.66965573      18.85061165      16.45780000
H       10.34195573      19.51851165      14.72510000
N       12.16695573      18.49841165      14.17050000
C       14.24675573      19.01231165      15.45330000
C       10.96835573      19.07501165      13.96110000
H       14.89595573      18.44081165      14.77520000
H       13.66165573      21.07441165      15.79220000
C       14.28035573      20.50031165      15.08690000
H       16.17905573      21.02781165      16.05740000
H       13.82045573      20.64141165      14.09840000
C       15.71265573      21.05361165      15.06140000
H       16.35345573      20.47331165      14.38300000
H       15.73605573      22.09921165      14.72690000
C       12.66095573      18.04881165      12.95810000
N       10.68415573      19.00091165      12.64520000
H        8.81625573      19.95261165      12.74190000
H        8.96745573      18.73931165      11.43630000
C       11.73205573      18.36181165      12.00410000
C        9.48575573      19.53671165      11.98450000
H       11.72595573      18.19151165      10.93610000
H        9.78195573      20.32591165      11.28500000
H       13.61765573      17.54911165      12.87700000
H        8.57642433      10.07920985      28.84097377
H        7.88922433      11.64430985      29.31777377
C        8.53832433      11.14840985      28.58657377
H       10.35712433      11.61140985      29.56807377
H        6.02942433      12.27930985      27.83537377
N        7.85442433      11.25920985      27.28077377
C        9.93422433      11.77310985      28.56357377
C        6.65582433      11.83580985      27.07137377
H       10.58342433      11.20160985      27.88547377
H        9.34912433      13.83520985      28.90247377
C        9.96782433      13.26110985      28.19717377
H       11.86652433      13.78860985      29.16767377
H        9.50792433      13.40220985      27.20867377
C       11.40012433      13.81440985      28.17167377
H       12.04092433      13.23410985      27.49327377
H       11.42352433      14.86000985      27.83717377
C        8.34842433      10.80960985      26.06837377
N        6.37162433      11.76170985      25.75547377
H        4.50372433      12.71340985      25.85217377
H        4.65492433      11.50010985      24.54657377
C        7.41952433      11.12260985      25.11437377
C        5.17322433      12.29750985      25.09477377
H        7.41342433      10.95230985      24.04637377
H        5.46942433      13.08670985      24.39527377
H        9.30512433      10.30990985      25.98727377
