! Opt B3LYP D4 def2-TZVP TightSCF TightOpt

%maxcore 5000

%pal
nprocs 25
end

* xyz 1 1
N         -0.26130        0.74560       -0.28840
N         -1.97150       -0.52670       -0.03670
C          1.00110        1.27760       -0.79210
C          2.21190        0.74040       -0.03220
C          2.33220       -0.78190       -0.11260
C         -0.84170       -0.36560       -0.73310
C         -1.01570        1.31090        0.70200
C         -2.10510        0.50240        0.86410
C          3.55450       -1.28290        0.64100
C         -2.90450       -1.61970       -0.21200
H          1.07670        1.02590       -1.85670
H          0.97110        2.37110       -0.72200
H          2.13940        1.04150        1.02000
H          3.11870        1.20370       -0.43860
H          1.44880       -1.26030        0.32240
H          2.39630       -1.09730       -1.16020
H         -0.47570       -1.01560       -1.51260
H         -0.67110        2.21730        1.16110
H         -2.96820        0.51290        1.50150
H          3.50110       -1.01170        1.70020
H          4.47340       -0.85930        0.22330
H          3.62160       -2.37310        0.57240
H         -2.53870       -2.30620       -0.98030
H         -3.00870       -2.16030        0.73270
H         -3.87440       -1.21920       -0.51920
*
