&CONTROL
  calculation = 'vc-relax'    
  restart_mode ='from_scratch' 
  prefix = 'MIL125_NH2_convtest'  
  outdir = './tmp'       
  pseudo_dir = '/home/yongsang/Research/PSID_server_room/qe/[00]QE/qepseudo/SSSP_1.3.0_PBE_efficiency' 
  verbosity = 'high'      
  max_seconds   =  1.72800e+06 
  nstep = 300
/

&SYSTEM
  ibrav = 0           
  nat = 124
  ntyp = 5            
  ecutwfc = 50   
  ecutrho = 400
  occupations = 'fixed'   
  nosym = .TRUE.
  vdw_corr='grimme-d3'
! etot_conv_thr=1.0e-6
! forc_conv_thr=2.0e-4
/

&ELECTRONS
  conv_thr = 1.0e-6       
  electron_maxstep = 200
  mixing_beta = 0.2
  diagonalization = 'david'  
  startingwfc = "atomic+random"
  startingpot = "atomic"
/

&IONS
  ion_dynamics = 'bfgs',
/

&CELL
  cell_dofree = 'all'
  cell_dynamics = 'bfgs',
/

ATOMIC_SPECIES
  Ti   47.86700   ti_pbe_v1.4.uspp.F.UPF
  N    14.00674   N.pbe-n-radius_5.UPF
  C    12.01070   C.pbe-n-kjpaw_psl.1.0.0.UPF
  H     1.00794   H.pbe-rrkjus_psl.1.0.0.UPF
  O    15.99940   O.pbe-n-kjpaw_psl.0.1.UPF

CELL_PARAMETERS (angstrom) 
       16.2546348572         0.0000000000         0.0000000000
       -6.1469032765        15.0475491177         0.0000000000
       -5.0538670194        -7.5237763886        13.4931231130

ATOMIC_POSITIONS (angstrom)  
Ti      -3.1589541294      2.1219283758     11.6271590690                 
Ti       8.2128185532      5.4018441749      1.8659639875                 
Ti       1.5489533757     -1.0404642736      9.6876575608                 
Ti       3.5049110481      8.5642368243      3.8054654956                 
Ti       1.8949126841      9.6457044842      1.8659639875                 
Ti       3.1589517396     -2.1219319335     11.6271590690                 
Ti      -1.5489553668      1.0404613094      9.6876575608                 
Ti       6.6028197906      6.4833112413      3.8054654956                 
H        3.6947321075      1.6458471449      7.3433218816                 
H       -0.1264149699     -4.0427584611      7.3433218816                 
H        5.1802793937     11.5665310118      6.1498011748                 
H       -3.1944358029      6.2734343951     11.3438169779                 
H        8.2483002267      1.2503381556      2.1493060785                 
H       -7.0155828803      0.5848287891     11.3438169779                 
H       12.0694473041      6.9389437616      2.1493060785                 
H        3.1944334714     -6.2734378661     11.3438169779                 
H       -1.9617161250      8.1086048108      2.1493060785                 
H        4.9274509632      3.4810163365      6.1498011748                 
H        0.1264134606      4.0427562142      7.3433218816                 
H       -3.6947336168     -1.6458493918      7.3433218816                 
H        3.4005426719      8.6343439384      0.0000000000                 
H        6.7071889490      6.4132052917      0.0000000000                 
H       -0.0000011820     -0.0000017596     11.5014301483                 
H        5.0538656058      7.5237743103      1.9916929081                 
H        3.6014834963     -2.4191879011      6.1122633065                 
H        1.4523809275      9.9429604518      7.3808597500                 
H       -6.1269224944      4.1155710278      9.1545577620                 
H       11.1807869182      3.4082015229      4.3385652944                 
H       -3.6014847526      2.4191860308      6.1122633065                 
H       -1.0730561890     11.6393463797      4.3385652944                 
H        1.8222914690     12.9154878336      2.6405147227                 
H        7.9594723048     -1.2648265975      3.1581142965                 
H        6.7431616150     -0.3436323160     10.4016330790                 
H        6.4901090908     -1.2427090709     10.7859837448                 
H        7.8028119317      5.2131881377      7.9114121821                 
H        8.0998208197      5.9418099796      7.2781699322                 
H        6.2414288436     -4.7326762011      9.9458684404                 
H        6.3675851771     -3.7370482018     10.0594880926                 
H        1.1781655350      1.7555400075      7.7855125469                 
H        1.3364108206      5.7679593556      6.2278206830                 
H        6.3260765824      9.3735154638      5.7570911380                 
H        8.9316021012      9.1908561242      6.4520028809                 
C       8.9579270304      4.9013396821      4.7030685207                 
C      -3.9040626067      2.6224328686      8.7900545358                 
C       3.9040608000     -2.6224355582      8.7900545358                 
C       1.1498036238     10.1462081089      4.7030685207                 
C       9.8333678412      4.3132888206      5.7576775257                 
C      -4.7795034174      3.2104837301      7.7354455308                 
C       4.7795018275     -3.2104860970      7.7354455308                 
C       0.2743625963     10.7342586477      5.7576775257                 
C       9.5322574236      4.5155502460      7.1143975559                 
C      -4.4783929998      3.0082223047      6.3787255006                 
C       5.9057279314     -3.9669941662      8.0981811579                 
C      -0.8518635076     11.4907667169      5.3949418985                 
C       0.5754727350     10.5319968071      7.1143975559                 
C       4.4783916888     -3.0082242564      6.3787255006                 
C      10.9595940197      3.5567808624      5.3949418985                 
C      -5.9057295959      3.9669916883      8.0981811579                 
C       3.2143388920      4.7852401046      6.0849397323                 
C       1.8395255318      2.7385324461      7.4081833242                 
C       6.8933914782     10.2623072636      6.0849397323                 
C      -1.8395270545     -2.7385347129      7.4081833242                 
C       8.2655055956      1.3922744925      0.0000000000                 
C       1.8422260252     13.6552747375      0.0000000000                 
C      11.9445581819      6.8693416515      0.0000000000                 
C      -1.8368265611      8.1782075786      0.0000000000                 
C       3.9427728612      5.8696719460      5.3593065605                 
C      -1.1110932343     -1.6541030935      8.1338164959                 
C       8.3915845249      2.8813197741      0.0000000000                 
C       1.7161470960     12.1662294559      0.0000000000                 
C      10.6137693217      6.1895234723      0.0000000000                 
C      -0.5060377009      8.8580257577      0.0000000000                 
C       1.8600005832      4.9481899643      6.4175991881                 
C       3.1938638406      2.5755825864      7.0755238683                 
C       6.2303815814     11.4544493004      6.4175991881                 
C      -1.1765171576     -3.9306767497      7.0755238683                 
C       8.1959850284      0.6921870787      1.2151097037                 
C      -3.1421206046      6.8315854720     12.2780133527                 
C      12.5663660266      7.1984464148      1.2151097037                 
C      -7.5125016028      0.3253261359     12.2780133527                 
C       8.2477297186     10.0993573021      6.4175991881                 
C      -3.1938652948     -2.5755847514      7.0755238683                 
C       3.8773487204      3.5930979660      6.4175991881                 
C       1.1765157034      3.9306745847      7.0755238683                 
C       7.5124990793     -0.3253298928     12.2780133527                 
C      -2.4586346555      7.8491024435      1.2151097037                 
C       3.1421180810     -6.8315892289     12.2780133527                 
C       1.9117463427     14.3553617796      1.2151097037                 
N       1.8594309524     13.7972104168      2.1493060785                 
N       7.0155805488     -0.5848322601     11.3438169779                 
N       8.6553491764      5.1045865199      7.3808597500                 
N       6.1269206128     -4.1155738290      9.1545577620                 
O       7.9412779761      5.5842425521      5.0736706386                 
O      -2.8874135523      1.9395299986      8.4194524179                 
O       4.2117010007     -2.8290837391     10.0147713431                 
O       0.8421634231     10.3528562898      3.4783517134                 
O       2.1664526020      9.4633051255      5.0736706386                 
O       2.8874118218     -1.9395325748      8.4194524179                 
O       9.2655674829      4.6946918759      3.4783517134                 
O      -4.2117030591      2.8290806748     10.0147713431                 
O       6.6006612286      5.0073499748      2.6871689498                 
O      -1.5467968048      2.5164225758     10.8059541066                 
O       7.9683586097      7.0434639563      2.6871689498                 
O      -2.9144941859      0.4803085944     10.8059541066                 
O       1.5467945838     -2.5164258823     10.8059541066                 
O       3.5070698400     10.0401984330      2.6871689498                 
O       2.9144919649     -0.4803119009     10.8059541066                 
O       2.1393724589      8.0040844516      2.6871689498                 
O       5.1686619762      5.6754984156      5.0661819553                 
O      -1.7544333450     -0.5926791108      8.4269411012                 
O       3.3856664357     -4.0453850271     12.3672298824                 
O       1.6681979880     11.5691575778      1.1258931741                 
O       5.0253022284     -1.6044317812     12.3672298824                 
O       0.0285621954      9.1282043319      1.1258931741                 
O       0.1147958204     -1.8482767136      8.4269411012                 
O       3.2994328108      6.9310960184      5.0661819553                 
O      10.0791691940      5.9193445537      1.1258931741                 
O      -5.0253047702      1.6044279970     12.3672298824                 
O       8.4395334014      3.4783913078      1.1258931741                 
O      -3.3856689776      4.0453812429     12.3672298824                 
O       5.0538655061      7.5237741619      2.9616055797                 
O      -0.0000010823     -0.0000016112     10.5315174768                 
O       7.5123226399      5.8723813248      0.0000000000                 
O       2.5954089810      9.1751679053      0.0000000000  


K_POINTS automatic 
  1 1 1 0 0 0 

