120
Lattice="32.018782 0.0 0.0 -14.043870532898428 28.753623292648026 0.0 -8.625062807759862 -14.478403582935226 26.22054754850901" Properties=species:S:1:pos:R:3 i=1 E=-1553.2115920019 pbc="T T T"
F        5.34567305       3.41809916      13.68194831
C        4.33590241       3.07604545      14.52390167
F        4.77342551       2.04457135      15.30713428
F        4.10697716       4.14480218      15.33104983
O        3.26327893       1.45615033      12.76345955
N        2.61587204       3.88450346      12.71144149
S        2.79907571       2.55644670      13.59819473
F        2.53124743       6.61069747      14.16124025
S        1.28734193       4.76871889      12.65368525
C        1.36938174       5.89998740      14.14397994
O        1.81106886       2.28389952      14.63821712
F        1.26449120       5.23911558      15.32541331
F        0.34701751       6.80039460      14.08631382
O        0.05840683       4.01627760      12.85988829
O        1.39569742       5.69692077      11.53669869
F        1.03314165      -3.82110264      26.79222209
C        0.02337100      -4.16315634      27.63417544
F        0.46089411      -5.19463044      28.41740806
F       -0.20555424      -3.09439962      28.44132360
O       -1.04925248      -5.78305146      25.87373333
N       -1.69665936      -3.35469833      25.82171527
S       -1.51345569      -4.68275509      26.70846851
F       -1.78128397      -0.62850432      27.27151403
S       -3.02518947      -2.47048290      25.76395902
C       -2.94314966      -1.33921439      27.25425371
O       -2.50146254      -4.95530227      27.74849090
F       -3.04804020      -2.00008622      28.43568709
F       -3.96551389      -0.43880719      27.19658759
O       -4.25412457      -3.22292419      25.97016207
O       -2.91683398      -1.54228102      24.64697247
F       -1.67626221      17.79491080      13.68194831
C       -2.68603286      17.45285710      14.52390167
F       -2.24850975      16.42138299      15.30713428
F       -2.91495811      18.52161382      15.33104983
O       -3.75865634      15.83296197      12.76345955
N       -4.40606323      18.26131511      12.71144149
S       -4.22285955      16.93325835      13.59819473
F       -4.49068783      20.98750911      14.16124025
S       -5.73459333      19.14553053      12.65368525
C       -5.65255353      20.27679905      14.14397994
O       -5.21086641      16.66071117      14.63821712
F       -5.75744406      19.61592722      15.32541331
F       -6.67491775      21.17720625      14.08631382
O       -6.96352843      18.39308925      12.85988829
O       -5.62623785      20.07373242      11.53669869
F       -5.98879362      10.55570901      26.79222209
C       -6.99856426      10.21365530      27.63417544
F       -6.56104116       9.18218120      28.41740806
F       -7.22748951      11.28241203      28.44132360
O       -8.07118774       8.59376018      25.87373333
N       -8.71859463      11.02211331      25.82171527
S       -8.53539096       9.69405656      26.70846851
F       -8.80321924      13.74830732      27.27151403
S      -10.04712474      11.90632874      25.76395902
C       -9.96508493      13.03759725      27.25425371
O       -9.52339781       9.42150938      27.74849090
F      -10.06997547      12.37672543      28.43568709
F      -10.98744916      13.93800446      27.19658759
O      -11.27605984      11.15388745      25.97016207
O       -9.93876925      12.83453062      24.64697247
F       21.35506405       3.41809916      13.68194831
C       20.34529341       3.07604545      14.52390167
F       20.78281651       2.04457135      15.30713428
F       20.11636816       4.14480218      15.33104983
O       19.27266993       1.45615033      12.76345955
N       18.62526304       3.88450346      12.71144149
S       18.80846671       2.55644670      13.59819473
F       18.54063843       6.61069747      14.16124025
S       17.29673293       4.76871889      12.65368525
C       17.37877274       5.89998740      14.14397994
O       17.82045986       2.28389952      14.63821712
F       17.27388220       5.23911558      15.32541331
F       16.35640851       6.80039460      14.08631382
O       16.06779783       4.01627760      12.85988829
O       17.40508842       5.69692077      11.53669869
F       17.04253265      -3.82110264      26.79222209
C       16.03276200      -4.16315634      27.63417544
F       16.47028511      -5.19463044      28.41740806
F       15.80383676      -3.09439962      28.44132360
O       14.96013852      -5.78305146      25.87373333
N       14.31273164      -3.35469833      25.82171527
S       14.49593531      -4.68275509      26.70846851
F       14.22810703      -0.62850432      27.27151403
S       12.98420153      -2.47048290      25.76395902
C       13.06624134      -1.33921439      27.25425371
O       13.50792846      -4.95530227      27.74849090
F       12.96135080      -2.00008622      28.43568709
F       12.04387711      -0.43880719      27.19658759
O       11.75526643      -3.22292419      25.97016207
O       13.09255702      -1.54228102      24.64697247
F       14.33312879      17.79491080      13.68194831
C       13.32335814      17.45285710      14.52390167
F       13.76088125      16.42138299      15.30713428
F       13.09443289      18.52161382      15.33104983
O       12.25073466      15.83296197      12.76345955
N       11.60332777      18.26131511      12.71144149
S       11.78653145      16.93325835      13.59819473
F       11.51870317      20.98750911      14.16124025
S       10.27479767      19.14553053      12.65368525
C       10.35683747      20.27679905      14.14397994
O       10.79852459      16.66071117      14.63821712
F       10.25194694      19.61592722      15.32541331
F        9.33447325      21.17720625      14.08631382
O        9.04586257      18.39308925      12.85988829
O       10.38315315      20.07373242      11.53669869
F       10.02059738      10.55570901      26.79222209
C        9.01082674      10.21365530      27.63417544
F        9.44834984       9.18218120      28.41740806
F        8.78190149      11.28241203      28.44132360
O        7.93820326       8.59376018      25.87373333
N        7.29079637      11.02211331      25.82171527
S        7.47400004       9.69405656      26.70846851
F        7.20617176      13.74830732      27.27151403
S        5.96226626      11.90632874      25.76395902
C        6.04430607      13.03759725      27.25425371
O        6.48599319       9.42150938      27.74849090
F        5.93941553      12.37672543      28.43568709
F        5.02194184      13.93800446      27.19658759
O        4.73333116      11.15388745      25.97016207
O        6.07062175      12.83453062      24.64697247
