192
frame0001 prim | 192 atoms
Ti      -2.8554400000     2.2297600000    11.2464000000
Ti       7.9750400000     5.1109800000     1.8815900000
Ti       1.2412500000    -1.7064400000     9.4264200000
Ti       2.7524400000     7.4557000000     3.6533900000
Ti       1.7538600000     9.1340100000     1.7490000000
Ti       3.1294500000    -1.9607800000    11.3797900000
Ti      -1.9062400000     0.4938700000     9.3549200000
Ti       5.9872200000     5.4135300000     3.7290500000
H       -2.3535600000     6.1268500000    11.0269500000
H        8.7838200000     1.2049200000     2.2022700000
H       -6.8153400000     1.4731400000    10.8639500000
H       11.3571900000     7.1152700000     2.0822400000
H        4.1050600000    -5.9953200000    10.9938600000
H       -2.3046600000     8.5441100000     2.0710500000
H        2.2483200000     7.4972000000    -0.1240900000
H        6.0995100000     4.8682800000     0.1816500000
H        3.6393600000    -2.6278900000     5.8686900000
H        1.0290000000     9.2927200000     7.2723500000
H       -5.9788600000     3.8825000000     8.9990100000
H       10.7297900000     3.0266500000     4.1875900000
H       -3.6777500000     2.4350600000     5.6651700000
H       -1.3462100000    10.9618700000     4.1022400000
H        2.1461100000    12.2368400000     2.6044700000
H        8.6259900000    -0.8139200000     3.4047600000
H        4.8450600000     7.1358300000     2.3147600000
H        0.1605500000     0.1419600000    10.7200400000
H        7.3641900000    -0.0259300000     9.7694500000
H        5.8830700000    -0.4949900000    10.5167800000
H        7.9383100000     4.4077100000     8.6705500000
H        7.3686000000     4.7662900000     7.0520000000
H        6.8753800000    -4.9807600000     9.5794200000
H        5.5962300000    -3.8801800000    10.0368100000
C        8.5530700000     4.3697400000     4.7451200000
C       -3.8159900000     2.4911500000     8.3993700000
C        3.8217500000    -2.7171400000     8.5017000000
C        0.8163200000     9.4262100000     4.6127500000
C        9.4490900000     3.7654200000     5.7403100000
C       -4.7478900000     3.1161600000     7.4223200000
C        4.7619500000    -3.3314900000     7.5545100000
C       -0.0735000000    10.0730100000     5.6125400000
C        9.2003300000     3.8403400000     7.1467300000
C       -4.5315000000     2.9961800000     6.0343000000
C        5.8914000000    -4.0917900000     8.0075700000
C       -1.1682200000    10.8459600000     5.1676100000
C        0.1810000000     9.9022500000     6.9674200000
C        4.5142400000    -3.1993500000     6.1705800000
C       10.5827700000     3.0664400000     5.2646000000
C       -5.8480500000     3.8085800000     7.9210000000
C        8.7648500000     1.2839900000     0.0581800000
C        2.2951100000    13.0755800000     0.0831900000
C       11.2492800000     7.0471100000    -0.0678300000
C       -2.1090500000     8.5895400000    -0.0872100000
C        3.4991600000     5.1125200000     5.6179800000
C       -1.2569300000    -1.9818500000     7.5361200000
C        8.6289900000     2.7388500000     0.0349800000
C        2.2023600000    11.6420600000     0.0457000000
C        9.9514500000     6.4302800000    -0.0209600000
C       -0.7067400000     9.0038900000    -0.0627500000
C        8.8042000000     0.6148800000     1.2878600000
C       -2.3426400000     6.7152500000    11.9408400000
C       11.9045800000     7.3219100000     1.1661300000
C       -7.3768300000     1.2937600000    11.7793000000
C        7.3089400000     0.2494000000    11.7938000000
C       -2.8062400000     8.3591200000     1.1252600000
C        4.1467000000    -6.5224800000    11.9429100000
C        2.3088900000    13.8267700000     1.3124700000
N        2.3639500000    13.2279400000     2.5506300000
N        6.7299000000     0.0665500000    10.5548300000
N        8.1194500000     4.4865800000     7.6780200000
N        6.2224100000    -4.2500400000     9.3249700000
O        7.3767500000     4.7748300000     5.1109100000
O       -3.0470000000     1.5402800000     8.0010800000
O        4.2032100000    -2.5926600000     9.7228000000
O        0.7504500000     9.8558800000     3.4131500000
O        1.5867800000     8.4689900000     4.9992000000
O        2.6513300000    -2.3487000000     8.0961800000
O        8.9649500000     4.4504900000     3.5333700000
O       -3.8580000000     2.9274000000     9.5990800000
O        6.2924400000     4.1956200000     2.5343600000
O       -1.3537800000     2.0542300000    10.0994400000
O        7.2312300000     6.4829100000     2.9843400000
O       -3.1059600000     0.3295500000    10.5921100000
O        1.5005500000    -2.8784000000    10.6868300000
O        3.2689900000     9.0170100000     2.9149100000
O        2.4545000000    -0.6169100000    10.2226600000
O        1.5627600000     7.2599000000     2.3974800000
O        4.7202800000     4.9326500000     5.2637300000
O       -1.9146000000    -0.9469100000     7.9143400000
O        3.8717700000    -3.7326400000    11.9888900000
O        2.1192500000    10.9406300000     1.1408900000
O        4.6739200000    -0.9444600000    11.9837600000
O       -0.1166800000     9.1049000000     1.0808200000
O       -0.0951100000    -2.2764000000     7.9939300000
O        2.7573200000     6.0334100000     5.1246400000
O        9.4121100000     6.1301000000     1.1270200000
O       -4.7422200000     2.1697100000    11.9148400000
O        8.6165500000     3.3757800000     1.1564300000
O       -2.4740300000     3.9520500000    11.9961100000
O        4.4842300000     6.5870700000     3.0354300000
O       -0.2177100000    -0.4167400000    10.0164500000
O        6.9383400000     5.3619500000     0.1026300000
O        2.3706900000     8.4640000000    -0.0641100000
H        3.7000564642     1.4619734231     8.5200668318
H       -0.0878295003    -3.9981418836     6.1667960495
H        4.4541510647    10.2150305197     5.5805964566
H        4.6976148058     3.0051317636     6.8038684308
H        0.0427836211     3.7280641306     8.4311723226
H       -3.8692732499    -2.0934686176     6.9231775176
H        1.3734280828     1.8302797554     9.2949473977
H        1.0406158882     5.2680598596     6.7089982298
H        5.7894725706     8.4448749081     4.4642951652
H       -7.7547385409     8.9079590282     4.6599115987
C        2.9225893854     4.2185530851     6.6501590526
C        1.8126064492     2.5049545154     8.5620521147
C        6.2876461583     9.1855322484     5.0887522556
C       -1.9135013106    -2.9464300700     6.6206198335
C        1.6082585879     4.4305122368     7.1094688909
C        3.1260842118     2.2962790299     8.1194916276
C        5.5354443989    10.1916531181     5.7071900073
C       -1.1636751334    -3.9655474228     6.0069547108
C        7.6778222613     9.1372616047     5.2454379232
C       -3.3078424667    -2.8895946357     6.4394565083
C        3.6823151349     3.1508830039     7.1671462527
C        1.0572867866     3.5755338907     8.0651830155
N       -5.5169029500    18.4925803949    14.3200200896
N       -4.3808768912    17.3873524960    12.8133311876
C       -5.7627525300    19.0852892862    13.0923835744
C       -5.0703314079    18.3836291107    12.1447907405
C       -2.1216145743    17.3323828240    11.8150963861
C       -5.9707909538    19.0226833958    15.6164751490
C       -4.6542100978    17.4776558244    14.1297601171
C       -3.3491336602    16.5196220671    12.2184664060
H       -6.3603709207    19.9815651513    12.9952213087
H       -4.9981517512    18.5264422846    11.0746500268
H       -2.3828150924    18.1298741619    11.1075765130
H       -6.3797177021    20.0270687504    15.4721845452
H       -1.6572456036    17.8038722527    12.6884791062
H       -6.6614240496    18.3285725236    16.0842404444
H       -1.3854765500    16.6704807847    11.3413536528
H       -3.7913483180    16.0015821263    11.3590225447
H       -5.1161298371    19.1222040434    16.2886171418
H       -4.1848326906    16.8861582463    14.9048420690
H       -3.1129022472    15.7586430197    12.9698416932
N       -4.0238683683    21.9366021898    13.2423993583
C       -1.2519159418    21.9416455319    14.7443979502
C       -3.4329360599    23.4318117857    11.0576044299
O       -3.8801696157    21.5506148295    15.7251190684
O       -2.8278653834    19.6855000967    14.1921468682
O       -5.1906350480    21.4650744535    10.9838942235
O       -2.6899346438    20.5521626146    11.1939867805
F       -1.5144530890    23.4029685968    14.9727841583
F       -2.2958664480    24.0753723157    11.6953826428
F       -0.5609835663    21.8559370515    13.5916971236
F       -1.0526070084    21.4423655627    16.0961929340
F       -4.3703448502    24.3171318846    11.0488059023
F       -3.1589609461    23.3119769366     9.4536908304
S       -3.2668298975    21.1311380313    14.4350051628
S       -3.8988942382    21.6266919437    11.5652588852
N        2.9974360881     1.3987710911     3.0974431701
N        1.0898389853     2.0310153167     3.9876549692
C        4.0091235252     1.1321115492     2.0528675007
C        1.9071806250     2.1716293591     2.9160683926
C        2.9510722991     0.8922744676     4.3850931224
C        3.7781684238    -0.2138797757     1.3675147888
C        1.7589431397     1.2744136404     4.9363661352
C       -0.3191550335     2.4531546711     4.0872803623
H        4.9730187074     1.1574055549     2.5721817499
H        3.9809024528     1.9662767528     1.3398352448
H        1.6254692149     2.5894537759     1.9543499114
H        4.6180236317    -0.4361691495     0.6969575625
H        3.7816374411     0.3247797036     4.7736242485
H       -0.4242985575     3.1631628001     4.9097580561
H       -0.6101967345     2.9442674833     3.1535556733
H        3.6622140128    -1.0352354615     2.0849638323
H        1.3392576195     1.0747038715     5.9119986321
H        2.8924077023    -0.1907704927     0.7287003826
H       -0.9767523493     1.5798358567     4.2123982588
N       -0.5401355923     0.5374596455     1.4926247426
C       -1.8070167786    -1.4710730728     2.7002140536
C       -1.6336217858     0.9519718293    -0.9389964986
O        0.1571792364     2.7429543809     0.3578531423
O        1.0175052312    -1.3575750995     3.0555091861
O        0.9847777658     0.7484696312    -0.8815304831
O        0.2362206229    -1.9617130981     0.7529720910
F       -2.0321926021    -1.0012602705     3.9915005752
F       -2.7956104886     1.5952889884    -0.3263536596
F       -2.8531200773    -1.2014029979     1.7551839421
F       -1.8491476103    -2.8304021794     2.9682723997
F       -1.1483128320     1.3452263486    -2.3179356645
F       -1.7913349816    -0.7244953716    -0.9281689812
S       -0.0196276031     1.2895449129     0.1045580630
S       -0.0441444636    -1.0981264252     1.9452915714
