frame0035
1.0
     32.0000000000    -1.1140000000     0.1800000000
    -13.0340000000    29.2260000000    -0.1140000000
     -9.2700000000   -14.1320000000    26.1900000000
  Ti  H  C  N  O  F  S
  64  448  496  80  320  96  32
Cartesian
     -2.8554400000     2.2297600000    11.2464000000
      7.9750400000     5.1109800000     1.8815900000
      1.2412500000    -1.7064400000     9.4264200000
      2.7524400000     7.4557000000     3.6533900000
      1.7538600000     9.1340100000     1.7490000000
      3.1294500000    -1.9607800000    11.3797900000
     -1.9062400000     0.4938700000     9.3549200000
      5.9872200000     5.4135300000     3.7290500000
     -7.4904400000    -4.8362400000    24.3414000000
      3.3400400000    -1.9550200000    14.9765900000
     -3.3937500000    -8.7724400000    22.5214200000
     -1.8825600000     0.3897000000    16.7483900000
     -2.8811400000     2.0680100000    14.8440000000
     -1.5055500000    -9.0267800000    24.4747900000
     -6.5412400000    -6.5721300000    22.4499200000
      1.3522200000    -1.6524700000    16.8240500000
     -9.3724400000    16.8427600000    11.1894000000
      1.4580400000    19.7239800000     1.8245900000
     -5.2757500000    12.9065600000     9.3694200000
     -3.7645600000    22.0687000000     3.5963900000
     -4.7631400000    23.7470100000     1.6920000000
     -3.3875500000    12.6522200000    11.3227900000
     -8.4232400000    15.1068700000     9.2979200000
     -0.5297800000    20.0265300000     3.6720500000
    -14.0074400000     9.7767600000    24.2844000000
     -3.1769600000    12.6579800000    14.9195900000
     -9.9107500000     5.8405600000    22.4644200000
     -8.3995600000    15.0027000000    16.6913900000
     -9.3981400000    16.6810100000    14.7870000000
     -8.0225500000     5.5862200000    24.4177900000
    -13.0582400000     8.0408700000    22.3929200000
     -5.1647800000    12.9605300000    16.7670500000
     13.1445600000     1.6727600000    11.3364000000
     23.9750400000     4.5539800000     1.9715900000
     17.2412500000    -2.2634400000     9.5164200000
     18.7524400000     6.8987000000     3.7433900000
     17.7538600000     8.5770100000     1.8390000000
     19.1294500000    -2.5177800000    11.4697900000
     14.0937600000    -0.0631300000     9.4449200000
     21.9872200000     4.8565300000     3.8190500000
      8.5095600000    -5.3932400000    24.4314000000
     19.3400400000    -2.5120200000    15.0665900000
     12.6062500000    -9.3294400000    22.6114200000
     14.1174400000    -0.1673000000    16.8383900000
     13.1188600000     1.5110100000    14.9340000000
     14.4944500000    -9.5837800000    24.5647900000
      9.4587600000    -7.1291300000    22.5399200000
     17.3522200000    -2.2094700000    16.9140500000
      6.6275600000    16.2857600000    11.2794000000
     17.4580400000    19.1669800000     1.9145900000
     10.7242500000    12.3495600000     9.4594200000
     12.2354400000    21.5117000000     3.6863900000
     11.2368600000    23.1900100000     1.7820000000
     12.6124500000    12.0952200000    11.4127900000
      7.5767600000    14.5498700000     9.3879200000
     15.4702200000    19.4695300000     3.7620500000
      1.9925600000     9.2197600000    24.3744000000
     12.8230400000    12.1009800000    15.0095900000
      6.0892500000     5.2835600000    22.5544200000
      7.6004400000    14.4457000000    16.7813900000
      6.6018600000    16.1240100000    14.8770000000
      7.9774500000     5.0292200000    24.5077900000
      2.9417600000     7.4838700000    22.4829200000
     10.8352200000    12.4035300000    16.8570500000
     -2.3535600000     6.1268500000    11.0269500000
      8.7838200000     1.2049200000     2.2022700000
     -6.8153400000     1.4731400000    10.8639500000
     11.3571900000     7.1152700000     2.0822400000
      4.1050600000    -5.9953200000    10.9938600000
     -2.3046600000     8.5441100000     2.0710500000
     -2.3866800000     0.4312000000    12.9709100000
      6.0995100000     4.8682800000     0.1816500000
      3.6393600000    -2.6278900000     5.8686900000
      1.0290000000     9.2927200000     7.2723500000
     -5.9788600000     3.8825000000     8.9990100000
     10.7297900000     3.0266500000     4.1875900000
     -3.6777500000     2.4350600000     5.6651700000
     -1.3462100000    10.9618700000     4.1022400000
      2.1461100000    12.2368400000     2.6044700000
      8.6259900000    -0.8139200000     3.4047600000
      4.8450600000     7.1358300000     2.3147600000
      0.1605500000     0.1419600000    10.7200400000
      7.3641900000    -0.0259300000     9.7694500000
      5.8830700000    -0.4949900000    10.5167800000
      7.9383100000     4.4077100000     8.6705500000
      7.3686000000     4.7662900000     7.0520000000
      6.8753800000    -4.9807600000     9.5794200000
      5.5962300000    -3.8801800000    10.0368100000
      3.8127475853     1.5196741751     8.5661149632
     -6.6074545551    10.6643047440     6.0356718145
      4.4208829351    10.0776947074     5.8219666137
      4.7095136560     2.9914694404     6.7452494112
      0.2132807725     3.8760555436     8.6937285341
     12.1137865743    -2.7236707974     7.1412519242
      1.5602489962     1.9540798038     9.4940488567
      1.1409389961     5.3804907699     6.9106809954
      5.7470614192     8.3275945346     4.6630548615
      8.2237923188     8.3297649955     4.7923505924
     -0.1328190207     4.9487422606    13.0833664207
      1.3573087071     3.5163215021    11.2947328185
      3.8880184870     3.2086081279    11.2057039796
      4.8554456298    12.3548578706     2.4019736802
      4.6006690898     3.2336770303    12.8455167421
      4.0672353982    10.8870705966     3.0622892843
      5.0206276278     1.9403971347    11.6778089639
      2.7161446756     1.0382812339    11.7498475459
      5.8270415068    11.1924514645     3.3313337451
      6.7267342028     9.1404172173     2.1209473881
      8.0525968428     8.1076675875     0.2820374399
      5.6870391396     1.8310936272     3.4502875960
      4.7611058255     2.2886297340     2.0247119207
      2.6439738458     3.3657609610     2.7717719163
      6.0295671789     0.1501065347     1.6781993005
      3.8328075330    -0.1059655724     4.8825761966
      0.2641376375     3.3603568951     5.5712880031
      0.5367908895     4.0094562070     3.9221041816
      5.1171398454    -0.6356469383     2.9816648508
      1.4535255794     0.8597195017     5.9655608872
      4.2826589540    -0.1391307746     1.5036525152
     -0.3249476750     2.4468379850     4.1484955526
     -6.9885600000    -0.9391500000    24.1219500000
      4.1488200000    -5.8610800000    15.2972700000
    -11.4503400000    -5.5928600000    23.9589500000
      6.7221900000     0.0492700000    15.1772400000
     -0.5299400000   -13.0613200000    24.0888600000
     -6.9396600000     1.4781100000    15.1660500000
     -7.0216800000    -6.6348000000    26.0659100000
      1.4645100000    -2.1977200000    13.2766500000
     -0.9956400000    -9.6938900000    18.9636900000
     -3.6060000000     2.2267200000    20.3673500000
    -10.6138600000    -3.1835000000    22.0940100000
      6.0947900000    -4.0393500000    17.2825900000
     -8.3127500000    -4.6309400000    18.7601700000
     -5.9812100000     3.8958700000    17.1972400000
     -2.4888900000     5.1708400000    15.6994700000
      3.9909900000    -7.8799200000    16.4997600000
      0.2100600000     0.0698300000    15.4097600000
     -4.4744500000    -6.9240400000    23.8150400000
      2.7291900000    -7.0919300000    22.8644500000
      1.2480700000    -7.5609900000    23.6117800000
      3.3033100000    -2.6582900000    21.7655500000
      2.7336000000    -2.2997100000    20.1470000000
      2.2403800000   -12.0467600000    22.6744200000
      0.9612300000   -10.9461800000    23.1318100000
     -0.8222524147    -5.5463258249    21.6611149632
    -11.2424545551     3.5983047440    19.1306718145
     -0.2141170649     3.0116947074    18.9169666137
      0.0745136560    -4.0745305596    19.8402494112
     -4.4217192275    -3.1899444564    21.7887285341
      7.4787865743    -9.7896707974    20.2362519242
     -3.0747510038    -5.1119201962    22.5890488567
     -3.4940610039    -1.6855092301    20.0056809954
      1.1120614192     1.2615945346    17.7580548615
      3.5887923188     1.2637649955    17.8873505924
     -4.7678190207    -2.1172577394    26.1783664207
     -3.2776912929    -3.5496784979    24.3897328185
     -0.7469815130    -3.8573918721    24.3007039796
      0.2204456298     5.2888578706    15.4969736802
     -0.0343309102    -3.8323229697    25.9405167421
     -0.5677646018     3.8210705966    16.1572892843
      0.3856276278    -5.1256028653    24.7728089639
     -1.9188553244    -6.0277187661    24.8448475459
      1.1920415068     4.1264514645    16.4263337451
      2.0917342028     2.0744172173    15.2159473881
      3.4175968428     1.0416675875    13.3770374399
      1.0520391396    -5.2349063728    16.5452875960
      0.1261058255    -4.7773702660    15.1197119207
     -1.9910261542    -3.7002390390    15.8667719163
      1.3945671789    -6.9158934653    14.7731993005
     -0.8021924670    -7.1719655724    17.9775761966
     -4.3708623625    -3.7056431049    18.6662880031
     -4.0982091105    -3.0565437930    17.0171041816
      0.4821398454    -7.7016469383    16.0766648508
     -3.1814744206    -6.2062804983    19.0605608872
     -0.3523410460    -7.2051307746    14.5986525152
     -4.9599476750    -4.6191620150    17.2434955526
     -8.8705600000    20.7398500000    10.9699500000
      2.2668200000    15.8179200000     2.1452700000
    -13.3323400000    16.0861400000    10.8069500000
      4.8401900000    21.7282700000     2.0252400000
     -2.4119400000     8.6176800000    10.9368600000
     -8.8216600000    23.1571100000     2.0140500000
     -8.9036800000    15.0442000000    12.9139100000
     -0.4174900000    19.4812800000     0.1246500000
     -2.8776400000    11.9851100000     5.8116900000
     -5.4880000000    23.9057200000     7.2153500000
    -12.4958600000    18.4955000000     8.9420100000
      4.2127900000    17.6396500000     4.1305900000
    -10.1947500000    17.0480600000     5.6081700000
     -7.8632100000    25.5748700000     4.0452400000
     -4.3708900000    26.8498400000     2.5474700000
      2.1089900000    13.7990800000     3.3477600000
     -1.6719400000    21.7488300000     2.2577600000
     -6.3564500000    14.7549600000    10.6630400000
      0.8471900000    14.5870700000     9.7124500000
     -0.6339300000    14.1180100000    10.4597800000
      1.4213100000    19.0207100000     8.6135500000
      0.8516000000    19.3792900000     6.9950000000
      0.3583800000     9.6322400000     9.5224200000
     -0.9207700000    10.7328200000     9.9798100000
     -2.7042524147    16.1326741751     8.5091149632
    -13.1244545551    25.2773047440     5.9786718145
     -2.0961170649    24.6906947074     5.7649666137
     -1.8074863440    17.6044694404     6.6882494112
     -6.3037192275    18.4890555436     8.6367285341
      5.5967865743    11.8893292026     7.0842519242
     -4.9567510038    16.5670798038     9.4370488567
     -5.3760610039    19.9934907699     6.8536809954
     -0.7699385808    22.9405945346     4.6060548615
      1.7067923188    22.9427649955     4.7353505924
     -6.6498190207    19.5617422606    13.0263664207
     -5.1596912929    18.1293215021    11.2377328185
     -2.6289815130    17.8216081279    11.1487039796
     -1.6615543702    26.9678578706     2.3449736802
     -1.9163309102    17.8466770303    12.7885167421
     -2.4497646018    25.5000705966     3.0052892843
     -1.4963723722    16.5533971347    11.6208089639
     -3.8008553244    15.6512812339    11.6928475459
     -0.6899584932    25.8054514645     3.2743337451
      0.2097342028    23.7534172173     2.0639473881
      1.5355968428    22.7206675875     0.2250374399
     -0.8299608604    16.4440936272     3.3932875960
     -1.7558941745    16.9016297340     1.9677119207
     -3.8730261542    17.9787609610     2.7147719163
     -0.4874328211    14.7631065347     1.6211993005
     -2.6841924670    14.5070344276     4.8255761966
     -6.2528623625    17.9733568951     5.5142880031
     -5.9802091105    18.6224562070     3.8651041816
     -1.3998601546    13.9773530617     2.9246648508
     -5.0634744206    15.4727195017     5.9085608872
     -2.2343410460    14.4738692254     1.4466525152
     -6.8419476750    17.0598379850     4.0914955526
    -13.5055600000    13.6738500000    24.0649500000
     -2.3681800000     8.7519200000    15.2402700000
    -17.9673400000     9.0201400000    23.9019500000
      0.2051900000    14.6622700000    15.1202400000
     -7.0469400000     1.5516800000    24.0318600000
    -13.4566600000    16.0911100000    15.1090500000
    -13.5386800000     7.9782000000    26.0089100000
     -5.0524900000    12.4152800000    13.2196500000
     -7.5126400000     4.9191100000    18.9066900000
    -10.1230000000    16.8397200000    20.3103500000
    -17.1308600000    11.4295000000    22.0370100000
     -0.4222100000    10.5736500000    17.2255900000
    -14.8297500000     9.9820600000    18.7031700000
    -12.4982100000    18.5088700000    17.1402400000
     -9.0058900000    19.7838400000    15.6424700000
     -2.5260100000     6.7330800000    16.4427600000
     -6.3069400000    14.6828300000    15.3527600000
    -10.9914500000     7.6889600000    23.7580400000
     -3.7878100000     7.5210700000    22.8074500000
     -5.2689300000     7.0520100000    23.5547800000
     -3.2136900000    11.9547100000    21.7085500000
     -3.7834000000    12.3132900000    20.0900000000
     -4.2766200000     2.5662400000    22.6174200000
     -5.5557700000     3.6668200000    23.0748100000
     -7.3392524147     9.0666741751    21.6041149632
    -17.7594545551    18.2113047440    19.0736718145
     -6.7311170649    17.6246947074    18.8599666137
     -6.4424863440    10.5384694404    19.7832494112
    -10.9387192275    11.4230555436    21.7317285341
      0.9617865743     4.8233292026    20.1792519242
     -9.5917510038     9.5010798038    22.5320488567
    -10.0110610039    12.9274907699    19.9486809954
     -5.4049385808    15.8745945346    17.7010548615
     -2.9282076812    15.8767649955    17.8303505924
    -11.2848190207    12.4957422606    26.1213664207
     -9.7946912929    11.0633215021    24.3327328185
     -7.2639815130    10.7556081279    24.2437039796
     -6.2965543702    19.9018578706    15.4399736802
     -6.5513309102    10.7806770303    25.8835167421
     -7.0847646018    18.4340705966    16.1002892843
     -6.1313723722     9.4873971347    24.7158089639
     -8.4358553244     8.5852812339    24.7878475459
     -5.3249584932    18.7394514645    16.3693337451
     -4.4252657972    16.6874172173    15.1589473881
     -3.0994031572    15.6546675875    13.3200374399
     -5.4649608604     9.3780936272    16.4882875960
     -6.3908941745     9.8356297340    15.0627119207
     -8.5080261542    10.9127609610    15.8097719163
     -5.1224328211     7.6971065347    14.7161993005
     -7.3191924670     7.4410344276    17.9205761966
    -10.8878623625    10.9073568951    18.6092880031
    -10.6152091105    11.5564562070    16.9601041816
     -6.0348601546     6.9113530617    16.0196648508
     -9.6984744206     8.4067195017    19.0035608872
     -6.8693410460     7.4078692254    14.5416525152
    -11.4769476750     9.9938379850    17.1864955526
     13.6464400000     5.5698500000    11.1169500000
     24.7838200000     0.6479200000     2.2922700000
      9.1846600000     0.9161400000    10.9539500000
     27.3571900000     6.5582700000     2.1722400000
     20.1050600000    -6.5523200000    11.0838600000
     13.6953400000     7.9871100000     2.1610500000
     13.6133200000    -0.1258000000    13.0609100000
     22.0995100000     4.3112800000     0.2716500000
     19.6393600000    -3.1848900000     5.9586900000
     17.0290000000     8.7357200000     7.3623500000
     10.0211400000     3.3255000000     9.0890100000
     26.7297900000     2.4696500000     4.2775900000
     12.3222500000     1.8780600000     5.7551700000
     14.6537900000    10.4048700000     4.1922400000
     18.1461100000    11.6798400000     2.6944700000
     24.6259900000    -1.3709200000     3.4947600000
     20.8450600000     6.5788300000     2.4047600000
     16.1605500000    -0.4150400000    10.8100400000
     23.3641900000    -0.5829300000     9.8594500000
     21.8830700000    -1.0519900000    10.6067800000
     23.9383100000     3.8507100000     8.7605500000
     23.3686000000     4.2092900000     7.1420000000
     22.8753800000    -5.5377600000     9.6694200000
     21.5962300000    -4.4371800000    10.1268100000
     19.8127475853     0.9626741751     8.6561149632
      9.3925454449    10.1073047440     6.1256718145
     20.4208829351     9.5206947074     5.9119666137
     20.7095136560     2.4344694404     6.8352494112
     16.2132807725     3.3190555436     8.7837285341
     28.1137865743    -3.2806707974     7.2312519242
     17.5602489962     1.3970798038     9.5840488567
     17.1409389961     4.8234907699     7.0006809954
     21.7470614192     7.7705945346     4.7530548615
     24.2237923188     7.7727649955     4.8823505924
     15.8671809793     4.3917422606    13.1733664207
     17.3573087071     2.9593215021    11.3847328185
     19.8880184870     2.6516081279    11.2957039796
     20.8554456298    11.7978578706     2.4919736802
     20.6006690898     2.6766770303    12.9355167421
     20.0672353982    10.3300705966     3.1522892843
     21.0206276278     1.3833971347    11.7678089639
     18.7161446756     0.4812812339    11.8398475459
     21.8270415068    10.6354514645     3.4213337451
     22.7267342028     8.5834172173     2.2109473881
     24.0525968428     7.5506675875     0.3720374399
     21.6870391396     1.2740936272     3.5402875960
     20.7611058255     1.7316297340     2.1147119207
     18.6439738458     2.8087609610     2.8617719163
     22.0295671789    -0.4068934653     1.7681993005
     19.8328075330    -0.6629655724     4.9725761966
     16.2641376375     2.8033568951     5.6612880031
     16.5367908895     3.4524562070     4.0121041816
     21.1171398454    -1.1926469383     3.0716648508
     17.4535255794     0.3027195017     6.0555608872
     20.2826589540    -0.6961307746     1.5936525152
     15.6750523250     1.8898379850     4.2384955526
      9.0114400000    -1.4961500000    24.2119500000
     20.1488200000    -6.4180800000    15.3872700000
      4.5496600000    -6.1498600000    24.0489500000
     22.7221900000    -0.5077300000    15.2672400000
     15.4700600000   -13.6183200000    24.1788600000
      9.0603400000     0.9211100000    15.2560500000
      8.9783200000    -7.1918000000    26.1559100000
     17.4645100000    -2.7547200000    13.3666500000
     15.0043600000   -10.2508900000    19.0536900000
     12.3940000000     1.6697200000    20.4573500000
      5.3861400000    -3.7405000000    22.1840100000
     22.0947900000    -4.5963500000    17.3725900000
      7.6872500000    -5.1879400000    18.8501700000
     10.0187900000     3.3388700000    17.2872400000
     13.5111100000     4.6138400000    15.7894700000
     19.9909900000    -8.4369200000    16.5897600000
     16.2100600000    -0.4871700000    15.4997600000
     11.5255500000    -7.4810400000    23.9050400000
     18.7291900000    -7.6489300000    22.9544500000
     17.2480700000    -8.1179900000    23.7017800000
     19.3033100000    -3.2152900000    21.8555500000
     18.7336000000    -2.8567100000    20.2370000000
     18.2403800000   -12.6037600000    22.7644200000
     16.9612300000   -11.5031800000    23.2218100000
     15.1777475853    -6.1033258249    21.7511149632
      4.7575454449     3.0413047440    19.2206718145
     15.7858829351     2.4546947074    19.0069666137
     16.0745136560    -4.6315305596    19.9302494112
     11.5782807725    -3.7469444564    21.8787285341
     23.4787865743   -10.3466707974    20.3262519242
     12.9252489962    -5.6689201962    22.6790488567
     12.5059389961    -2.2425092301    20.0956809954
     17.1120614192     0.7045945346    17.8480548615
     19.5887923188     0.7067649955    17.9773505924
     11.2321809793    -2.6742577394    26.2683664207
     12.7223087071    -4.1066784979    24.4797328185
     15.2530184870    -4.4143918721    24.3907039796
     16.2204456298     4.7318578706    15.5869736802
     15.9656690898    -4.3893229697    26.0305167421
     15.4322353982     3.2640705966    16.2472892843
     16.3856276278    -5.6826028653    24.8628089639
     14.0811446756    -6.5847187661    24.9348475459
     17.1920415068     3.5694514645    16.5163337451
     18.0917342028     1.5174172173    15.3059473881
     19.4175968428     0.4846675875    13.4670374399
     17.0520391396    -5.7919063728    16.6352875960
     16.1261058255    -5.3343702660    15.2097119207
     14.0089738458    -4.2572390390    15.9567719163
     17.3945671789    -7.4728934653    14.8631993005
     15.1978075330    -7.7289655724    18.0675761966
     11.6291376375    -4.2626431049    18.7562880031
     11.9017908895    -3.6135437930    17.1071041816
     16.4821398454    -8.2586469383    16.1666648508
     12.8185255794    -6.7632804983    19.1505608872
     15.6476589540    -7.7621307746    14.6886525152
     11.0400523250    -5.1761620150    17.3334955526
      7.1294400000    20.1828500000    11.0599500000
     18.2668200000    15.2609200000     2.2352700000
      2.6676600000    15.5291400000    10.8969500000
     20.8401900000    21.1712700000     2.1152400000
     13.5880600000     8.0606800000    11.0268600000
      7.1783400000    22.6001100000     2.1040500000
      7.0963200000    14.4872000000    13.0039100000
     15.5825100000    18.9242800000     0.2146500000
     13.1223600000    11.4281100000     5.9016900000
     10.5120000000    23.3487200000     7.3053500000
      3.5041400000    17.9385000000     9.0320100000
     20.2127900000    17.0826500000     4.2205900000
      5.8052500000    16.4910600000     5.6981700000
      8.1367900000    25.0178700000     4.1352400000
     11.6291100000    26.2928400000     2.6374700000
     18.1089900000    13.2420800000     3.4377600000
     14.3280600000    21.1918300000     2.3477600000
      9.6435500000    14.1979600000    10.7530400000
     16.8471900000    14.0300700000     9.8024500000
     15.3660700000    13.5610100000    10.5497800000
     17.4213100000    18.4637100000     8.7035500000
     16.8516000000    18.8222900000     7.0850000000
     16.3583800000     9.0752400000     9.6124200000
     15.0792300000    10.1758200000    10.0698100000
     13.2957475853    15.5756741751     8.5991149632
      2.8755454449    24.7203047440     6.0686718145
     13.9038829351    24.1336947074     5.8549666137
     14.1925136560    17.0474694404     6.7782494112
      9.6962807725    17.9320555436     8.7267285341
     21.5967865743    11.3323292026     7.1742519242
     11.0432489962    16.0100798038     9.5270488567
     10.6239389961    19.4364907699     6.9436809954
     15.2300614192    22.3835945346     4.6960548615
     17.7067923188    22.3857649955     4.8253505924
      9.3501809793    19.0047422606    13.1163664207
     10.8403087071    17.5723215021    11.3277328185
     13.3710184870    17.2646081279    11.2387039796
     14.3384456298    26.4108578706     2.4349736802
     14.0836690898    17.2896770303    12.8785167421
     13.5502353982    24.9430705966     3.0952892843
     14.5036276278    15.9963971347    11.7108089639
     12.1991446756    15.0942812339    11.7828475459
     15.3100415068    25.2484514645     3.3643337451
     16.2097342028    23.1964172173     2.1539473881
     17.5355968428    22.1636675875     0.3150374399
     15.1700391396    15.8870936272     3.4832875960
     14.2441058255    16.3446297340     2.0577119207
     12.1269738458    17.4217609610     2.8047719163
     15.5125671789    14.2061065347     1.7111993005
     13.3158075330    13.9500344276     4.9155761966
      9.7471376375    17.4163568951     5.6042880031
     10.0197908895    18.0654562070     3.9551041816
     14.6001398454    13.4203530617     3.0146648508
     10.9365255794    14.9157195017     5.9985608872
     13.7656589540    13.9168692254     1.5366525152
      9.1580523250    16.5028379850     4.1814955526
      2.4944400000    13.1168500000    24.1549500000
     13.6318200000     8.1949200000    15.3302700000
     -1.9673400000     8.4631400000    23.9919500000
     16.2051900000    14.1052700000    15.2102400000
      8.9530600000     0.9946800000    24.1218600000
      2.5433400000    15.5341100000    15.1990500000
      2.4613200000     7.4212000000    26.0989100000
     10.9475100000    11.8582800000    13.3096500000
      8.4873600000     4.3621100000    18.9966900000
      5.8770000000    16.2827200000    20.4003500000
     -1.1308600000    10.8725000000    22.1270100000
     15.5777900000    10.0166500000    17.3155900000
      1.1702500000     9.4250600000    18.7931700000
      3.5017900000    17.9518700000    17.2302400000
      6.9941100000    19.2268400000    15.7324700000
     13.4739900000     6.1760800000    16.5327600000
      9.6930600000    14.1258300000    15.4427600000
      5.0085500000     7.1319600000    23.8480400000
     12.2121900000     6.9640700000    22.8974500000
     10.7310700000     6.4950100000    23.6447800000
     12.7863100000    11.3977100000    21.7985500000
     12.2166000000    11.7562900000    20.1800000000
     11.7233800000     2.0092400000    22.7074200000
     10.4442300000     3.1098200000    23.1648100000
      8.6607475853     8.5096741751    21.6941149632
     -1.7594545551    17.6543047440    19.1636718145
      9.2688829351    17.0676947074    18.9499666137
      9.5575136560     9.9814694404    19.8732494112
      5.0612807725    10.8660555436    21.8217285341
     16.9617865743     4.2663292026    20.2692519242
      6.4082489962     8.9440798038    22.6220488567
      5.9889389961    12.3704907699    20.0386809954
     10.5950614192    15.3175945346    17.7910548615
     13.0717923188    15.3197649955    17.9203505924
      4.7151809793    11.9387422606    26.2113664207
      6.2053087071    10.5063215021    24.4227328185
      8.7360184870    10.1986081279    24.3337039796
      9.7034456298    19.3448578706    15.5299736802
      9.4486690898    10.2236770303    25.9735167421
      8.9152353982    17.8770705966    16.1902892843
      9.8686276278     8.9303971347    24.8058089639
      7.5641446756     8.0282812339    24.8778475459
     10.6750415068    18.1824514645    16.4593337451
     11.5747342028    16.1304172173    15.2489473881
     12.9005968428    15.0976675875    13.4100374399
     10.5350391396     8.8210936272    16.5782875960
      9.6091058255     9.2786297340    15.1527119207
      7.4919738458    10.3557609610    15.8997719163
     10.8775671789     7.1401065347    14.8061993005
      8.6808075330     6.8840344276    18.0105761966
      5.1121376375    10.3503568951    18.6992880031
      5.3847908895    10.9994562070    17.0501041816
      9.9651398454     6.3543530617    16.1096648508
      6.3015255794     7.8497195017    19.0935608872
      9.1306589540     6.8508692254    14.6316525152
      4.5230523250     9.4368379850    17.2764955526
      8.5530700000     4.3697400000     4.7451200000
     -3.8159900000     2.4911500000     8.3993700000
      3.8217500000    -2.7171400000     8.5017000000
      0.8163200000     9.4262100000     4.6127500000
      9.4490900000     3.7654200000     5.7403100000
     -4.7478900000     3.1161600000     7.4223200000
      4.7619500000    -3.3314900000     7.5545100000
     -0.0735000000    10.0730100000     5.6125400000
      9.2003300000     3.8403400000     7.1467300000
     -4.5315000000     2.9961800000     6.0343000000
      5.8914000000    -4.0917900000     8.0075700000
     -1.1682200000    10.8459600000     5.1676100000
      0.1810000000     9.9022500000     6.9674200000
      4.5142400000    -3.1993500000     6.1705800000
     10.5827700000     3.0664400000     5.2646000000
     -5.8480500000     3.8085800000     7.9210000000
      8.7648500000     1.2839900000     0.0581800000
      2.2951100000    13.0755800000     0.0831900000
      6.6142800000    -0.0188900000    13.0271700000
     -6.7440500000     1.5235400000    13.0077900000
      3.4991600000     5.1125200000     5.6179800000
     -1.2569300000    -1.9818500000     7.5361200000
      3.9939900000    -4.3271500000    13.1299800000
      2.2023600000    11.6420600000     0.0457000000
      5.3164500000    -0.6357200000    13.0740400000
     -5.3417400000     1.9378900000    13.0322500000
      8.8042000000     0.6148800000     1.2878600000
     -2.3426400000     6.7152500000    11.9408400000
     -4.0954200000     7.8789100000     1.0761300000
     -7.3768300000     1.2937600000    11.7793000000
      7.3089400000     0.2494000000    11.7938000000
     -2.8062400000     8.3591200000     1.1252600000
      4.1467000000    -6.5224800000    11.9429100000
      8.8258900000    -0.7862300000     1.3694700000
      2.9681987370     4.2591927182     6.7054709216
      1.9618695723     2.6142845969     8.7267782918
      6.2584063149     9.1045239609     5.2312839355
     -1.9238679334    -2.9619229118     6.6496759863
      1.7068195704     4.5266452428     7.2694544811
      3.2350109577     2.3650875310     8.1989806788
      5.5078455059    10.0969027441     5.8725639096
     -7.6917302932    10.6517129188     5.9501820223
      7.6558800495     9.1059184377     5.3025588475
     12.6745592370    -3.5041131353     6.6336205985
      3.7384292561     3.1858273217     7.1914998625
      1.1987818680     3.6930567653     8.2664969237
      5.0688799379    11.1080546814     0.1385125493
      1.2137457328     3.3559160324    12.3502180168
      4.2136308461     2.5836921926    12.0475585279
      4.9808464357    11.3010756097     2.6466929959
      6.2666573809     9.6572892052     1.2845276646
      3.0886660013     1.6810128559    12.5528174031
      1.1038918741     0.5147407965     0.9900599669
     10.1038813300    -4.9720049281     9.4172712378
      4.8517692640     1.5309273443     2.8089281095
      2.6837488653     2.5893471949     3.5234811493
      3.2558204127     0.7791670150     4.6558735669
      5.0702465170     0.1467001536     2.2149413902
      2.0768534470     1.2412133412     5.1693251417
      0.4632303673     3.0976854287     4.5306146573
     -1.6590292496    -0.0595736416     3.9206342965
      9.8126194306    -5.9277390479    10.7954363510
      3.9180700000    -2.6962600000    17.8401200000
     -8.4509900000    -4.5748500000    21.4943700000
     -0.8132500000    -9.7831400000    21.5967000000
     -3.8186800000     2.3602100000    17.7077500000
      4.8140900000    -3.3005800000    18.8353100000
     -9.3828900000    -3.9498400000    20.5173200000
      0.1269500000   -10.3974900000    20.6495100000
     -4.7085000000     3.0070100000    18.7075400000
      4.5653300000    -3.2256600000    20.2417300000
     -9.1665000000    -4.0698200000    19.1293000000
      1.2564000000   -11.1577900000    21.1025700000
     -5.8032200000     3.7799600000    18.2626100000
     -4.4540000000     2.8362500000    20.0624200000
     -0.1207600000   -10.2653500000    19.2655800000
      5.9477700000    -3.9995600000    18.3596000000
    -10.4830500000    -3.2574200000    21.0160000000
      4.1298500000    -5.7820100000    13.1531800000
     -2.3398900000     6.0095800000    13.1781900000
      1.9792800000    -7.0848900000    26.1221700000
    -11.3790500000    -5.5424600000    26.1027900000
     -1.1358400000    -1.9534800000    18.7129800000
     -5.8919300000    -9.0478500000    20.6311200000
     -0.6410100000   -11.3931500000    26.2249800000
     -2.4326400000     4.5760600000    13.1407000000
      0.6814500000    -7.7017200000    26.1690400000
     -9.9767400000    -5.1281100000    26.1272500000
      4.1692000000    -6.4511200000    14.3828600000
     -6.9776400000    -0.3507500000    25.0358400000
     -8.7304200000     0.8129100000    14.1711300000
    -12.0118300000    -5.7722400000    24.8743000000
      2.6739400000    -6.8166000000    24.8888000000
     -7.4412400000     1.2931200000    14.2202600000
     -0.4883000000   -13.5884800000    25.0379100000
      4.1908900000    -7.8522300000    14.4644700000
     -1.6668012630    -2.8068072818    19.8004709216
     -2.6731304277    -4.4517154031    21.8217782918
      1.6234063149     2.0385239609    18.3262839355
     -6.5588679334   -10.0279229118    19.7446759863
     -2.9281804296    -2.5393547572    20.3644544811
     -1.3999890423    -4.7009124690    21.2939806788
      0.8728455059     3.0309027441    18.9675639096
    -12.3267302932     3.5857129188    19.0451820223
      3.0208800495     2.0399184377    18.3975588475
      8.0395592370   -10.5701131353    19.7286205985
     -0.8965707439    -3.8801726783    20.2864998625
     -3.4362181320    -3.3729432347    21.3614969237
      0.4338799379     4.0420546814    13.2335125493
     -3.4212542672    -3.7100839676    25.4452180168
     -0.4213691539    -4.4823078074    25.1425585279
      0.3458464357     4.2350756097    15.7416929959
      1.6316573809     2.5912892052    14.3795276646
     -1.5463339987    -5.3849871441    25.6478174031
     -3.5311081259    -6.5512592035    14.0850599669
      5.4688813300   -12.0380049281    22.5122712378
      0.2167692640    -5.5350726557    15.9039281095
     -1.9512511347    -4.4766528051    16.6184811493
     -1.3791795873    -6.2868329850    17.7508735669
      0.4352465170    -6.9192998464    15.3099413902
     -2.5581465530    -5.8247866588    18.2643251417
     -4.1717696327    -3.9683145713    17.6256146573
     -6.2940292496    -7.1255736416    17.0156342965
      5.1776194306   -12.9937390479    23.8904363510
      2.0360700000    18.9827400000     4.6881200000
    -10.3329900000    17.1041500000     8.3423700000
     -2.6952500000    11.8958600000     8.4447000000
     -5.7006800000    24.0392100000     4.5557500000
      2.9320900000    18.3784200000     5.6833100000
    -11.2648900000    17.7291600000     7.3653200000
     -1.7550500000    11.2815100000     7.4975100000
     -6.5905000000    24.6860100000     5.5555400000
      2.6833300000    18.4533400000     7.0897300000
    -11.0485000000    17.6091800000     5.9773000000
     -0.6256000000    10.5212100000     7.9505700000
     -7.6852200000    25.4589600000     5.1106100000
     -6.3360000000    24.5152500000     6.9104200000
     -2.0027600000    11.4136500000     6.1135800000
      4.0657700000    17.6794400000     5.2076000000
    -12.3650500000    18.4215800000     7.8640000000
      2.2478500000    15.8969900000     0.0011800000
     -4.2218900000    27.6885800000     0.0261900000
      0.0972800000    14.5941100000    12.9701700000
    -13.2610500000    16.1365400000    12.9507900000
     -3.0178400000    19.7255200000     5.5609800000
     -7.7739300000    12.6311500000     7.4791200000
     -2.5230100000    10.2858500000    13.0729800000
     -4.3146400000    26.2550600000    -0.0113000000
     -1.2005500000    13.9772800000    13.0170400000
    -11.8587400000    16.5508900000    12.9752500000
      2.2872000000    15.2278800000     1.2308600000
     -8.8596400000    21.3282500000    11.8838400000
    -10.6124200000    22.4919100000     1.0191300000
    -13.8938300000    15.9067600000    11.7223000000
      0.7919400000    14.8624000000    11.7368000000
     -9.3232400000    22.9721200000     1.0682600000
     -2.3703000000     8.0905200000    11.8859100000
      2.3088900000    13.8267700000     1.3124700000
     -3.5488012630    18.8721927182     6.6484709216
     -4.5551304277    17.2272845969     8.6697782918
     -0.2585936851    23.7175239609     5.1742839355
     -8.4408679334    11.6510770882     6.5926759863
     -4.8101804296    19.1396452428     7.2124544811
     -3.2819890423    16.9780875310     8.1419806788
     -1.0091544941    24.7099027441     5.8155639096
    -14.2087302932    25.2647129188     5.8931820223
      1.1388800495    23.7189184377     5.2455588475
      6.1575592370    11.1088868647     6.5766205985
     -2.7785707439    17.7988273217     7.1344998625
     -5.3182181320    18.3060567653     8.2094969237
     -1.4481200621    25.7210546814     0.0815125493
     -5.3032542672    17.9689160324    12.2932180168
     -2.3033691539    17.1966921926    11.9905585279
     -1.5361535643    25.9140756097     2.5896929959
     -0.2503426191    24.2702892052     1.2275276646
     -3.4283339987    16.2940128559    12.4958174031
     -5.4131081259    15.1277407965     0.9330599669
      3.5868813300     9.6409950719     9.3602712378
     -1.6652307360    16.1439273443     2.7519281095
     -3.8332511347    17.2023471949     3.4664811493
     -3.2611795873    15.3921670150     4.5988735669
     -1.4467534830    14.7597001536     2.1579413902
     -4.4401465530    15.8542133412     5.1123251417
     -6.0537696327    17.7106854287     4.4736146573
     -8.1760292496    14.5534263584     3.8636342965
      3.2956194306     8.6852609521    10.7384363510
     -2.5989300000    11.9167400000    17.7831200000
    -14.9679900000    10.0381500000    21.4373700000
     -7.3302500000     4.8298600000    21.5397000000
    -10.3356800000    16.9732100000    17.6507500000
     -1.7029100000    11.3124200000    18.7783100000
    -15.8998900000    10.6631600000    20.4603200000
     -6.3900500000     4.2155100000    20.5925100000
    -11.2255000000    17.6200100000    18.6505400000
     -1.9516700000    11.3873400000    20.1847300000
    -15.6835000000    10.5431800000    19.0723000000
     -5.2606000000     3.4552100000    21.0455700000
    -12.3202200000    18.3929600000    18.2056100000
    -10.9710000000    17.4492500000    20.0054200000
     -6.6377600000     4.3476500000    19.2085800000
     -0.5692300000    10.6134400000    18.3026000000
    -17.0000500000    11.3555800000    20.9590000000
     -2.3871500000     8.8309900000    13.0961800000
     -8.8568900000    20.6225800000    13.1211900000
     -4.5377200000     7.5281100000    26.0651700000
    -17.8960500000     9.0705400000    26.0457900000
     -7.6528400000    12.6595200000    18.6559800000
    -12.4089300000     5.5651500000    20.5741200000
     -7.1580100000     3.2198500000    26.1679800000
     -8.9496400000    19.1890600000    13.0837000000
     -5.8355500000     6.9112800000    26.1120400000
    -16.4937400000     9.4848900000    26.0702500000
     -2.3478000000     8.1618800000    14.3258600000
    -13.4946400000    14.2622500000    24.9788400000
    -15.2474200000    15.4259100000    14.1141300000
    -18.5288300000     8.8407600000    24.8173000000
     -3.8430600000     7.7964000000    24.8318000000
    -13.9582400000    15.9061200000    14.1632600000
     -7.0053000000     1.0245200000    24.9809100000
     -2.3261100000     6.7607700000    14.4074700000
     -8.1838012630    11.8061927182    19.7434709216
     -9.1901304277    10.1612845969    21.7647782918
     -4.8935936851    16.6515239609    18.2692839355
    -13.0758679334     4.5850770882    19.6876759863
     -9.4451804296    12.0736452428    20.3074544811
     -7.9169890423     9.9120875310    21.2369806788
     -5.6441544941    17.6439027441    18.9105639096
    -18.8437302932    18.1987129188    18.9881820223
     -3.4961199505    16.6529184377    18.3405588475
      1.5225592370     4.0428868647    19.6716205985
     -7.4135707439    10.7328273217    20.2294998625
     -9.9532181320    11.2400567653    21.3044969237
     -6.0831200621    18.6550546814    13.1765125493
     -9.9382542672    10.9029160324    25.3882180168
     -6.9383691539    10.1306921926    25.0855585279
     -6.1711535643    18.8480756097    15.6846929959
     -4.8853426191    17.2042892052    14.3225276646
     -8.0633339987     9.2280128559    25.5908174031
    -10.0481081259     8.0617407965    14.0280599669
     -1.0481186700     2.5749950719    22.4552712378
     -6.3002307360     9.0779273443    15.8469281095
     -8.4682511347    10.1363471949    16.5614811493
     -7.8961795873     8.3261670150    17.6938735669
     -6.0817534830     7.6937001536    15.2529413902
     -9.0751465530     8.7882133412    18.2073251417
    -10.6887696327    10.6446854287    17.5686146573
    -12.8110292496     7.4874263584    16.9586342965
     -1.3393805694     1.6192609521    23.8334363510
     24.5530700000     3.8127400000     4.8351200000
     12.1840100000     1.9341500000     8.4893700000
     19.8217500000    -3.2741400000     8.5917000000
     16.8163200000     8.8692100000     4.7027500000
     25.4490900000     3.2084200000     5.8303100000
     11.2521100000     2.5591600000     7.5123200000
     20.7619500000    -3.8884900000     7.6445100000
     15.9265000000     9.5160100000     5.7025400000
     25.2003300000     3.2833400000     7.2367300000
     11.4685000000     2.4391800000     6.1243000000
     21.8914000000    -4.6487900000     8.0975700000
     14.8317800000    10.2889600000     5.2576100000
     16.1810000000     9.3452500000     7.0574200000
     20.5142400000    -3.7563500000     6.2605800000
     26.5827700000     2.5094400000     5.3546000000
     10.1519500000     3.2515800000     8.0110000000
     24.7648500000     0.7269900000     0.1481800000
     18.2951100000    12.5185800000     0.1731900000
     22.6142800000    -0.5758900000    13.1171700000
      9.2559500000     0.9665400000    13.0977900000
     19.4991600000     4.5555200000     5.7079800000
     14.7430700000    -2.5388500000     7.6261200000
     19.9939900000    -4.8841500000    13.2199800000
     18.2023600000    11.0850600000     0.1357000000
     21.3164500000    -1.1927200000    13.1640400000
     10.6582600000     1.3808900000    13.1222500000
     24.8042000000     0.0578800000     1.3778600000
     13.6573600000     6.1582500000    12.0308400000
     11.9045800000     7.3219100000     1.1661300000
      8.6231700000     0.7367600000    11.8693000000
     23.3089400000    -0.3076000000    11.8838000000
     13.1937600000     7.8021200000     1.2152600000
     20.1467000000    -7.0794800000    12.0329100000
     24.8258900000    -1.3432300000     1.4594700000
     18.9681987370     3.7021927182     6.7954709216
     17.9618695723     2.0572845969     8.8167782918
     22.2584063149     8.5475239609     5.3212839355
     14.0761320666    -3.5189229118     6.7396759863
     17.7068195704     3.9696452428     7.3594544811
     19.2350109577     1.8080875310     8.2889806788
     21.5078455059     9.5399027441     5.9625639096
      8.3082697068    10.0947129188     6.0401820223
     23.6558800495     8.5489184377     5.3925588475
     28.6745592370    -4.0611131353     6.7236205985
     19.7384292561     2.6288273217     7.2814998625
     17.1987818680     3.1360567653     8.3564969237
     21.0688799379    10.5510546814     0.2285125493
     17.2137457328     2.7989160324    12.4402180168
     20.2136308461     2.0266921926    12.1375585279
     20.9808464357    10.7440756097     2.7366929959
     22.2666573809     9.1002892052     1.3745276646
     19.0886660013     1.1240128559    12.6428174031
     17.1038918741    -0.0422592035     1.0800599669
     26.1038813300    -5.5290049281     9.5072712378
     20.8517692640     0.9739273443     2.8989281095
     18.6837488653     2.0323471949     3.6134811493
     19.2558204127     0.2221670150     4.7458735669
     21.0702465170    -0.4102998464     2.3049413902
     18.0768534470     0.6842133412     5.2593251417
     16.4632303673     2.5406854287     4.6206146573
     14.3409707504    -0.6165736416     4.0106342965
     25.8126194306    -6.4847390479    10.8854363510
     19.9180700000    -3.2532600000    17.9301200000
      7.5490100000    -5.1318500000    21.5843700000
     15.1867500000   -10.3401400000    21.6867000000
     12.1813200000     1.8032100000    17.7977500000
     20.8140900000    -3.8575800000    18.9253100000
      6.6171100000    -4.5068400000    20.6073200000
     16.1269500000   -10.9544900000    20.7395100000
     11.2915000000     2.4500100000    18.7975400000
     20.5653300000    -3.7826600000    20.3317300000
      6.8335000000    -4.6268200000    19.2193000000
     17.2564000000   -11.7147900000    21.1925700000
     10.1967800000     3.2229600000    18.3526100000
     11.5460000000     2.2792500000    20.1524200000
     15.8792400000   -10.8223500000    19.3555800000
     21.9477700000    -4.5565600000    18.4496000000
      5.5169500000    -3.8144200000    21.1060000000
     20.1298500000    -6.3390100000    13.2431800000
     13.6601100000     5.4525800000    13.2681900000
     17.9792800000    -7.6418900000    26.2121700000
      4.6209500000    -6.0994600000    26.1927900000
     14.8641600000    -2.5104800000    18.8029800000
     10.1080700000    -9.6048500000    20.7211200000
     15.3589900000   -11.9501500000    26.3149800000
     13.5673600000     4.0190600000    13.2307000000
     16.6814500000    -8.2587200000    26.2590400000
      6.0232600000    -5.6851100000    26.2172500000
     20.1692000000    -7.0081200000    14.4728600000
      9.0223600000    -0.9077500000    25.1258400000
      7.2695800000     0.2559100000    14.2611300000
      3.9881700000    -6.3292400000    24.9643000000
     18.6739400000    -7.3736000000    24.9788000000
      8.5587600000     0.7361200000    14.3102600000
     15.5117000000   -14.1454800000    25.1279100000
     20.1908900000    -8.4092300000    14.5544700000
     14.3331987370    -3.3638072818    19.8904709216
     13.3268695723    -5.0087154031    21.9117782918
     17.6234063149     1.4815239609    18.4162839355
      9.4411320666   -10.5849229118    19.8346759863
     13.0718195704    -3.0963547572    20.4544544811
     14.6000109577    -5.2579124690    21.3839806788
     16.8728455059     2.4739027441    19.0575639096
      3.6732697068     3.0287129188    19.1351820223
     19.0208800495     1.4829184377    18.4875588475
     24.0395592370   -11.1271131353    19.8186205985
     15.1034292561    -4.4371726783    20.3764998625
     12.5637818680    -3.9299432347    21.4514969237
     16.4338799379     3.4850546814    13.3235125493
     12.5787457328    -4.2670839676    25.5352180168
     15.5786308461    -5.0393078074    25.2325585279
     16.3458464357     3.6780756097    15.8316929959
     17.6316573809     2.0342892052    14.4695276646
     14.4536660013    -5.9419871441    25.7378174031
     12.4688918741    -7.1082592035    14.1750599669
     21.4688813300   -12.5950049281    22.6022712378
     16.2167692640    -6.0920726557    15.9939281095
     14.0487488653    -5.0336528051    16.7084811493
     14.6208204127    -6.8438329850    17.8408735669
     16.4352465170    -7.4762998464    15.3999413902
     13.4418534470    -6.3817866588    18.3543251417
     11.8282303673    -4.5253145713    17.7156146573
      9.7059707504    -7.6825736416    17.1056342965
     21.1776194306   -13.5507390479    23.9804363510
     18.0360700000    18.4257400000     4.7781200000
      5.6670100000    16.5471500000     8.4323700000
     13.3047500000    11.3388600000     8.5347000000
     10.2993200000    23.4822100000     4.6457500000
     18.9320900000    17.8214200000     5.7733100000
      4.7351100000    17.1721600000     7.4553200000
     14.2449500000    10.7245100000     7.5875100000
      9.4095000000    24.1290100000     5.6455400000
     18.6833300000    17.8963400000     7.1797300000
      4.9515000000    17.0521800000     6.0673000000
     15.3744000000     9.9642100000     8.0405700000
      8.3147800000    24.9019600000     5.2006100000
      9.6640000000    23.9582500000     7.0004200000
     13.9972400000    10.8566500000     6.2035800000
     20.0657700000    17.1224400000     5.2976000000
      3.6349500000    17.8645800000     7.9540000000
     18.2478500000    15.3399900000     0.0911800000
     11.7781100000    27.1315800000     0.1161900000
     16.0972800000    14.0371100000    13.0601700000
      2.7389500000    15.5795400000    13.0407900000
     12.9821600000    19.1685200000     5.6509800000
      8.2260700000    12.0741500000     7.5691200000
     13.4769900000     9.7288500000    13.1629800000
     11.6853600000    25.6980600000     0.0787000000
     14.7994500000    13.4202800000    13.1070400000
      4.1412600000    15.9938900000    13.0652500000
     18.2872000000    14.6708800000     1.3208600000
      7.1403600000    20.7712500000    11.9738400000
      5.3875800000    21.9349100000     1.1091300000
      2.1061700000    15.3497600000    11.8123000000
     16.7919400000    14.3054000000    11.8268000000
      6.6767600000    22.4151200000     1.1582600000
     13.6297000000     7.5335200000    11.9759100000
     18.3088900000    13.2697700000     1.4024700000
     12.4511987370    18.3151927182     6.7384709216
     11.4448695723    16.6702845969     8.7597782918
     15.7414063149    23.1605239609     5.2642839355
      7.5591320666    11.0940770882     6.6826759863
     11.1898195704    18.5826452428     7.3024544811
     12.7180109577    16.4210875310     8.2319806788
     14.9908455059    24.1529027441     5.9055639096
      1.7912697068    24.7077129188     5.9831820223
     17.1388800495    23.1619184377     5.3355588475
     22.1575592370    10.5518868647     6.6666205985
     13.2214292561    17.2418273217     7.2244998625
     10.6817818680    17.7490567653     8.2994969237
     14.5518799379    25.1640546814     0.1715125493
     10.6967457328    17.4119160324    12.3832180168
     13.6966308461    16.6396921926    12.0805585279
     14.4638464357    25.3570756097     2.6796929959
     15.7496573809    23.7132892052     1.3175276646
     12.5716660013    15.7370128559    12.5858174031
     10.5868918741    14.5707407965     1.0230599669
     19.5868813300     9.0839950719     9.4502712378
     14.3347692640    15.5869273443     2.8419281095
     12.1667488653    16.6453471949     3.5564811493
     12.7388204127    14.8351670150     4.6888735669
     14.5532465170    14.2027001536     2.2479413902
     11.5598534470    15.2972133412     5.2023251417
      9.9462303673    17.1536854287     4.5636146573
      7.8239707504    13.9964263584     3.9536342965
     19.2956194306     8.1282609521    10.8284363510
     13.4010700000    11.3597400000    17.8731200000
      1.0320100000     9.4811500000    21.5273700000
      8.6697500000     4.2728600000    21.6297000000
      5.6643200000    16.4162100000    17.7407500000
     14.2970900000    10.7554200000    18.8683100000
      0.1001100000    10.1061600000    20.5503200000
      9.6099500000     3.6585100000    20.6825100000
      4.7745000000    17.0630100000    18.7405400000
     14.0483300000    10.8303400000    20.2747300000
      0.3165000000     9.9861800000    19.1623000000
     10.7394000000     2.8982100000    21.1355700000
      3.6797800000    17.8359600000    18.2956100000
      5.0290000000    16.8922500000    20.0954200000
      9.3622400000     3.7906500000    19.2985800000
     15.4307700000    10.0564400000    18.3926000000
     -1.0000500000    10.7985800000    21.0490000000
     13.6128500000     8.2739900000    13.1861800000
      7.1431100000    20.0655800000    13.2111900000
     11.4622800000     6.9711100000    26.1551700000
     -1.8960500000     8.5135400000    26.1357900000
      8.3471600000    12.1025200000    18.7459800000
      3.5910700000     5.0081500000    20.6641200000
      8.8419900000     2.6628500000    26.2579800000
      7.0503600000    18.6320600000    13.1737000000
     10.1644500000     6.3542800000    26.2020400000
     -0.4937400000     8.9278900000    26.1602500000
     13.6522000000     7.6048800000    14.4158600000
      2.5053600000    13.7052500000    25.0688400000
      0.7525800000    14.8689100000    14.2041300000
     -2.5288300000     8.2837600000    24.9073000000
     12.1569400000     7.2394000000    24.9218000000
      2.0417600000    15.3491200000    14.2532600000
      8.9947000000     0.4675200000    25.0709100000
     13.6738900000     6.2037700000    14.4974700000
      7.8161987370    11.2491927182    19.8334709216
      6.8098695723     9.6042845969    21.8547782918
     11.1064063149    16.0945239609    18.3592839355
      2.9241320666     4.0280770882    19.7776759863
      6.5548195704    11.5166452428    20.3974544811
      8.0830109577     9.3550875310    21.3269806788
     10.3558455059    17.0869027441    19.0005639096
     -2.8437302932    17.6417129188    19.0781820223
     12.5038800495    16.0959184377    18.4305588475
     17.5225592370     3.4858868647    19.7616205985
      8.5864292561    10.1758273217    20.3194998625
      6.0467818680    10.6830567653    21.3944969237
      9.9168799379    18.0980546814    13.2665125493
      6.0617457328    10.3459160324    25.4782180168
      9.0616308461     9.5736921926    25.1755585279
      9.8288464357    18.2910756097    15.7746929959
     11.1146573809    16.6472892052    14.4125276646
      7.9366660013     8.6710128559    25.6808174031
      5.9518918741     7.5047407965    14.1180599669
     14.9518813300     2.0179950719    22.5452712378
      9.6997692640     8.5209273443    15.9369281095
      7.5317488653     9.5793471949    16.6514811493
      8.1038204127     7.7691670150    17.7838735669
      9.9182465170     7.1367001536    15.3429413902
      6.9248534470     8.2312133412    18.2973251417
      5.3112303673    10.0876854287    17.6586146573
      3.1889707504     6.9304263584    17.0486342965
     14.6606194306     1.0622609521    23.9234363510
      8.8809500000    -1.3850600000     2.6076300000
      6.7299000000     0.0665500000    10.5548300000
      8.1194500000     4.4865800000     7.6780200000
      6.2224100000    -4.2500400000     9.3249700000
      5.3162838948    10.6016804837     1.3944152889
      1.9507838702     2.4473992941    13.0791789063
      8.7172835180    -7.3405717245    12.9716201023
      3.6223775118     1.6283863463     3.6277588537
      1.7373001611     2.3757945038     4.4561846589
     -4.5627853917    -6.5612652945    13.0486198449
      4.2459500000    -8.4510600000    15.7026300000
      2.0949000000    -6.9994500000    23.6498300000
      3.4844500000    -2.5794200000    20.7730200000
      1.5874100000   -11.3160400000    22.4199700000
      0.6812838948     3.5356804837    14.4894152889
     -2.6842161298    -4.6186007059    26.1741789063
      4.0822835180   -14.4065717245    26.0666201023
     -1.0126224882    -5.4376136537    16.7227588537
     -2.8976998389    -4.6902054962    17.5511846589
     -9.1977853917   -13.6272652945    26.1436198449
      2.3639500000    13.2279400000     2.5506300000
      0.2129000000    14.6795500000    10.4978300000
      1.6024500000    19.0995800000     7.6210200000
     -0.2945900000    10.3629600000     9.2679700000
     -1.2007161052    25.2146804837     1.3374152889
     -4.5662161298    17.0603992941    13.0221789063
      2.2002835180     7.2724282755    12.9146201023
     -2.8946224882    16.2413863463     3.5707588537
     -4.7796998389    16.9887945038     4.3991846589
    -11.0797853917     8.0517347055    12.9916198449
     -2.2710500000     6.1619400000    15.6456300000
     -4.4221000000     7.6135500000    23.5928300000
     -3.0325500000    12.0335800000    20.7160200000
     -4.9295900000     3.2969600000    22.3629700000
     -5.8357161052    18.1486804837    14.4324152889
     -9.2012161298     9.9943992941    26.1171789063
     -2.4347164820     0.2064282755    26.0096201023
     -7.5296224882     9.1753863463    16.6657588537
     -9.4146998389     9.9227945038    17.4941846589
    -15.7147853917     0.9857347055    26.0866198449
     24.8809500000    -1.9420600000     2.6976300000
     22.7299000000    -0.4904500000    10.6448300000
     24.1194500000     3.9295800000     7.7680200000
     22.2224100000    -4.8070400000     9.4149700000
     21.3162838948    10.0446804837     1.4844152889
     17.9507838702     1.8903992941    13.1691789063
     24.7172835180    -7.8975717245    13.0616201023
     19.6223775118     1.0713863463     3.7177588537
     17.7373001611     1.8187945038     4.5461846589
     11.4372146083    -7.1182652945    13.1386198449
     20.2459500000    -9.0080600000    15.7926300000
     18.0949000000    -7.5564500000    23.7398300000
     19.4844500000    -3.1364200000    20.8630200000
     17.5874100000   -11.8730400000    22.5099700000
     16.6812838948     2.9786804837    14.5794152889
     13.3157838702    -5.1756007059    26.2641789063
     20.0822835180   -14.9635717245    26.1566201023
     14.9873775118    -5.9946136537    16.8127588537
     13.1023001611    -5.2472054962    17.6411846589
      6.8022146083   -14.1842652945    26.2336198449
     18.3639500000    12.6709400000     2.6406300000
     16.2129000000    14.1225500000    10.5878300000
     17.6024500000    18.5425800000     7.7110200000
     15.7054100000     9.8059600000     9.3579700000
     14.7992838948    24.6576804837     1.4274152889
     11.4337838702    16.5033992941    13.1121789063
     18.2002835180     6.7154282755    13.0046201023
     13.1053775118    15.6843863463     3.6607588537
     11.2203001611    16.4317945038     4.4891846589
      4.9202146083     7.4947347055    13.0816198449
     13.7289500000     5.6049400000    15.7356300000
     11.5779000000     7.0565500000    23.6828300000
     12.9674500000    11.4765800000    20.8060200000
     11.0704100000     2.7399600000    22.4529700000
     10.1642838948    17.5916804837    14.5224152889
      6.7987838702     9.4373992941    26.2071789063
     13.5652835180    -0.3505717245    26.0996201023
      8.4703775118     8.6183863463    16.7557588537
      6.5853001611     9.3657945038    17.5841846589
      0.2852146083     0.4287347055    26.1766198449
      7.3767500000     4.7748300000     5.1109100000
     -3.0470000000     1.5402800000     8.0010800000
      4.2032100000    -2.5926600000     9.7228000000
      0.7504500000     9.8558800000     3.4131500000
      1.5867800000     8.4689900000     4.9992000000
      2.6513300000    -2.3487000000     8.0961800000
      8.9649500000     4.4504900000     3.5333700000
     -3.8580000000     2.9274000000     9.5990800000
      6.2924400000     4.1956200000     2.5343600000
     -1.3537800000     2.0542300000    10.0994400000
      7.2312300000     6.4829100000     2.9843400000
     -3.1059600000     0.3295500000    10.5921100000
      1.5005500000    -2.8784000000    10.6868300000
      3.2689900000     9.0170100000     2.9149100000
      2.4545000000    -0.6169100000    10.2226600000
      1.5627600000     7.2599000000     2.3974800000
      4.7202800000     4.9326500000     5.2637300000
     -1.9146000000    -0.9469100000     7.9143400000
      3.8717700000    -3.7326400000    11.9888900000
      2.1192500000    10.9406300000     1.1408900000
      4.6739200000    -0.9444600000    11.9837600000
     -0.1166800000     9.1049000000     1.0808200000
     -0.0951100000    -2.2764000000     7.9939300000
      2.7573200000     6.0334100000     5.1246400000
      9.4121100000     6.1301000000     1.1270200000
     -4.7422200000     2.1697100000    11.9148400000
      8.6165500000     3.3757800000     1.1564300000
     -2.4740300000     3.9520500000    11.9961100000
      4.4842300000     6.5870700000     3.0354300000
     -0.2177100000    -0.4167400000    10.0164500000
      6.9383400000     5.3619500000     0.1026300000
     -2.2643100000     1.3980000000    13.0308900000
     14.0358821027    -0.0008066688     2.9543640779
     -6.2948970937    12.5397705206     1.2769298076
      1.5175361130     6.4552636382    10.3266024792
      3.3977027583     6.7284699605     8.7757895188
     -4.5712586089    -4.0047340901    12.5723839104
      1.8684206387    -1.1966645894     3.0336606642
     -3.4076882668    -5.6655056385    11.0101859969
     -3.9141936188    12.9365781945     0.6508727166
      2.7417500000    -2.2911700000    18.2059100000
     -7.6820000000    -5.5257200000    21.0960800000
     -0.4317900000    -9.6586600000    22.8178000000
     -3.8845500000     2.7898800000    16.5081500000
     -3.0482200000     1.4029900000    18.0942000000
     -1.9836700000    -9.4147000000    21.1911800000
      4.3299500000    -2.6155100000    16.6283700000
     -8.4930000000    -4.1386000000    22.6940800000
      1.6574400000    -2.8703800000    15.6293600000
     -5.9887800000    -5.0117700000    23.1944400000
      2.5962300000    -0.5830900000    16.0793400000
     -7.7409600000    -6.7364500000    23.6871100000
     -3.1344500000    -9.9444000000    23.7818300000
     -1.3660100000     1.9510100000    16.0099100000
     -2.1805000000    -7.6829100000    23.3176600000
     -3.0722400000     0.1939000000    15.4924800000
      0.0852800000    -2.1333500000    18.3587300000
     -6.5496000000    -8.0129100000    21.0093400000
     -0.7632300000   -10.7986400000    25.0838900000
     -2.5157500000     3.8746300000    14.2358900000
      0.0389200000    -8.0104600000    25.0787600000
     -4.7516800000     2.0389000000    14.1758200000
     -4.7301100000    -9.3424000000    21.0889300000
     -1.8776800000    -1.0325900000    18.2196400000
      4.7771100000    -0.9359000000    14.2220200000
     -9.3772200000    -4.8962900000    25.0098400000
      3.9815500000    -3.6902200000    14.2514300000
     -7.1090300000    -3.1139500000    25.0911100000
     -0.1507700000    -0.4789300000    16.1304300000
     -4.8527100000    -7.4827400000    23.1114500000
      2.3033400000    -1.7040500000    13.1976300000
     -6.8993100000    -5.6680000000    26.1258900000
      9.4008821027    -7.0668066688    16.0493640779
    -10.9298970937     5.4737705206    14.3719298076
     -3.1174638870    -0.6107363618    23.4216024792
     -1.2372972417    -0.3375300395    21.8707895188
     -9.2062586089   -11.0707340901    25.6673839104
     -2.7665793613    -8.2626645894    16.1286606642
     -8.0426882668   -12.7315056385    24.1051859969
     -8.5491936188     5.8705781945    13.7458727166
      0.8597500000    19.3878300000     5.0539100000
     -9.5640000000    16.1532800000     7.9440800000
     -2.3137900000    12.0203400000     9.6658000000
     -5.7665500000    24.4688800000     3.3561500000
     -4.9302200000    23.0819900000     4.9422000000
     -3.8656700000    12.2643000000     8.0391800000
      2.4479500000    19.0634900000     3.4763700000
    -10.3750000000    17.5404000000     9.5420800000
     -0.2245600000    18.8086200000     2.4773600000
     -7.8707800000    16.6672300000    10.0424400000
      0.7142300000    21.0959100000     2.9273400000
     -9.6229600000    14.9425500000    10.5351100000
     -5.0164500000    11.7346000000    10.6298300000
     -3.2480100000    23.6300100000     2.8579100000
     -4.0625000000    13.9960900000    10.1656600000
     -4.9542400000    21.8729000000     2.3404800000
     -1.7967200000    19.5456500000     5.2067300000
     -8.4316000000    13.6660900000     7.8573400000
     -2.6452300000    10.8803600000    11.9318900000
     -4.3977500000    25.5536300000     1.0838900000
     -1.8430800000    13.6685400000    11.9267600000
     -6.6336800000    23.7179000000     1.0238200000
     -6.6121100000    12.3366000000     7.9369300000
     -3.7596800000    20.6464100000     5.0676400000
      2.8951100000    20.7431000000     1.0700200000
    -11.2592200000    16.7827100000    11.8578400000
      2.0995500000    17.9887800000     1.0994300000
     -8.9910300000    18.5650500000    11.9391100000
     -2.0327700000    21.2000700000     2.9784300000
     -6.7347100000    14.1962600000     9.9594500000
      0.4213400000    19.9749500000     0.0456300000
     -8.7813100000    16.0110000000    12.9738900000
      7.5188821027    14.6121933312     2.8973640779
    -12.8118970937    27.1527705206     1.2199298076
     -4.9994638870    21.0682636382    10.2696024792
     -3.1192972417    21.3414699605     8.7187895188
    -11.0882586089    10.6082659099    12.5153839104
     -4.6485793613    13.4163354106     2.9766606642
     -9.9246882668     8.9474943615    10.9531859969
    -10.4311936188    27.5495781945     0.5938727166
     -3.7752500000    12.3218300000    18.1489100000
    -14.1990000000     9.0872800000    21.0390800000
     -6.9487900000     4.9543400000    22.7608000000
    -10.4015500000    17.4028800000    16.4511500000
     -9.5652200000    16.0159900000    18.0372000000
     -8.5006700000     5.1983000000    21.1341800000
     -2.1870500000    11.9974900000    16.5713700000
    -15.0100000000    10.4744000000    22.6370800000
     -4.8595600000    11.7426200000    15.5723600000
    -12.5057800000     9.6012300000    23.1374400000
     -3.9207700000    14.0299100000    16.0223400000
    -14.2579600000     7.8765500000    23.6301100000
     -9.6514500000     4.6686000000    23.7248300000
     -7.8830100000    16.5640100000    15.9529100000
     -8.6975000000     6.9300900000    23.2606600000
     -9.5892400000    14.8069000000    15.4354800000
     -6.4317200000    12.4796500000    18.3017300000
    -13.0666000000     6.6000900000    20.9523400000
     -7.2802300000     3.8143600000    25.0268900000
     -9.0327500000    18.4876300000    14.1788900000
     -6.4780800000     6.6025400000    25.0217600000
    -11.2686800000    16.6519000000    14.1188200000
    -11.2471100000     5.2706000000    21.0319300000
     -8.3946800000    13.5804100000    18.1626400000
     -1.7398900000    13.6771000000    14.1650200000
    -15.8942200000     9.7167100000    24.9528400000
     -2.5354500000    10.9227800000    14.1944300000
    -13.6260300000    11.4990500000    25.0341100000
     -6.6677700000    14.1340700000    16.0734300000
    -11.3697100000     7.1302600000    23.0544500000
     -4.2136600000    12.9089500000    13.1406300000
    -13.4163100000     8.9450000000    26.0688900000
      2.8838821027     7.5461933312    15.9923640779
    -17.4468970937    20.0867705206    14.3149298076
     -9.6344638870    14.0022636382    23.3646024792
     -7.7542972417    14.2754699605    21.8137895188
    -15.7232586089     3.5422659099    25.6103839104
     -9.2835793613     6.3503354106    16.0716606642
    -14.5596882668     1.8814943615    24.0481859969
    -15.0661936188    20.4835781945    13.6888727166
     23.3767500000     4.2178300000     5.2009100000
     12.9530000000     0.9832800000     8.0910800000
     20.2032100000    -3.1496600000     9.8128000000
     16.7504500000     9.2988800000     3.5031500000
     17.5867800000     7.9119900000     5.0892000000
     18.6513300000    -2.9057000000     8.1861800000
     24.9649500000     3.8934900000     3.6233700000
     12.1420000000     2.3704000000     9.6890800000
     22.2924400000     3.6386200000     2.6243600000
     14.6462200000     1.4972300000    10.1894400000
     23.2312300000     5.9259100000     3.0743400000
     12.8940400000    -0.2274500000    10.6821100000
     17.5005500000    -3.4354000000    10.7768300000
     19.2689900000     8.4600100000     3.0049100000
     18.4545000000    -1.1739100000    10.3126600000
     17.5627600000     6.7029000000     2.4874800000
     20.7202800000     4.3756500000     5.3537300000
     14.0854000000    -1.5039100000     8.0043400000
     19.8717700000    -4.2896400000    12.0788900000
     18.1192500000    10.3836300000     1.2308900000
     20.6739200000    -1.5014600000    12.0737600000
     15.8833200000     8.5479000000     1.1708200000
     15.9048900000    -2.8334000000     8.0839300000
     18.7573200000     5.4764100000     5.2146400000
     25.4121100000     5.5731000000     1.2170200000
     11.2577800000     1.6127100000    12.0048400000
     24.6165500000     2.8187800000     1.2464300000
     13.5259700000     3.3950500000    12.0861100000
     20.4842300000     6.0300700000     3.1254300000
     15.7822900000    -0.9737400000    10.1064500000
     22.9383400000     4.8049500000     0.1926300000
     13.7356900000     0.8410000000    13.1208900000
     30.0358821027    -0.5578066688     3.0443640779
      9.7051029063    11.9827705206     1.3669298076
     17.5175361130     5.8982636382    10.4166024792
     19.3977027583     6.1714699605     8.8657895188
     11.4287413911    -4.5617340901    12.6623839104
     17.8684206387    -1.7536645894     3.1236606642
     12.5923117332    -6.2225056385    11.1001859969
     12.0858063812    12.3795781945     0.7408727166
     18.7417500000    -2.8481700000    18.2959100000
      8.3180000000    -6.0827200000    21.1860800000
     15.5682100000   -10.2156600000    22.9078000000
     12.1154500000     2.2328800000    16.5981500000
     12.9517800000     0.8459900000    18.1842000000
     14.0163300000    -9.9717000000    21.2811800000
     20.3299500000    -3.1725100000    16.7183700000
      7.5070000000    -4.6956000000    22.7840800000
     17.6574400000    -3.4273800000    15.7193600000
     10.0112200000    -5.5687700000    23.2844400000
     18.5962300000    -1.1400900000    16.1693400000
      8.2590400000    -7.2934500000    23.7771100000
     12.8655500000   -10.5014000000    23.8718300000
     14.6339900000     1.3940100000    16.0999100000
     13.8195000000    -8.2399100000    23.4076600000
     12.9277600000    -0.3631000000    15.5824800000
     16.0852800000    -2.6903500000    18.4487300000
      9.4504000000    -8.5699100000    21.0993400000
     15.2367700000   -11.3556400000    25.1738900000
     13.4842500000     3.3176300000    14.3258900000
     16.0389200000    -8.5674600000    25.1687600000
     11.2483200000     1.4819000000    14.2658200000
     11.2698900000    -9.8994000000    21.1789300000
     14.1223200000    -1.5895900000    18.3096400000
     20.7771100000    -1.4929000000    14.3120200000
      6.6227800000    -5.4532900000    25.0998400000
     19.9815500000    -4.2472200000    14.3414300000
      8.8909700000    -3.6709500000    25.1811100000
     15.8492300000    -1.0359300000    16.2204300000
     11.1472900000    -8.0397400000    23.2014500000
     18.3033400000    -2.2610500000    13.2876300000
      9.1006900000    -6.2250000000    26.2158900000
     25.4008821027    -7.6238066688    16.1393640779
      5.0701029063     4.9167705206    14.4619298076
     12.8825361130    -1.1677363618    23.5116024792
     14.7627027583    -0.8945300395    21.9607895188
      6.7937413911   -11.6277340901    25.7573839104
     13.2334206387    -8.8196645894    16.2186606642
      7.9573117332   -13.2885056385    24.1951859969
      7.4508063812     5.3135781945    13.8358727166
     16.8597500000    18.8308300000     5.1439100000
      6.4360000000    15.5962800000     8.0340800000
     13.6862100000    11.4633400000     9.7558000000
     10.2334500000    23.9118800000     3.4461500000
     11.0697800000    22.5249900000     5.0322000000
     12.1343300000    11.7073000000     8.1291800000
     18.4479500000    18.5064900000     3.5663700000
      5.6250000000    16.9834000000     9.6320800000
     15.7754400000    18.2516200000     2.5673600000
      8.1292200000    16.1102300000    10.1324400000
     16.7142300000    20.5389100000     3.0173400000
      6.3770400000    14.3855500000    10.6251100000
     10.9835500000    11.1776000000    10.7198300000
     12.7519900000    23.0730100000     2.9479100000
     11.9375000000    13.4390900000    10.2556600000
     11.0457600000    21.3159000000     2.4304800000
     14.2032800000    18.9886500000     5.2967300000
      7.5684000000    13.1090900000     7.9473400000
     13.3547700000    10.3233600000    12.0218900000
     11.6022500000    24.9966300000     1.1738900000
     14.1569200000    13.1115400000    12.0167600000
      9.3663200000    23.1609000000     1.1138200000
      9.3878900000    11.7796000000     8.0269300000
     12.2403200000    20.0894100000     5.1576400000
     18.8951100000    20.1861000000     1.1600200000
      4.7407800000    16.2257100000    11.9478400000
     18.0995500000    17.4317800000     1.1894300000
      7.0089700000    18.0080500000    12.0291100000
     13.9672300000    20.6430700000     3.0684300000
      9.2652900000    13.6392600000    10.0494500000
     16.4213400000    19.4179500000     0.1356300000
      7.2186900000    15.4540000000    13.0638900000
     23.5188821027    14.0551933312     2.9873640779
      3.1881029063    26.5957705206     1.3099298076
     11.0005361130    20.5112636382    10.3596024792
     12.8807027583    20.7844699605     8.8087895188
      4.9117413911    10.0512659099    12.6053839104
     11.3514206387    12.8593354106     3.0666606642
      6.0753117332     8.3904943615    11.0431859969
      5.5688063812    26.9925781945     0.6838727166
     12.2247500000    11.7648300000    18.2389100000
      1.8010000000     8.5302800000    21.1290800000
      9.0512100000     4.3973400000    22.8508000000
      5.5984500000    16.8458800000    16.5411500000
      6.4347800000    15.4589900000    18.1272000000
      7.4993300000     4.6413000000    21.2241800000
     13.8129500000    11.4404900000    16.6613700000
      0.9900000000     9.9174000000    22.7270800000
     11.1404400000    11.1856200000    15.6623600000
      3.4942200000     9.0442300000    23.2274400000
     12.0792300000    13.4729100000    16.1123400000
      1.7420400000     7.3195500000    23.7201100000
      6.3485500000     4.1116000000    23.8148300000
      8.1169900000    16.0070100000    16.0429100000
      7.3025000000     6.3730900000    23.3506600000
      6.4107600000    14.2499000000    15.5254800000
      9.5682800000    11.9226500000    18.3917300000
      2.9334000000     6.0430900000    21.0423400000
      8.7197700000     3.2573600000    25.1168900000
      6.9672500000    17.9306300000    14.2688900000
      9.5219200000     6.0455400000    25.1117600000
      4.7313200000    16.0949000000    14.2088200000
      4.7528900000     4.7136000000    21.1219300000
      7.6053200000    13.0234100000    18.2526400000
     14.2601100000    13.1201000000    14.2550200000
      0.1057800000     9.1597100000    25.0428400000
     13.4645500000    10.3657800000    14.2844300000
      2.3739700000    10.9420500000    25.1241100000
      9.3322300000    13.5770700000    16.1634300000
      4.6302900000     6.5732600000    23.1444500000
     11.7863400000    12.3519500000    13.2306300000
      2.5836900000     8.3880000000    26.1588900000
     18.8838821027     6.9891933312    16.0823640779
     -1.4468970937    19.5297705206    14.4049298076
      6.3655361130    13.4452636382    23.4546024792
      8.2457027583    13.7184699605    21.9037895188
      0.2767413911     2.9852659099    25.7003839104
      6.7164206387     5.7933354106    16.1616606642
      1.4403117332     1.3244943615    24.1381859969
      0.9338063812    19.9265781945    13.7788727166
      0.7969672081     1.2681679000     2.1115122169
      9.7072832340    -2.7975408234    11.8257587689
      2.3049197987     1.0451422946     0.5202135808
     -0.4893163420     0.3768636082     4.5312588759
      9.6210226179    -3.7455368915     9.5418260646
      2.9021646422     9.1386909258     8.3064265984
     -2.6366102758     0.0647540032     4.9807030248
      8.6993168425    -5.4426402766    11.3202103514
      6.9446455737    12.3670013523     1.4123581606
     -1.4767561331    -1.4683118948     3.8630669883
     11.4578383038    -4.9087360415     9.2428023173
      3.8225848117     5.8777749420    11.0150979230
     -3.8380327919    -5.7978321000    15.2065122169
      5.0722832340    -9.8635408234    24.9207587689
     -2.3300802013    -6.0208577054    13.6152135808
     -5.1243163420    -6.6891363918    17.6262588759
      4.9860226179   -10.8115368915    22.6368260646
     -1.7328353578     2.0726909258    21.4014265984
     -7.2716102758    -7.0012459968    18.0757030248
      4.0643168425   -12.5086402766    24.4152103514
      2.3096455737     5.3010013523    14.5073581606
     -6.1117561331    -8.5343118948    16.9580669883
      6.8228383038   -11.9747360415    22.3378023173
     -0.8124151883    -1.1882250580    24.1100979230
     -5.7200327919    15.8811679000     2.0545122169
      3.1902832340    11.8154591766    11.7687587689
     -4.2120802013    15.6581422946     0.4632135808
     -7.0063163420    14.9898636082     4.4742588759
      3.1040226179    10.8674631085     9.4848260646
     -3.6148353578    23.7516909258     8.2494265984
     -9.1536102758    14.6777540032     4.9237030248
      2.1823168425     9.1703597234    11.2632103514
      0.4276455737    26.9800013523     1.3553581606
     -7.9937561331    13.1446881052     3.8060669883
      4.9408383038     9.7042639585     9.1858023173
     -2.6944151883    20.4907749420    10.9580979230
    -10.3550327919     8.8151679000    15.1495122169
     -1.4447167660     4.7494591766    24.8637587689
     -8.8470802013     8.5921422946    13.5582135808
    -11.6413163420     7.9238636082    17.5692588759
     -1.5309773821     3.8014631085    22.5798260646
     -8.2498353578    16.6856909258    21.3444265984
    -13.7886102758     7.6117540032    18.0187030248
     -2.4526831575     2.1043597234    24.3582103514
     -4.2073544263    19.9140013523    14.4503581606
    -12.6287561331     6.0786881052    16.9010669883
      0.3058383038     2.6382639585    22.2808023173
     -7.3294151883    13.4247749420    24.0530979230
     16.7969672081     0.7111679000     2.2015122169
     25.7072832340    -3.3545408234    11.9157587689
     18.3049197987     0.4881422946     0.6102135808
     15.5106836580    -0.1801363918     4.6212588759
     25.6210226179    -4.3025368915     9.6318260646
     18.9021646422     8.5816909258     8.3964265984
     13.3633897242    -0.4922459968     5.0707030248
     24.6993168425    -5.9996402766    11.4102103514
     22.9446455737    11.8100013523     1.5023581606
     14.5232438669    -2.0253118948     3.9530669883
     27.4578383038    -5.4657360415     9.3328023173
     19.8225848117     5.3207749420    11.1050979230
     12.1619672081    -6.3548321000    15.2965122169
     21.0722832340   -10.4205408234    25.0107587689
     13.6699197987    -6.5778577054    13.7052135808
     10.8756836580    -7.2461363918    17.7162588759
     20.9860226179   -11.3685368915    22.7268260646
     14.2671646422     1.5156909258    21.4914265984
      8.7283897242    -7.5582459968    18.1657030248
     20.0643168425   -13.0656402766    24.5052103514
     18.3096455737     4.7440013523    14.5973581606
      9.8882438669    -9.0913118948    17.0480669883
     22.8228383038   -12.5317360415    22.4278023173
     15.1875848117    -1.7452250580    24.2000979230
     10.2799672081    15.3241679000     2.1445122169
     19.1902832340    11.2584591766    11.8587587689
     11.7879197987    15.1011422946     0.5532135808
      8.9936836580    14.4328636082     4.5642588759
     19.1040226179    10.3104631085     9.5748260646
     12.3851646422    23.1946909258     8.3394265984
      6.8463897242    14.1207540032     5.0137030248
     18.1823168425     8.6133597234    11.3532103514
     16.4276455737    26.4230013523     1.4453581606
      8.0062438669    12.5876881052     3.8960669883
     20.9408383038     9.1472639585     9.2758023173
     13.3055848117    19.9337749420    11.0480979230
      5.6449672081     8.2581679000    15.2395122169
     14.5552832340     4.1924591766    24.9537587689
      7.1529197987     8.0351422946    13.6482135808
      4.3586836580     7.3668636082    17.6592588759
     14.4690226179     3.2444631085    22.6698260646
      7.7501646422    16.1286909258    21.4344265984
      2.2113897242     7.0547540032    18.1087030248
     13.5473168425     1.5473597234    24.4482103514
     11.7926455737    19.3570013523    14.5403581606
      3.3712438669     5.5216881052    16.9910669883
     16.3058383038     2.0812639585    22.3708023173
      8.6705848117    12.8677749420    24.1430979230
     14.3081506763    -0.8045978638     0.8700694957
      2.8839779062     6.8941188029    10.1115127507
     -4.5083784779    -5.3166221282    11.9400826700
     -5.0294976037    13.3062855359     1.5565448477
      9.6731506763    -7.8705978638    13.9650694957
     -1.7510220938    -0.1718811971    23.2065127507
     -9.1433784779   -12.3826221282    25.0350826700
     -9.6644976037     6.2402855359    14.6515448477
      7.7911506763    13.8084021362     0.8130694957
     -3.6330220938    21.5071188029    10.0545127507
    -11.0253784779     9.2963778718    11.8830826700
    -11.5464976037    27.9192855359     1.4995448477
      3.1561506763     6.7424021362    13.9080694957
     -8.2680220938    14.4411188029    23.1495127507
    -15.6603784779     2.2303778718    24.9780826700
    -16.1814976037    20.8532855359    14.5945448477
     30.3081506763    -1.3615978638     0.9600694957
     18.8839779062     6.3371188029    10.2015127507
     11.4916215221    -5.8736221282    12.0300826700
     10.9705023963    12.7492855359     1.6465448477
     25.6731506763    -8.4275978638    14.0550694957
     14.2489779062    -0.7288811971    23.2965127507
      6.8566215221   -12.9396221282    25.1250826700
      6.3355023963     5.6832855359    14.7415448477
     23.7911506763    13.2514021362     0.9030694957
     12.3669779062    20.9501188029    10.1445127507
      4.9746215221     8.7393778718    11.9730826700
      4.4535023963    27.3622855359     1.5895448477
     19.1561506763     6.1854021362    13.9980694957
      7.7319779062    13.8841188029    23.2395127507
      0.3396215221     1.6733778718    25.0680826700
     -0.1814976037    20.2962855359    14.6845448477
