frame0024
1.0
     32.0000000000    -1.1140000000     0.1800000000
    -13.0340000000    29.2260000000    -0.1140000000
     -9.2700000000   -14.1320000000    26.1900000000
  Ti  H  C  N  O  F  S
  64  448  496  80  320  96  32
Cartesian
     -2.8554400000     2.2297600000    11.2464000000
      7.9750400000     5.1109800000     1.8815900000
      1.2412500000    -1.7064400000     9.4264200000
      2.7524400000     7.4557000000     3.6533900000
      1.7538600000     9.1340100000     1.7490000000
      3.1294500000    -1.9607800000    11.3797900000
     -1.9062400000     0.4938700000     9.3549200000
      5.9872200000     5.4135300000     3.7290500000
     -7.4904400000    -4.8362400000    24.3414000000
      3.3400400000    -1.9550200000    14.9765900000
     -3.3937500000    -8.7724400000    22.5214200000
     -1.8825600000     0.3897000000    16.7483900000
     -2.8811400000     2.0680100000    14.8440000000
     -1.5055500000    -9.0267800000    24.4747900000
     -6.5412400000    -6.5721300000    22.4499200000
      1.3522200000    -1.6524700000    16.8240500000
     -9.3724400000    16.8427600000    11.1894000000
      1.4580400000    19.7239800000     1.8245900000
     -5.2757500000    12.9065600000     9.3694200000
     -3.7645600000    22.0687000000     3.5963900000
     -4.7631400000    23.7470100000     1.6920000000
     -3.3875500000    12.6522200000    11.3227900000
     -8.4232400000    15.1068700000     9.2979200000
     -0.5297800000    20.0265300000     3.6720500000
    -14.0074400000     9.7767600000    24.2844000000
     -3.1769600000    12.6579800000    14.9195900000
     -9.9107500000     5.8405600000    22.4644200000
     -8.3995600000    15.0027000000    16.6913900000
     -9.3981400000    16.6810100000    14.7870000000
     -8.0225500000     5.5862200000    24.4177900000
    -13.0582400000     8.0408700000    22.3929200000
     -5.1647800000    12.9605300000    16.7670500000
     13.1445600000     1.6727600000    11.3364000000
     23.9750400000     4.5539800000     1.9715900000
     17.2412500000    -2.2634400000     9.5164200000
     18.7524400000     6.8987000000     3.7433900000
     17.7538600000     8.5770100000     1.8390000000
     19.1294500000    -2.5177800000    11.4697900000
     14.0937600000    -0.0631300000     9.4449200000
     21.9872200000     4.8565300000     3.8190500000
      8.5095600000    -5.3932400000    24.4314000000
     19.3400400000    -2.5120200000    15.0665900000
     12.6062500000    -9.3294400000    22.6114200000
     14.1174400000    -0.1673000000    16.8383900000
     13.1188600000     1.5110100000    14.9340000000
     14.4944500000    -9.5837800000    24.5647900000
      9.4587600000    -7.1291300000    22.5399200000
     17.3522200000    -2.2094700000    16.9140500000
      6.6275600000    16.2857600000    11.2794000000
     17.4580400000    19.1669800000     1.9145900000
     10.7242500000    12.3495600000     9.4594200000
     12.2354400000    21.5117000000     3.6863900000
     11.2368600000    23.1900100000     1.7820000000
     12.6124500000    12.0952200000    11.4127900000
      7.5767600000    14.5498700000     9.3879200000
     15.4702200000    19.4695300000     3.7620500000
      1.9925600000     9.2197600000    24.3744000000
     12.8230400000    12.1009800000    15.0095900000
      6.0892500000     5.2835600000    22.5544200000
      7.6004400000    14.4457000000    16.7813900000
      6.6018600000    16.1240100000    14.8770000000
      7.9774500000     5.0292200000    24.5077900000
      2.9417600000     7.4838700000    22.4829200000
     10.8352200000    12.4035300000    16.8570500000
     -2.3535600000     6.1268500000    11.0269500000
      8.7838200000     1.2049200000     2.2022700000
     -6.8153400000     1.4731400000    10.8639500000
     11.3571900000     7.1152700000     2.0822400000
      4.1050600000    -5.9953200000    10.9938600000
     -2.3046600000     8.5441100000     2.0710500000
     -2.3866800000     0.4312000000    12.9709100000
      6.0995100000     4.8682800000     0.1816500000
      3.6393600000    -2.6278900000     5.8686900000
      1.0290000000     9.2927200000     7.2723500000
     -5.9788600000     3.8825000000     8.9990100000
     10.7297900000     3.0266500000     4.1875900000
     -3.6777500000     2.4350600000     5.6651700000
     -1.3462100000    10.9618700000     4.1022400000
      2.1461100000    12.2368400000     2.6044700000
      8.6259900000    -0.8139200000     3.4047600000
      4.8450600000     7.1358300000     2.3147600000
      0.1605500000     0.1419600000    10.7200400000
      7.3641900000    -0.0259300000     9.7694500000
      5.8830700000    -0.4949900000    10.5167800000
      7.9383100000     4.4077100000     8.6705500000
      7.3686000000     4.7662900000     7.0520000000
      6.8753800000    -4.9807600000     9.5794200000
      5.5962300000    -3.8801800000    10.0368100000
      3.7755325679     1.5237383905     8.5768259896
     -6.6057369961    10.6141421309     6.1200582449
      4.4301879357    10.0809755144     5.7849456045
      4.7373899198     3.0458467714     6.8298114729
      0.2008391459     3.9180753064     8.6905862483
     12.1114912036    -2.7184768956     7.1106747381
      1.4565500285     1.8874726459     9.3695047186
      1.1961525616     5.4746310084     6.9904266734
      5.7693437496     8.3323756402     4.6352533882
      8.2385540517     8.2920507740     4.8504883426
     -0.0874869187     4.9040727164    12.9037719532
      1.4071957996     3.4124693492    11.1552951135
      3.8255000410     3.1499279556    11.1440325425
      4.8933802555    12.2924519907     2.3109082009
      4.5749368844     3.1624229163    12.7551004490
      3.9093995519    10.8560644380     2.8248294070
      4.9814285418     1.8908891436    11.5627917674
      2.6989765744     0.9327349208    11.6599606149
      5.6462395090    10.9852484194     3.2559531939
      6.6576903470     9.0480745829     2.0021529968
      8.0411321293     8.0168781835     0.2018102423
      5.5218112754     1.7450675101     3.1596863840
      4.4022058293     2.1839987610     1.8880815483
      2.4559370515     3.2679506756     2.8398236887
      5.6964606724    -0.0702474599     1.5352225837
      3.7781213887    -0.2101327021     4.8433299795
      0.4072813561     3.4665148257     5.8129402376
      0.4741076545     3.9125613115     4.0810659386
      4.5553278208    -0.7575268699     2.7305352084
      1.5280842472     0.7711987001     6.1193192876
      3.9376958864    -0.0790462568     1.2491861414
     -0.4023408734     2.4364529883     4.5559734630
     -6.9885600000    -0.9391500000    24.1219500000
      4.1488200000    -5.8610800000    15.2972700000
    -11.4503400000    -5.5928600000    23.9589500000
      6.7221900000     0.0492700000    15.1772400000
     -0.5299400000   -13.0613200000    24.0888600000
     -6.9396600000     1.4781100000    15.1660500000
     -7.0216800000    -6.6348000000    26.0659100000
      1.4645100000    -2.1977200000    13.2766500000
     -0.9956400000    -9.6938900000    18.9636900000
     -3.6060000000     2.2267200000    20.3673500000
    -10.6138600000    -3.1835000000    22.0940100000
      6.0947900000    -4.0393500000    17.2825900000
     -8.3127500000    -4.6309400000    18.7601700000
     -5.9812100000     3.8958700000    17.1972400000
     -2.4888900000     5.1708400000    15.6994700000
      3.9909900000    -7.8799200000    16.4997600000
      0.2100600000     0.0698300000    15.4097600000
     -4.4744500000    -6.9240400000    23.8150400000
      2.7291900000    -7.0919300000    22.8644500000
      1.2480700000    -7.5609900000    23.6117800000
      3.3033100000    -2.6582900000    21.7655500000
      2.7336000000    -2.2997100000    20.1470000000
      2.2403800000   -12.0467600000    22.6744200000
      0.9612300000   -10.9461800000    23.1318100000
     -0.8594674321    -5.5422616095    21.6718259896
    -11.2407369961     3.5481421309    19.2150582449
     -0.2048120643     3.0149755144    18.8799456045
      0.1023899198    -4.0201532286    19.9248114729
     -4.4341608541    -3.1479246936    21.7855862483
      7.4764912036    -9.7844768956    20.2056747381
     -3.1784499715    -5.1785273541    22.4645047186
     -3.4388474384    -1.5913689916    20.0854266734
      1.1343437496     1.2663756402    17.7302533882
      3.6035540517     1.2260507740    17.9454883426
     -4.7224869187    -2.1619272836    25.9987719532
     -3.2278042004    -3.6535306508    24.2502951135
     -0.8094999590    -3.9160720444    24.2390325425
      0.2583802555     5.2264519907    15.4059082009
     -0.0600631156    -3.9035770837    25.8501004490
     -0.7256004481     3.7900644380    15.9198294070
      0.3464285418    -5.1751108564    24.6577917674
     -1.9360234256    -6.1332650792    24.7549606149
      1.0112395090     3.9192484194    16.3509531939
      2.0226903470     1.9820745829    15.0971529968
      3.4061321293     0.9508781835    13.2968102423
      0.8868112754    -5.3209324899    16.2546863840
     -0.2327941707    -4.8820012390    14.9830815483
     -2.1790629485    -3.7980493244    15.9348236887
      1.0614606724    -7.1362474599    14.6302225837
     -0.8568786113    -7.2761327021    17.9383299795
     -4.2277186439    -3.5994851743    18.9079402376
     -4.1608923455    -3.1534386885    17.1760659386
     -0.0796721792    -7.8235268699    15.8255352084
     -3.1069157528    -6.2948012999    19.2143192876
     -0.6973041136    -7.1450462568    14.3441861414
     -5.0373408734    -4.6295470117    17.6509734630
     -8.8705600000    20.7398500000    10.9699500000
      2.2668200000    15.8179200000     2.1452700000
    -13.3323400000    16.0861400000    10.8069500000
      4.8401900000    21.7282700000     2.0252400000
     -2.4119400000     8.6176800000    10.9368600000
     -8.8216600000    23.1571100000     2.0140500000
     -8.9036800000    15.0442000000    12.9139100000
     -0.4174900000    19.4812800000     0.1246500000
     -2.8776400000    11.9851100000     5.8116900000
     -5.4880000000    23.9057200000     7.2153500000
    -12.4958600000    18.4955000000     8.9420100000
      4.2127900000    17.6396500000     4.1305900000
    -10.1947500000    17.0480600000     5.6081700000
     -7.8632100000    25.5748700000     4.0452400000
     -4.3708900000    26.8498400000     2.5474700000
      2.1089900000    13.7990800000     3.3477600000
     -1.6719400000    21.7488300000     2.2577600000
     -6.3564500000    14.7549600000    10.6630400000
      0.8471900000    14.5870700000     9.7124500000
     -0.6339300000    14.1180100000    10.4597800000
      1.4213100000    19.0207100000     8.6135500000
      0.8516000000    19.3792900000     6.9950000000
      0.3583800000     9.6322400000     9.5224200000
     -0.9207700000    10.7328200000     9.9798100000
     -2.7414674321    16.1367383905     8.5198259896
    -13.1227369961    25.2271421309     6.0630582449
     -2.0868120643    24.6939755144     5.7279456045
     -1.7796100802    17.6588467714     6.7728114729
     -6.3161608541    18.5310753064     8.6335862483
      5.5944912036    11.8945231044     7.0536747381
     -5.0604499715    16.5004726459     9.3125047186
     -5.3208474384    20.0876310084     6.9334266734
     -0.7476562504    22.9453756402     4.5782533882
      1.7215540517    22.9050507740     4.7934883426
     -6.6044869187    19.5170727164    12.8467719532
     -5.1098042004    18.0254693492    11.0982951135
     -2.6914999590    17.7629279556    11.0870325425
     -1.6236197445    26.9054519907     2.2539082009
     -1.9420631156    17.7754229163    12.6981004490
     -2.6076004481    25.4690644380     2.7678294070
     -1.5355714582    16.5038891436    11.5057917674
     -3.8180234256    15.5457349208    11.6029606149
     -0.8707604910    25.5982484194     3.1989531939
      0.1406903470    23.6610745829     1.9451529968
      1.5241321293    22.6298781835     0.1448102423
     -0.9951887246    16.3580675101     3.1026863840
     -2.1147941707    16.7969987610     1.8310815483
     -4.0610629485    17.8809506756     2.7828236887
     -0.8205393276    14.5427525401     1.4782225837
     -2.7388786113    14.4028672979     4.7863299795
     -6.1097186439    18.0795148257     5.7559402376
     -6.0428923455    18.5255613115     4.0240659386
     -1.9616721792    13.8554731301     2.6735352084
     -4.9889157528    15.3841987001     6.0623192876
     -2.5793041136    14.5339537432     1.1921861414
     -6.9193408734    17.0494529883     4.4989734630
    -13.5055600000    13.6738500000    24.0649500000
     -2.3681800000     8.7519200000    15.2402700000
    -17.9673400000     9.0201400000    23.9019500000
      0.2051900000    14.6622700000    15.1202400000
     -7.0469400000     1.5516800000    24.0318600000
    -13.4566600000    16.0911100000    15.1090500000
    -13.5386800000     7.9782000000    26.0089100000
     -5.0524900000    12.4152800000    13.2196500000
     -7.5126400000     4.9191100000    18.9066900000
    -10.1230000000    16.8397200000    20.3103500000
    -17.1308600000    11.4295000000    22.0370100000
     -0.4222100000    10.5736500000    17.2255900000
    -14.8297500000     9.9820600000    18.7031700000
    -12.4982100000    18.5088700000    17.1402400000
     -9.0058900000    19.7838400000    15.6424700000
     -2.5260100000     6.7330800000    16.4427600000
     -6.3069400000    14.6828300000    15.3527600000
    -10.9914500000     7.6889600000    23.7580400000
     -3.7878100000     7.5210700000    22.8074500000
     -5.2689300000     7.0520100000    23.5547800000
     -3.2136900000    11.9547100000    21.7085500000
     -3.7834000000    12.3132900000    20.0900000000
     -4.2766200000     2.5662400000    22.6174200000
     -5.5557700000     3.6668200000    23.0748100000
     -7.3764674321     9.0707383905    21.6148259896
    -17.7577369961    18.1611421309    19.1580582449
     -6.7218120643    17.6279755144    18.8229456045
     -6.4146100802    10.5928467714    19.8678114729
    -10.9511608541    11.4650753064    21.7285862483
      0.9594912036     4.8285231044    20.1486747381
     -9.6954499715     9.4344726459    22.4075047186
     -9.9558474384    13.0216310084    20.0284266734
     -5.3826562504    15.8793756402    17.6732533882
     -2.9134459483    15.8390507740    17.8884883426
    -11.2394869187    12.4510727164    25.9417719532
     -9.7448042004    10.9594693492    24.1932951135
     -7.3264999590    10.6969279556    24.1820325425
     -6.2586197445    19.8394519907    15.3489082009
     -6.5770631156    10.7094229163    25.7931004490
     -7.2426004481    18.4030644380    15.8628294070
     -6.1705714582     9.4378891436    24.6007917674
     -8.4530234256     8.4797349208    24.6979606149
     -5.5057604910    18.5322484194    16.2939531939
     -4.4943096530    16.5950745829    15.0401529968
     -3.1108678707    15.5638781835    13.2398102423
     -5.6301887246     9.2920675101    16.1976863840
     -6.7497941707     9.7309987610    14.9260815483
     -8.6960629485    10.8149506756    15.8778236887
     -5.4555393276     7.4767525401    14.5732225837
     -7.3738786113     7.3368672979    17.8813299795
    -10.7447186439    11.0135148257    18.8509402376
    -10.6778923455    11.4595613115    17.1190659386
     -6.5966721792     6.7894731301    15.7685352084
     -9.6239157528     8.3181987001    19.1573192876
     -7.2143041136     7.4679537432    14.2871861414
    -11.5543408734     9.9834529883    17.5939734630
     13.6464400000     5.5698500000    11.1169500000
     24.7838200000     0.6479200000     2.2922700000
      9.1846600000     0.9161400000    10.9539500000
     27.3571900000     6.5582700000     2.1722400000
     20.1050600000    -6.5523200000    11.0838600000
     13.6953400000     7.9871100000     2.1610500000
     13.6133200000    -0.1258000000    13.0609100000
     22.0995100000     4.3112800000     0.2716500000
     19.6393600000    -3.1848900000     5.9586900000
     17.0290000000     8.7357200000     7.3623500000
     10.0211400000     3.3255000000     9.0890100000
     26.7297900000     2.4696500000     4.2775900000
     12.3222500000     1.8780600000     5.7551700000
     14.6537900000    10.4048700000     4.1922400000
     18.1461100000    11.6798400000     2.6944700000
     24.6259900000    -1.3709200000     3.4947600000
     20.8450600000     6.5788300000     2.4047600000
     16.1605500000    -0.4150400000    10.8100400000
     23.3641900000    -0.5829300000     9.8594500000
     21.8830700000    -1.0519900000    10.6067800000
     23.9383100000     3.8507100000     8.7605500000
     23.3686000000     4.2092900000     7.1420000000
     22.8753800000    -5.5377600000     9.6694200000
     21.5962300000    -4.4371800000    10.1268100000
     19.7755325679     0.9667383905     8.6668259896
      9.3942630039    10.0571421309     6.2100582449
     20.4301879357     9.5239755144     5.8749456045
     20.7373899198     2.4888467714     6.9198114729
     16.2008391459     3.3610753064     8.7805862483
     28.1114912036    -3.2754768956     7.2006747381
     17.4565500285     1.3304726459     9.4595047186
     17.1961525616     4.9176310084     7.0804266734
     21.7693437496     7.7753756402     4.7252533882
     24.2385540517     7.7350507740     4.9404883426
     15.9125130813     4.3470727164    12.9937719532
     17.4071957996     2.8554693492    11.2452951135
     19.8255000410     2.5929279556    11.2340325425
     20.8933802555    11.7354519907     2.4009082009
     20.5749368844     2.6054229163    12.8451004490
     19.9093995519    10.2990644380     2.9148294070
     20.9814285418     1.3338891436    11.6527917674
     18.6989765744     0.3757349208    11.7499606149
     21.6462395090    10.4282484194     3.3459531939
     22.6576903470     8.4910745829     2.0921529968
     24.0411321293     7.4598781835     0.2918102423
     21.5218112754     1.1880675101     3.2496863840
     20.4022058293     1.6269987610     1.9780815483
     18.4559370515     2.7109506756     2.9298236887
     21.6964606724    -0.6272474599     1.6252225837
     19.7781213887    -0.7671327021     4.9333299795
     16.4072813561     2.9095148257     5.9029402376
     16.4741076545     3.3555613115     4.1710659386
     20.5553278208    -1.3145268699     2.8205352084
     17.5280842472     0.2141987001     6.2093192876
     19.9376958864    -0.6360462568     1.3391861414
     15.5976591266     1.8794529883     4.6459734630
      9.0114400000    -1.4961500000    24.2119500000
     20.1488200000    -6.4180800000    15.3872700000
      4.5496600000    -6.1498600000    24.0489500000
     22.7221900000    -0.5077300000    15.2672400000
     15.4700600000   -13.6183200000    24.1788600000
      9.0603400000     0.9211100000    15.2560500000
      8.9783200000    -7.1918000000    26.1559100000
     17.4645100000    -2.7547200000    13.3666500000
     15.0043600000   -10.2508900000    19.0536900000
     12.3940000000     1.6697200000    20.4573500000
      5.3861400000    -3.7405000000    22.1840100000
     22.0947900000    -4.5963500000    17.3725900000
      7.6872500000    -5.1879400000    18.8501700000
     10.0187900000     3.3388700000    17.2872400000
     13.5111100000     4.6138400000    15.7894700000
     19.9909900000    -8.4369200000    16.5897600000
     16.2100600000    -0.4871700000    15.4997600000
     11.5255500000    -7.4810400000    23.9050400000
     18.7291900000    -7.6489300000    22.9544500000
     17.2480700000    -8.1179900000    23.7017800000
     19.3033100000    -3.2152900000    21.8555500000
     18.7336000000    -2.8567100000    20.2370000000
     18.2403800000   -12.6037600000    22.7644200000
     16.9612300000   -11.5031800000    23.2218100000
     15.1405325679    -6.0992616095    21.7618259896
      4.7592630039     2.9911421309    19.3050582449
     15.7951879357     2.4579755144    18.9699456045
     16.1023899198    -4.5771532286    20.0148114729
     11.5658391459    -3.7049246936    21.8755862483
     23.4764912036   -10.3414768956    20.2956747381
     12.8215500285    -5.7355273541    22.5545047186
     12.5611525616    -2.1483689916    20.1754266734
     17.1343437496     0.7093756402    17.8202533882
     19.6035540517     0.6690507740    18.0354883426
     11.2775130813    -2.7189272836    26.0887719532
     12.7721957996    -4.2105306508    24.3402951135
     15.1905000410    -4.4730720444    24.3290325425
     16.2583802555     4.6694519907    15.4959082009
     15.9399368844    -4.4605770837    25.9401004490
     15.2743995519     3.2330644380    16.0098294070
     16.3464285418    -5.7321108564    24.7477917674
     14.0639765744    -6.6902650792    24.8449606149
     17.0112395090     3.3622484194    16.4409531939
     18.0226903470     1.4250745829    15.1871529968
     19.4061321293     0.3938781835    13.3868102423
     16.8868112754    -5.8779324899    16.3446863840
     15.7672058293    -5.4390012390    15.0730815483
     13.8209370515    -4.3550493244    16.0248236887
     17.0614606724    -7.6932474599    14.7202225837
     15.1431213887    -7.8331327021    18.0283299795
     11.7722813561    -4.1564851743    18.9979402376
     11.8391076545    -3.7104386885    17.2660659386
     15.9203278208    -8.3805268699    15.9155352084
     12.8930842472    -6.8518012999    19.3043192876
     15.3026958864    -7.7020462568    14.4341861414
     10.9626591266    -5.1865470117    17.7409734630
      7.1294400000    20.1828500000    11.0599500000
     18.2668200000    15.2609200000     2.2352700000
      2.6676600000    15.5291400000    10.8969500000
     20.8401900000    21.1712700000     2.1152400000
     13.5880600000     8.0606800000    11.0268600000
      7.1783400000    22.6001100000     2.1040500000
      7.0963200000    14.4872000000    13.0039100000
     15.5825100000    18.9242800000     0.2146500000
     13.1223600000    11.4281100000     5.9016900000
     10.5120000000    23.3487200000     7.3053500000
      3.5041400000    17.9385000000     9.0320100000
     20.2127900000    17.0826500000     4.2205900000
      5.8052500000    16.4910600000     5.6981700000
      8.1367900000    25.0178700000     4.1352400000
     11.6291100000    26.2928400000     2.6374700000
     18.1089900000    13.2420800000     3.4377600000
     14.3280600000    21.1918300000     2.3477600000
      9.6435500000    14.1979600000    10.7530400000
     16.8471900000    14.0300700000     9.8024500000
     15.3660700000    13.5610100000    10.5497800000
     17.4213100000    18.4637100000     8.7035500000
     16.8516000000    18.8222900000     7.0850000000
     16.3583800000     9.0752400000     9.6124200000
     15.0792300000    10.1758200000    10.0698100000
     13.2585325679    15.5797383905     8.6098259896
      2.8772630039    24.6701421309     6.1530582449
     13.9131879357    24.1369755144     5.8179456045
     14.2203899198    17.1018467714     6.8628114729
      9.6838391459    17.9740753064     8.7235862483
     21.5944912036    11.3375231044     7.1436747381
     10.9395500285    15.9434726459     9.4025047186
     10.6791525616    19.5306310084     7.0234266734
     15.2523437496    22.3883756402     4.6682533882
     17.7215540517    22.3480507740     4.8834883426
      9.3955130813    18.9600727164    12.9367719532
     10.8901957996    17.4684693492    11.1882951135
     13.3085000410    17.2059279556    11.1770325425
     14.3763802555    26.3484519907     2.3439082009
     14.0579368844    17.2184229163    12.7881004490
     13.3923995519    24.9120644380     2.8578294070
     14.4644285418    15.9468891436    11.5957917674
     12.1819765744    14.9887349208    11.6929606149
     15.1292395090    25.0412484194     3.2889531939
     16.1406903470    23.1040745829     2.0351529968
     17.5241321293    22.0728781835     0.2348102423
     15.0048112754    15.8010675101     3.1926863840
     13.8852058293    16.2399987610     1.9210815483
     11.9389370515    17.3239506756     2.8728236887
     15.1794606724    13.9857525401     1.5682225837
     13.2611213887    13.8458672979     4.8763299795
      9.8902813561    17.5225148257     5.8459402376
      9.9571076545    17.9685613115     4.1140659386
     14.0383278208    13.2984731301     2.7635352084
     11.0110842472    14.8271987001     6.1523192876
     13.4206958864    13.9769537432     1.2821861414
      9.0806591266    16.4924529883     4.5889734630
      2.4944400000    13.1168500000    24.1549500000
     13.6318200000     8.1949200000    15.3302700000
     -1.9673400000     8.4631400000    23.9919500000
     16.2051900000    14.1052700000    15.2102400000
      8.9530600000     0.9946800000    24.1218600000
      2.5433400000    15.5341100000    15.1990500000
      2.4613200000     7.4212000000    26.0989100000
     10.9475100000    11.8582800000    13.3096500000
      8.4873600000     4.3621100000    18.9966900000
      5.8770000000    16.2827200000    20.4003500000
     -1.1308600000    10.8725000000    22.1270100000
     15.5777900000    10.0166500000    17.3155900000
      1.1702500000     9.4250600000    18.7931700000
      3.5017900000    17.9518700000    17.2302400000
      6.9941100000    19.2268400000    15.7324700000
     13.4739900000     6.1760800000    16.5327600000
      9.6930600000    14.1258300000    15.4427600000
      5.0085500000     7.1319600000    23.8480400000
     12.2121900000     6.9640700000    22.8974500000
     10.7310700000     6.4950100000    23.6447800000
     12.7863100000    11.3977100000    21.7985500000
     12.2166000000    11.7562900000    20.1800000000
     11.7233800000     2.0092400000    22.7074200000
     10.4442300000     3.1098200000    23.1648100000
      8.6235325679     8.5137383905    21.7048259896
     -1.7577369961    17.6041421309    19.2480582449
      9.2781879357    17.0709755144    18.9129456045
      9.5853899198    10.0358467714    19.9578114729
      5.0488391459    10.9080753064    21.8185862483
     16.9594912036     4.2715231044    20.2386747381
      6.3045500285     8.8774726459    22.4975047186
      6.0441525616    12.4646310084    20.1184266734
     10.6173437496    15.3223756402    17.7632533882
     13.0865540517    15.2820507740    17.9784883426
      4.7605130813    11.8940727164    26.0317719532
      6.2551957996    10.4024693492    24.2832951135
      8.6735000410    10.1399279556    24.2720325425
      9.7413802555    19.2824519907    15.4389082009
      9.4229368844    10.1524229163    25.8831004490
      8.7573995519    17.8460644380    15.9528294070
      9.8294285418     8.8808891436    24.6907917674
      7.5469765744     7.9227349208    24.7879606149
     10.4942395090    17.9752484194    16.3839531939
     11.5056903470    16.0380745829    15.1301529968
     12.8891321293    15.0068781835    13.3298102423
     10.3698112754     8.7350675101    16.2876863840
      9.2502058293     9.1739987610    15.0160815483
      7.3039370515    10.2579506756    15.9678236887
     10.5444606724     6.9197525401    14.6632225837
      8.6261213887     6.7798672979    17.9713299795
      5.2552813561    10.4565148257    18.9409402376
      5.3221076545    10.9025613115    17.2090659386
      9.4033278208     6.2324731301    15.8585352084
      6.3760842472     7.7611987001    19.2473192876
      8.7856958864     6.9109537432    14.3771861414
      4.4456591266     9.4264529883    17.6839734630
      8.5530700000     4.3697400000     4.7451200000
     -3.8159900000     2.4911500000     8.3993700000
      3.8217500000    -2.7171400000     8.5017000000
      0.8163200000     9.4262100000     4.6127500000
      9.4490900000     3.7654200000     5.7403100000
     -4.7478900000     3.1161600000     7.4223200000
      4.7619500000    -3.3314900000     7.5545100000
     -0.0735000000    10.0730100000     5.6125400000
      9.2003300000     3.8403400000     7.1467300000
     -4.5315000000     2.9961800000     6.0343000000
      5.8914000000    -4.0917900000     8.0075700000
     -1.1682200000    10.8459600000     5.1676100000
      0.1810000000     9.9022500000     6.9674200000
      4.5142400000    -3.1993500000     6.1705800000
     10.5827700000     3.0664400000     5.2646000000
     -5.8480500000     3.8085800000     7.9210000000
      8.7648500000     1.2839900000     0.0581800000
      2.2951100000    13.0755800000     0.0831900000
      6.6142800000    -0.0188900000    13.0271700000
     -6.7440500000     1.5235400000    13.0077900000
      3.4991600000     5.1125200000     5.6179800000
     -1.2569300000    -1.9818500000     7.5361200000
      3.9939900000    -4.3271500000    13.1299800000
      2.2023600000    11.6420600000     0.0457000000
      5.3164500000    -0.6357200000    13.0740400000
     -5.3417400000     1.9378900000    13.0322500000
      8.8042000000     0.6148800000     1.2878600000
     -2.3426400000     6.7152500000    11.9408400000
     -4.0954200000     7.8789100000     1.0761300000
     -7.3768300000     1.2937600000    11.7793000000
      7.3089400000     0.2494000000    11.7938000000
     -2.8062400000     8.3591200000     1.1252600000
      4.1467000000    -6.5224800000    11.9429100000
      8.8258900000    -0.7862300000     1.3694700000
      2.9790417326     4.2891363333     6.7335025813
      1.9077817982     2.5980270416     8.6787249190
      6.2725969017     9.0990807643     5.2244800377
     -1.9221614479    -2.9722195220     6.6607091290
      1.7289716017     4.5802040264     7.3089275033
      3.2065977822     2.3736390261     8.2046257304
      5.5173076294    10.0994305146     5.8457636642
     -7.6862103349    10.6204424557     5.9971194730
      7.6683538923     9.0818045766     5.3358688790
     12.6776354485    -3.5085820595     6.6229858866
      3.7435448589     3.2198554532     7.2354295233
      1.1858803104     3.7231330933     8.2675241681
      0.4608196645     3.9992665628    13.0913354855
      1.1976385136     3.2655393393    12.2144063231
      4.1677695938     2.5085189361    11.9681164399
      4.8856368915    11.2289158138     2.5188652805
      6.1635987474     9.5385101060     1.1827901312
      3.0645317822     1.5738554473    12.4665328668
      0.8423248218     0.6314331144     1.2154054383
      9.6077237566    -5.1535225070     9.7445899191
      4.5980200697     1.4297252975     2.6531058862
      2.5646267847     2.5267510159     3.6083354461
      3.2072037091     0.6844044826     4.6689515645
      4.7121009691     0.0530448648     2.0092655989
      2.0948760100     1.1915593642     5.2872962280
      0.4525659327     3.0811501597     4.7892465425
     -1.4791754811    -0.1987740531     3.7188994029
      9.0970976880    -5.9389448316    10.9745331823
      3.9180700000    -2.6962600000    17.8401200000
     -8.4509900000    -4.5748500000    21.4943700000
     -0.8132500000    -9.7831400000    21.5967000000
     -3.8186800000     2.3602100000    17.7077500000
      4.8140900000    -3.3005800000    18.8353100000
     -9.3828900000    -3.9498400000    20.5173200000
      0.1269500000   -10.3974900000    20.6495100000
     -4.7085000000     3.0070100000    18.7075400000
      4.5653300000    -3.2256600000    20.2417300000
     -9.1665000000    -4.0698200000    19.1293000000
      1.2564000000   -11.1577900000    21.1025700000
     -5.8032200000     3.7799600000    18.2626100000
     -4.4540000000     2.8362500000    20.0624200000
     -0.1207600000   -10.2653500000    19.2655800000
      5.9477700000    -3.9995600000    18.3596000000
    -10.4830500000    -3.2574200000    21.0160000000
      4.1298500000    -5.7820100000    13.1531800000
     -2.3398900000     6.0095800000    13.1781900000
      1.9792800000    -7.0848900000    26.1221700000
    -11.3790500000    -5.5424600000    26.1027900000
     -1.1358400000    -1.9534800000    18.7129800000
     -5.8919300000    -9.0478500000    20.6311200000
     -0.6410100000   -11.3931500000    26.2249800000
     -2.4326400000     4.5760600000    13.1407000000
      0.6814500000    -7.7017200000    26.1690400000
     -9.9767400000    -5.1281100000    26.1272500000
      4.1692000000    -6.4511200000    14.3828600000
     -6.9776400000    -0.3507500000    25.0358400000
     -8.7304200000     0.8129100000    14.1711300000
    -12.0118300000    -5.7722400000    24.8743000000
      2.6739400000    -6.8166000000    24.8888000000
     -7.4412400000     1.2931200000    14.2202600000
     -0.4883000000   -13.5884800000    25.0379100000
      4.1908900000    -7.8522300000    14.4644700000
     -1.6559582674    -2.7768636667    19.8285025813
     -2.7272182018    -4.4679729584    21.7737249190
      1.6375969017     2.0330807643    18.3194800377
     -6.5571614479   -10.0382195220    19.7557091290
     -2.9060283983    -2.4857959736    20.4039275033
     -1.4284022178    -4.6923609739    21.2996257304
      0.8823076294     3.0334305146    18.9407636642
    -12.3212103349     3.5544424557    19.0921194730
      3.0333538923     2.0158045766    18.4308688790
      8.0426354485   -10.5745820595    19.7179858866
     -0.8914551411    -3.8461445468    20.3304295233
     -3.4491196896    -3.3428669067    21.3625241681
     -4.1741803355    -3.0667334372    26.1863354855
     -3.4373614864    -3.8004606607    25.3094063231
     -0.4672304062    -4.5574810639    25.0631164399
      0.2506368915     4.1629158138    15.6138652805
      1.5285987474     2.4725101060    14.2777901312
     -1.5704682178    -5.4921445527    25.5615328668
     -3.7926751782    -6.4345668856    14.3104054383
      4.9727237566   -12.2195225070    22.8395899191
     -0.0369799303    -5.6362747025    15.7481058862
     -2.0703732153    -4.5392489841    16.7033354461
     -1.4277962909    -6.3815955174    17.7639515645
      0.0771009691    -7.0129551352    15.1042655989
     -2.5401239900    -5.8744406358    18.3822962280
     -4.1824340673    -3.9848498403    17.8842465425
     -6.1141754811    -7.2647740531    16.8138994029
      4.4620976880   -13.0049448316    24.0695331823
      2.0360700000    18.9827400000     4.6881200000
    -10.3329900000    17.1041500000     8.3423700000
     -2.6952500000    11.8958600000     8.4447000000
     -5.7006800000    24.0392100000     4.5557500000
      2.9320900000    18.3784200000     5.6833100000
    -11.2648900000    17.7291600000     7.3653200000
     -1.7550500000    11.2815100000     7.4975100000
     -6.5905000000    24.6860100000     5.5555400000
      2.6833300000    18.4533400000     7.0897300000
    -11.0485000000    17.6091800000     5.9773000000
     -0.6256000000    10.5212100000     7.9505700000
     -7.6852200000    25.4589600000     5.1106100000
     -6.3360000000    24.5152500000     6.9104200000
     -2.0027600000    11.4136500000     6.1135800000
      4.0657700000    17.6794400000     5.2076000000
    -12.3650500000    18.4215800000     7.8640000000
      2.2478500000    15.8969900000     0.0011800000
     -4.2218900000    27.6885800000     0.0261900000
      0.0972800000    14.5941100000    12.9701700000
    -13.2610500000    16.1365400000    12.9507900000
     -3.0178400000    19.7255200000     5.5609800000
     -7.7739300000    12.6311500000     7.4791200000
     -2.5230100000    10.2858500000    13.0729800000
     -4.3146400000    26.2550600000    -0.0113000000
     -1.2005500000    13.9772800000    13.0170400000
    -11.8587400000    16.5508900000    12.9752500000
      2.2872000000    15.2278800000     1.2308600000
     -8.8596400000    21.3282500000    11.8838400000
    -10.6124200000    22.4919100000     1.0191300000
    -13.8938300000    15.9067600000    11.7223000000
      0.7919400000    14.8624000000    11.7368000000
     -9.3232400000    22.9721200000     1.0682600000
     -2.3703000000     8.0905200000    11.8859100000
      2.3088900000    13.8267700000     1.3124700000
     -3.5379582674    18.9021363333     6.6765025813
     -4.6092182018    17.2110270416     8.6217249190
     -0.2444030983    23.7120807643     5.1674800377
     -8.4391614479    11.6407804780     6.6037091290
     -4.7880283983    19.1932040264     7.2519275033
     -3.3104022178    16.9866390261     8.1476257304
     -0.9996923706    24.7124305146     5.7887636642
    -14.2032103349    25.2334424557     5.9401194730
      1.1513538923    23.6948045766     5.2788688790
      6.1606354485    11.1044179405     6.5659858866
     -2.7734551411    17.8328554532     7.1784295233
     -5.3311196896    18.3361330933     8.2105241681
     -6.0561803355    18.6122665628    13.0343354855
     -5.3193614864    17.8785393393    12.1574063231
     -2.3492304062    17.1215189361    11.9111164399
     -1.6313631085    25.8419158138     2.4618652805
     -0.3534012526    24.1515101060     1.1257901312
     -3.4524682178    16.1868554473    12.4095328668
     -5.6746751782    15.2444331144     1.1584054383
      3.0907237566     9.4594774930     9.6875899191
     -1.9189799303    16.0427252975     2.5961058862
     -3.9523732153    17.1397510159     3.5513354461
     -3.3097962909    15.2974044826     4.6119515645
     -1.8048990309    14.6660448648     1.9522655989
     -4.4221239900    15.8045593642     5.2302962280
     -6.0644340673    17.6941501597     4.7322465425
     -7.9961754811    14.4142259469     3.6618994029
      2.5800976880     8.6740551684    10.9175331823
     -2.5989300000    11.9167400000    17.7831200000
    -14.9679900000    10.0381500000    21.4373700000
     -7.3302500000     4.8298600000    21.5397000000
    -10.3356800000    16.9732100000    17.6507500000
     -1.7029100000    11.3124200000    18.7783100000
    -15.8998900000    10.6631600000    20.4603200000
     -6.3900500000     4.2155100000    20.5925100000
    -11.2255000000    17.6200100000    18.6505400000
     -1.9516700000    11.3873400000    20.1847300000
    -15.6835000000    10.5431800000    19.0723000000
     -5.2606000000     3.4552100000    21.0455700000
    -12.3202200000    18.3929600000    18.2056100000
    -10.9710000000    17.4492500000    20.0054200000
     -6.6377600000     4.3476500000    19.2085800000
     -0.5692300000    10.6134400000    18.3026000000
    -17.0000500000    11.3555800000    20.9590000000
     -2.3871500000     8.8309900000    13.0961800000
     -8.8568900000    20.6225800000    13.1211900000
     -4.5377200000     7.5281100000    26.0651700000
    -17.8960500000     9.0705400000    26.0457900000
     -7.6528400000    12.6595200000    18.6559800000
    -12.4089300000     5.5651500000    20.5741200000
     -7.1580100000     3.2198500000    26.1679800000
     -8.9496400000    19.1890600000    13.0837000000
     -5.8355500000     6.9112800000    26.1120400000
    -16.4937400000     9.4848900000    26.0702500000
     -2.3478000000     8.1618800000    14.3258600000
    -13.4946400000    14.2622500000    24.9788400000
    -15.2474200000    15.4259100000    14.1141300000
    -18.5288300000     8.8407600000    24.8173000000
     -3.8430600000     7.7964000000    24.8318000000
    -13.9582400000    15.9061200000    14.1632600000
     -7.0053000000     1.0245200000    24.9809100000
     -2.3261100000     6.7607700000    14.4074700000
     -8.1729582674    11.8361363333    19.7715025813
     -9.2442182018    10.1450270416    21.7167249190
     -4.8794030983    16.6460807643    18.2624800377
    -13.0741614479     4.5747804780    19.6987091290
     -9.4230283983    12.1272040264    20.3469275033
     -7.9454022178     9.9206390261    21.2426257304
     -5.6346923706    17.6464305146    18.8837636642
    -18.8382103349    18.1674424557    19.0351194730
     -3.4836461077    16.6288045766    18.3738688790
      1.5256354485     4.0384179405    19.6609858866
     -7.4084551411    10.7668554532    20.2734295233
     -9.9661196896    11.2701330933    21.3055241681
    -10.6911803355    11.5462665628    26.1293354855
     -9.9543614864    10.8125393393    25.2524063231
     -6.9842304062    10.0555189361    25.0061164399
     -6.2663631085    18.7759158138    15.5568652805
     -4.9884012526    17.0855101060    14.2207901312
     -8.0874682178     9.1208554473    25.5045328668
    -10.3096751782     8.1784331144    14.2534054383
     -1.5442762434     2.3934774930    22.7825899191
     -6.5539799303     8.9767252975    15.6911058862
     -8.5873732153    10.0737510159    16.6463354461
     -7.9447962909     8.2314044826    17.7069515645
     -6.4398990309     7.6000448648    15.0472655989
     -9.0571239900     8.7385593642    18.3252962280
    -10.6994340673    10.6281501597    17.8272465425
    -12.6311754811     7.3482259469    16.7568994029
     -2.0549023120     1.6080551684    24.0125331823
     24.5530700000     3.8127400000     4.8351200000
     12.1840100000     1.9341500000     8.4893700000
     19.8217500000    -3.2741400000     8.5917000000
     16.8163200000     8.8692100000     4.7027500000
     25.4490900000     3.2084200000     5.8303100000
     11.2521100000     2.5591600000     7.5123200000
     20.7619500000    -3.8884900000     7.6445100000
     15.9265000000     9.5160100000     5.7025400000
     25.2003300000     3.2833400000     7.2367300000
     11.4685000000     2.4391800000     6.1243000000
     21.8914000000    -4.6487900000     8.0975700000
     14.8317800000    10.2889600000     5.2576100000
     16.1810000000     9.3452500000     7.0574200000
     20.5142400000    -3.7563500000     6.2605800000
     26.5827700000     2.5094400000     5.3546000000
     10.1519500000     3.2515800000     8.0110000000
     24.7648500000     0.7269900000     0.1481800000
     18.2951100000    12.5185800000     0.1731900000
     22.6142800000    -0.5758900000    13.1171700000
      9.2559500000     0.9665400000    13.0977900000
     19.4991600000     4.5555200000     5.7079800000
     14.7430700000    -2.5388500000     7.6261200000
     19.9939900000    -4.8841500000    13.2199800000
     18.2023600000    11.0850600000     0.1357000000
     21.3164500000    -1.1927200000    13.1640400000
     10.6582600000     1.3808900000    13.1222500000
     24.8042000000     0.0578800000     1.3778600000
     13.6573600000     6.1582500000    12.0308400000
     11.9045800000     7.3219100000     1.1661300000
      8.6231700000     0.7367600000    11.8693000000
     23.3089400000    -0.3076000000    11.8838000000
     13.1937600000     7.8021200000     1.2152600000
     20.1467000000    -7.0794800000    12.0329100000
     24.8258900000    -1.3432300000     1.4594700000
     18.9790417326     3.7321363333     6.8235025813
     17.9077817982     2.0410270416     8.7687249190
     22.2725969017     8.5420807643     5.3144800377
     14.0778385521    -3.5292195220     6.7507091290
     17.7289716017     4.0232040264     7.3989275033
     19.2065977822     1.8166390261     8.2946257304
     21.5173076294     9.5424305146     5.9357636642
      8.3137896651    10.0634424557     6.0871194730
     23.6683538923     8.5248045766     5.4258688790
     28.6776354485    -4.0655820595     6.7129858866
     19.7435448589     2.6628554532     7.3254295233
     17.1858803104     3.1661330933     8.3575241681
     16.4608196645     3.4422665628    13.1813354855
     17.1976385136     2.7085393393    12.3044063231
     20.1677695938     1.9515189361    12.0581164399
     20.8856368915    10.6719158138     2.6088652805
     22.1635987474     8.9815101060     1.2727901312
     19.0645317822     1.0168554473    12.5565328668
     16.8423248218     0.0744331144     1.3054054383
     25.6077237566    -5.7105225070     9.8345899191
     20.5980200697     0.8727252975     2.7431058862
     18.5646267847     1.9697510159     3.6983354461
     19.2072037091     0.1274044826     4.7589515645
     20.7121009691    -0.5039551352     2.0992655989
     18.0948760100     0.6345593642     5.3772962280
     16.4525659327     2.5241501597     4.8792465425
     14.5208245189    -0.7557740531     3.8088994029
     25.0970976880    -6.4959448316    11.0645331823
     19.9180700000    -3.2532600000    17.9301200000
      7.5490100000    -5.1318500000    21.5843700000
     15.1867500000   -10.3401400000    21.6867000000
     12.1813200000     1.8032100000    17.7977500000
     20.8140900000    -3.8575800000    18.9253100000
      6.6171100000    -4.5068400000    20.6073200000
     16.1269500000   -10.9544900000    20.7395100000
     11.2915000000     2.4500100000    18.7975400000
     20.5653300000    -3.7826600000    20.3317300000
      6.8335000000    -4.6268200000    19.2193000000
     17.2564000000   -11.7147900000    21.1925700000
     10.1967800000     3.2229600000    18.3526100000
     11.5460000000     2.2792500000    20.1524200000
     15.8792400000   -10.8223500000    19.3555800000
     21.9477700000    -4.5565600000    18.4496000000
      5.5169500000    -3.8144200000    21.1060000000
     20.1298500000    -6.3390100000    13.2431800000
     13.6601100000     5.4525800000    13.2681900000
     17.9792800000    -7.6418900000    26.2121700000
      4.6209500000    -6.0994600000    26.1927900000
     14.8641600000    -2.5104800000    18.8029800000
     10.1080700000    -9.6048500000    20.7211200000
     15.3589900000   -11.9501500000    26.3149800000
     13.5673600000     4.0190600000    13.2307000000
     16.6814500000    -8.2587200000    26.2590400000
      6.0232600000    -5.6851100000    26.2172500000
     20.1692000000    -7.0081200000    14.4728600000
      9.0223600000    -0.9077500000    25.1258400000
      7.2695800000     0.2559100000    14.2611300000
      3.9881700000    -6.3292400000    24.9643000000
     18.6739400000    -7.3736000000    24.9788000000
      8.5587600000     0.7361200000    14.3102600000
     15.5117000000   -14.1454800000    25.1279100000
     20.1908900000    -8.4092300000    14.5544700000
     14.3440417326    -3.3338636667    19.9185025813
     13.2727817982    -5.0249729584    21.8637249190
     17.6375969017     1.4760807643    18.4094800377
      9.4428385521   -10.5952195220    19.8457091290
     13.0939716017    -3.0427959736    20.4939275033
     14.5715977822    -5.2493609739    21.3896257304
     16.8823076294     2.4764305146    19.0307636642
      3.6787896651     2.9974424557    19.1821194730
     19.0333538923     1.4588045766    18.5208688790
     24.0426354485   -11.1315820595    19.8079858866
     15.1085448589    -4.4031445468    20.4204295233
     12.5508803104    -3.8998669067    21.4525241681
     11.8258196645    -3.6237334372    26.2763354855
     12.5626385136    -4.3574606607    25.3994063231
     15.5327695938    -5.1144810639    25.1531164399
     16.2506368915     3.6059158138    15.7038652805
     17.5285987474     1.9155101060    14.3677901312
     14.4295317822    -6.0491445527    25.6515328668
     12.2073248218    -6.9915668856    14.4004054383
     20.9727237566   -12.7765225070    22.9295899191
     15.9630200697    -6.1932747025    15.8381058862
     13.9296267847    -5.0962489841    16.7933354461
     14.5722037091    -6.9385955174    17.8539515645
     16.0771009691    -7.5699551352    15.1942655989
     13.4598760100    -6.4314406358    18.4722962280
     11.8175659327    -4.5418498403    17.9742465425
      9.8858245189    -7.8217740531    16.9038994029
     20.4620976880   -13.5619448316    24.1595331823
     18.0360700000    18.4257400000     4.7781200000
      5.6670100000    16.5471500000     8.4323700000
     13.3047500000    11.3388600000     8.5347000000
     10.2993200000    23.4822100000     4.6457500000
     18.9320900000    17.8214200000     5.7733100000
      4.7351100000    17.1721600000     7.4553200000
     14.2449500000    10.7245100000     7.5875100000
      9.4095000000    24.1290100000     5.6455400000
     18.6833300000    17.8963400000     7.1797300000
      4.9515000000    17.0521800000     6.0673000000
     15.3744000000     9.9642100000     8.0405700000
      8.3147800000    24.9019600000     5.2006100000
      9.6640000000    23.9582500000     7.0004200000
     13.9972400000    10.8566500000     6.2035800000
     20.0657700000    17.1224400000     5.2976000000
      3.6349500000    17.8645800000     7.9540000000
     18.2478500000    15.3399900000     0.0911800000
     11.7781100000    27.1315800000     0.1161900000
     16.0972800000    14.0371100000    13.0601700000
      2.7389500000    15.5795400000    13.0407900000
     12.9821600000    19.1685200000     5.6509800000
      8.2260700000    12.0741500000     7.5691200000
     13.4769900000     9.7288500000    13.1629800000
     11.6853600000    25.6980600000     0.0787000000
     14.7994500000    13.4202800000    13.1070400000
      4.1412600000    15.9938900000    13.0652500000
     18.2872000000    14.6708800000     1.3208600000
      7.1403600000    20.7712500000    11.9738400000
      5.3875800000    21.9349100000     1.1091300000
      2.1061700000    15.3497600000    11.8123000000
     16.7919400000    14.3054000000    11.8268000000
      6.6767600000    22.4151200000     1.1582600000
     13.6297000000     7.5335200000    11.9759100000
     18.3088900000    13.2697700000     1.4024700000
     12.4620417326    18.3451363333     6.7665025813
     11.3907817982    16.6540270416     8.7117249190
     15.7555969017    23.1550807643     5.2574800377
      7.5608385521    11.0837804780     6.6937091290
     11.2119716017    18.6362040264     7.3419275033
     12.6895977822    16.4296390261     8.2376257304
     15.0003076294    24.1554305146     5.8787636642
      1.7967896651    24.6764424557     6.0301194730
     17.1513538923    23.1378045766     5.3688688790
     22.1606354485    10.5474179405     6.6559858866
     13.2265448589    17.2758554532     7.2684295233
     10.6688803104    17.7791330933     8.3005241681
      9.9438196645    18.0552665628    13.1243354855
     10.6806385136    17.3215393393    12.2474063231
     13.6507695938    16.5645189361    12.0011164399
     14.3686368915    25.2849158138     2.5518652805
     15.6465987474    23.5945101060     1.2157901312
     12.5475317822    15.6298554473    12.4995328668
     10.3253248218    14.6874331144     1.2484054383
     19.0907237566     8.9024774930     9.7775899191
     14.0810200697    15.4857252975     2.6861058862
     12.0476267847    16.5827510159     3.6413354461
     12.6902037091    14.7404044826     4.7019515645
     14.1951009691    14.1090448648     2.0422655989
     11.5778760100    15.2475593642     5.3202962280
      9.9355659327    17.1371501597     4.8222465425
      8.0038245189    13.8572259469     3.7518994029
     18.5800976880     8.1170551684    11.0075331823
     13.4010700000    11.3597400000    17.8731200000
      1.0320100000     9.4811500000    21.5273700000
      8.6697500000     4.2728600000    21.6297000000
      5.6643200000    16.4162100000    17.7407500000
     14.2970900000    10.7554200000    18.8683100000
      0.1001100000    10.1061600000    20.5503200000
      9.6099500000     3.6585100000    20.6825100000
      4.7745000000    17.0630100000    18.7405400000
     14.0483300000    10.8303400000    20.2747300000
      0.3165000000     9.9861800000    19.1623000000
     10.7394000000     2.8982100000    21.1355700000
      3.6797800000    17.8359600000    18.2956100000
      5.0290000000    16.8922500000    20.0954200000
      9.3622400000     3.7906500000    19.2985800000
     15.4307700000    10.0564400000    18.3926000000
     -1.0000500000    10.7985800000    21.0490000000
     13.6128500000     8.2739900000    13.1861800000
      7.1431100000    20.0655800000    13.2111900000
     11.4622800000     6.9711100000    26.1551700000
     -1.8960500000     8.5135400000    26.1357900000
      8.3471600000    12.1025200000    18.7459800000
      3.5910700000     5.0081500000    20.6641200000
      8.8419900000     2.6628500000    26.2579800000
      7.0503600000    18.6320600000    13.1737000000
     10.1644500000     6.3542800000    26.2020400000
     -0.4937400000     8.9278900000    26.1602500000
     13.6522000000     7.6048800000    14.4158600000
      2.5053600000    13.7052500000    25.0688400000
      0.7525800000    14.8689100000    14.2041300000
     -2.5288300000     8.2837600000    24.9073000000
     12.1569400000     7.2394000000    24.9218000000
      2.0417600000    15.3491200000    14.2532600000
      8.9947000000     0.4675200000    25.0709100000
     13.6738900000     6.2037700000    14.4974700000
      7.8270417326    11.2791363333    19.8615025813
      6.7557817982     9.5880270416    21.8067249190
     11.1205969017    16.0890807643    18.3524800377
      2.9258385521     4.0177804780    19.7887091290
      6.5769716017    11.5702040264    20.4369275033
      8.0545977822     9.3636390261    21.3326257304
     10.3653076294    17.0894305146    18.9737636642
     -2.8382103349    17.6104424557    19.1251194730
     12.5163538923    16.0718045766    18.4638688790
     17.5256354485     3.4814179405    19.7509858866
      8.5915448589    10.2098554532    20.3634295233
      6.0338803104    10.7131330933    21.3955241681
      5.3088196645    10.9892665628    26.2193354855
      6.0456385136    10.2555393393    25.3424063231
      9.0157695938     9.4985189361    25.0961164399
      9.7336368915    18.2189158138    15.6468652805
     11.0115987474    16.5285101060    14.3107901312
      7.9125317822     8.5638554473    25.5945328668
      5.6903248218     7.6214331144    14.3434054383
     14.4557237566     1.8364774930    22.8725899191
      9.4460200697     8.4197252975    15.7811058862
      7.4126267847     9.5167510159    16.7363354461
      8.0552037091     7.6744044826    17.7969515645
      9.5601009691     7.0430448648    15.1372655989
      6.9428760100     8.1815593642    18.4152962280
      5.3005659327    10.0711501597    17.9172465425
      3.3688245189     6.7912259469    16.8468994029
     13.9450976880     1.0510551684    24.1025331823
      8.8809500000    -1.3850600000     2.6076300000
      6.7299000000     0.0665500000    10.5548300000
      8.1194500000     4.4865800000     7.6780200000
      6.2224100000    -4.2500400000     9.3249700000
      5.3120842911    10.5765978011     1.2733158013
      1.9706652286     2.4002740527    12.9854913828
      2.1713912491     7.2429635419    12.7748253784
      3.4849473625     1.5500162933     3.6255157874
      1.6851020405     2.3029835819     4.6074694957
     -0.1478051265     0.5552165561     0.2932121411
      4.2459500000    -8.4510600000    15.7026300000
      2.0949000000    -6.9994500000    23.6498300000
      3.4844500000    -2.5794200000    20.7730200000
      1.5874100000   -11.3160400000    22.4199700000
      0.6770842911     3.5105978011    14.3683158013
     -2.6643347714    -4.6657259473    26.0804913828
     -2.4636087509     0.1769635419    25.8698253784
     -1.1500526375    -5.5159837067    16.7205157874
     -2.9498979595    -4.7630164181    17.7024694957
     -4.7828051265    -6.5107834439    13.3882121411
      2.3639500000    13.2279400000     2.5506300000
      0.2129000000    14.6795500000    10.4978300000
      1.6024500000    19.0995800000     7.6210200000
     -0.2945900000    10.3629600000     9.2679700000
     -1.2049157089    25.1895978011     1.2163158013
     -4.5463347714    17.0132740527    12.9284913828
     -4.3456087509    21.8559635419    12.7178253784
     -3.0320526375    16.1630162933     3.5685157874
     -4.8318979595    16.9159835819     4.5504694957
     -6.6648051265    15.1682165561     0.2362121411
     -2.2710500000     6.1619400000    15.6456300000
     -4.4221000000     7.6135500000    23.5928300000
     -3.0325500000    12.0335800000    20.7160200000
     -4.9295900000     3.2969600000    22.3629700000
     -5.8399157089    18.1235978011    14.3113158013
     -9.1813347714     9.9472740527    26.0234913828
     -8.9806087509    14.7899635419    25.8128253784
     -7.6670526375     9.0970162933    16.6635157874
     -9.4668979595     9.8499835819    17.6454694957
    -11.2998051265     8.1022165561    13.3312121411
     24.8809500000    -1.9420600000     2.6976300000
     22.7299000000    -0.4904500000    10.6448300000
     24.1194500000     3.9295800000     7.7680200000
     22.2224100000    -4.8070400000     9.4149700000
     21.3120842911    10.0195978011     1.3633158013
     17.9706652286     1.8432740527    13.0754913828
     18.1713912491     6.6859635419    12.8648253784
     19.4849473625     0.9930162933     3.7155157874
     17.6851020405     1.7459835819     4.6974694957
     15.8521948735    -0.0017834439     0.3832121411
     20.2459500000    -9.0080600000    15.7926300000
     18.0949000000    -7.5564500000    23.7398300000
     19.4844500000    -3.1364200000    20.8630200000
     17.5874100000   -11.8730400000    22.5099700000
     16.6770842911     2.9535978011    14.4583158013
     13.3356652286    -5.2227259473    26.1704913828
     13.5363912491    -0.3800364581    25.9598253784
     14.8499473625    -6.0729837067    16.8105157874
     13.0501020405    -5.3200164181    17.7924694957
     11.2171948735    -7.0677834439    13.4782121411
     18.3639500000    12.6709400000     2.6406300000
     16.2129000000    14.1225500000    10.5878300000
     17.6024500000    18.5425800000     7.7110200000
     15.7054100000     9.8059600000     9.3579700000
     14.7950842911    24.6325978011     1.3063158013
     11.4536652286    16.4562740527    13.0184913828
     11.6543912491    21.2989635419    12.8078253784
     12.9679473625    15.6060162933     3.6585157874
     11.1681020405    16.3589835819     4.6404694957
      9.3351948735    14.6112165561     0.3262121411
     13.7289500000     5.6049400000    15.7356300000
     11.5779000000     7.0565500000    23.6828300000
     12.9674500000    11.4765800000    20.8060200000
     11.0704100000     2.7399600000    22.4529700000
     10.1600842911    17.5665978011    14.4013158013
      6.8186652286     9.3902740527    26.1134913828
      7.0193912491    14.2329635419    25.9028253784
      8.3329473625     8.5400162933    16.7535157874
      6.5331020405     9.2929835819    17.7354694957
      4.7001948735     7.5452165561    13.4212121411
      7.3767500000     4.7748300000     5.1109100000
     -3.0470000000     1.5402800000     8.0010800000
      4.2032100000    -2.5926600000     9.7228000000
      0.7504500000     9.8558800000     3.4131500000
      1.5867800000     8.4689900000     4.9992000000
      2.6513300000    -2.3487000000     8.0961800000
      8.9649500000     4.4504900000     3.5333700000
     -3.8580000000     2.9274000000     9.5990800000
      6.2924400000     4.1956200000     2.5343600000
     -1.3537800000     2.0542300000    10.0994400000
      7.2312300000     6.4829100000     2.9843400000
     -3.1059600000     0.3295500000    10.5921100000
      1.5005500000    -2.8784000000    10.6868300000
      3.2689900000     9.0170100000     2.9149100000
      2.4545000000    -0.6169100000    10.2226600000
      1.5627600000     7.2599000000     2.3974800000
      4.7202800000     4.9326500000     5.2637300000
     -1.9146000000    -0.9469100000     7.9143400000
      3.8717700000    -3.7326400000    11.9888900000
      2.1192500000    10.9406300000     1.1408900000
      4.6739200000    -0.9444600000    11.9837600000
     -0.1166800000     9.1049000000     1.0808200000
     -0.0951100000    -2.2764000000     7.9939300000
      2.7573200000     6.0334100000     5.1246400000
      9.4121100000     6.1301000000     1.1270200000
     -4.7422200000     2.1697100000    11.9148400000
      8.6165500000     3.3757800000     1.1564300000
     -2.4740300000     3.9520500000    11.9961100000
      4.4842300000     6.5870700000     3.0354300000
     -0.2177100000    -0.4167400000    10.0164500000
      6.9383400000     5.3619500000     0.1026300000
     -2.2643100000     1.3980000000    13.0308900000
     14.1787767193    -0.1311102624     2.7602059770
     -6.3112858856    12.5386034648     1.1620669766
      1.1675263022     6.3113338685    10.4856657366
      3.1727741821     6.0981510609     9.0513475264
     -4.6193059331    -3.9481022052    12.7718606567
      1.8812412728    -1.4402125496     3.0226390913
     -3.6361427356    -5.7559970257    11.1998649677
     -3.9018467378    13.2430573861     0.5649621415
      2.7417500000    -2.2911700000    18.2059100000
     -7.6820000000    -5.5257200000    21.0960800000
     -0.4317900000    -9.6586600000    22.8178000000
     -3.8845500000     2.7898800000    16.5081500000
     -3.0482200000     1.4029900000    18.0942000000
     -1.9836700000    -9.4147000000    21.1911800000
      4.3299500000    -2.6155100000    16.6283700000
     -8.4930000000    -4.1386000000    22.6940800000
      1.6574400000    -2.8703800000    15.6293600000
     -5.9887800000    -5.0117700000    23.1944400000
      2.5962300000    -0.5830900000    16.0793400000
     -7.7409600000    -6.7364500000    23.6871100000
     -3.1344500000    -9.9444000000    23.7818300000
     -1.3660100000     1.9510100000    16.0099100000
     -2.1805000000    -7.6829100000    23.3176600000
     -3.0722400000     0.1939000000    15.4924800000
      0.0852800000    -2.1333500000    18.3587300000
     -6.5496000000    -8.0129100000    21.0093400000
     -0.7632300000   -10.7986400000    25.0838900000
     -2.5157500000     3.8746300000    14.2358900000
      0.0389200000    -8.0104600000    25.0787600000
     -4.7516800000     2.0389000000    14.1758200000
     -4.7301100000    -9.3424000000    21.0889300000
     -1.8776800000    -1.0325900000    18.2196400000
      4.7771100000    -0.9359000000    14.2220200000
     -9.3772200000    -4.8962900000    25.0098400000
      3.9815500000    -3.6902200000    14.2514300000
     -7.1090300000    -3.1139500000    25.0911100000
     -0.1507700000    -0.4789300000    16.1304300000
     -4.8527100000    -7.4827400000    23.1114500000
      2.3033400000    -1.7040500000    13.1976300000
     -6.8993100000    -5.6680000000    26.1258900000
      9.5437767193    -7.1971102624    15.8552059770
    -10.9462858856     5.4726034648    14.2570669766
     -3.4674736978    -0.7546661315    23.5806657366
     -1.4622258179    -0.9678489391    22.1463475264
     -9.2543059331   -11.0141022052    25.8668606567
     -2.7537587272    -8.5062125496    16.1176390913
     -8.2711427356   -12.8219970257    24.2948649677
     -8.5368467378     6.1770573861    13.6599621415
      0.8597500000    19.3878300000     5.0539100000
     -9.5640000000    16.1532800000     7.9440800000
     -2.3137900000    12.0203400000     9.6658000000
     -5.7665500000    24.4688800000     3.3561500000
     -4.9302200000    23.0819900000     4.9422000000
     -3.8656700000    12.2643000000     8.0391800000
      2.4479500000    19.0634900000     3.4763700000
    -10.3750000000    17.5404000000     9.5420800000
     -0.2245600000    18.8086200000     2.4773600000
     -7.8707800000    16.6672300000    10.0424400000
      0.7142300000    21.0959100000     2.9273400000
     -9.6229600000    14.9425500000    10.5351100000
     -5.0164500000    11.7346000000    10.6298300000
     -3.2480100000    23.6300100000     2.8579100000
     -4.0625000000    13.9960900000    10.1656600000
     -4.9542400000    21.8729000000     2.3404800000
     -1.7967200000    19.5456500000     5.2067300000
     -8.4316000000    13.6660900000     7.8573400000
     -2.6452300000    10.8803600000    11.9318900000
     -4.3977500000    25.5536300000     1.0838900000
     -1.8430800000    13.6685400000    11.9267600000
     -6.6336800000    23.7179000000     1.0238200000
     -6.6121100000    12.3366000000     7.9369300000
     -3.7596800000    20.6464100000     5.0676400000
      2.8951100000    20.7431000000     1.0700200000
    -11.2592200000    16.7827100000    11.8578400000
      2.0995500000    17.9887800000     1.0994300000
     -8.9910300000    18.5650500000    11.9391100000
     -2.0327700000    21.2000700000     2.9784300000
     -6.7347100000    14.1962600000     9.9594500000
      0.4213400000    19.9749500000     0.0456300000
     -8.7813100000    16.0110000000    12.9738900000
      7.6617767193    14.4818897376     2.7032059770
    -12.8282858856    27.1516034648     1.1050669766
     -5.3494736978    20.9243338685    10.4286657366
     -3.3442258179    20.7111510609     8.9943475264
    -11.1363059331    10.6648977948    12.7148606567
     -4.6357587272    13.1727874504     2.9656390913
    -10.1531427356     8.8570029743    11.1428649677
    -10.4188467378    27.8560573861     0.5079621415
     -3.7752500000    12.3218300000    18.1489100000
    -14.1990000000     9.0872800000    21.0390800000
     -6.9487900000     4.9543400000    22.7608000000
    -10.4015500000    17.4028800000    16.4511500000
     -9.5652200000    16.0159900000    18.0372000000
     -8.5006700000     5.1983000000    21.1341800000
     -2.1870500000    11.9974900000    16.5713700000
    -15.0100000000    10.4744000000    22.6370800000
     -4.8595600000    11.7426200000    15.5723600000
    -12.5057800000     9.6012300000    23.1374400000
     -3.9207700000    14.0299100000    16.0223400000
    -14.2579600000     7.8765500000    23.6301100000
     -9.6514500000     4.6686000000    23.7248300000
     -7.8830100000    16.5640100000    15.9529100000
     -8.6975000000     6.9300900000    23.2606600000
     -9.5892400000    14.8069000000    15.4354800000
     -6.4317200000    12.4796500000    18.3017300000
    -13.0666000000     6.6000900000    20.9523400000
     -7.2802300000     3.8143600000    25.0268900000
     -9.0327500000    18.4876300000    14.1788900000
     -6.4780800000     6.6025400000    25.0217600000
    -11.2686800000    16.6519000000    14.1188200000
    -11.2471100000     5.2706000000    21.0319300000
     -8.3946800000    13.5804100000    18.1626400000
     -1.7398900000    13.6771000000    14.1650200000
    -15.8942200000     9.7167100000    24.9528400000
     -2.5354500000    10.9227800000    14.1944300000
    -13.6260300000    11.4990500000    25.0341100000
     -6.6677700000    14.1340700000    16.0734300000
    -11.3697100000     7.1302600000    23.0544500000
     -4.2136600000    12.9089500000    13.1406300000
    -13.4163100000     8.9450000000    26.0688900000
      3.0267767193     7.4158897376    15.7982059770
    -17.4632858856    20.0856034648    14.2000669766
     -9.9844736978    13.8583338685    23.5236657366
     -7.9792258179    13.6451510609    22.0893475264
    -15.7713059331     3.5988977948    25.8098606567
     -9.2707587272     6.1067874504    16.0606390913
    -14.7881427356     1.7910029743    24.2378649677
    -15.0538467378    20.7900573861    13.6029621415
     23.3767500000     4.2178300000     5.2009100000
     12.9530000000     0.9832800000     8.0910800000
     20.2032100000    -3.1496600000     9.8128000000
     16.7504500000     9.2988800000     3.5031500000
     17.5867800000     7.9119900000     5.0892000000
     18.6513300000    -2.9057000000     8.1861800000
     24.9649500000     3.8934900000     3.6233700000
     12.1420000000     2.3704000000     9.6890800000
     22.2924400000     3.6386200000     2.6243600000
     14.6462200000     1.4972300000    10.1894400000
     23.2312300000     5.9259100000     3.0743400000
     12.8940400000    -0.2274500000    10.6821100000
     17.5005500000    -3.4354000000    10.7768300000
     19.2689900000     8.4600100000     3.0049100000
     18.4545000000    -1.1739100000    10.3126600000
     17.5627600000     6.7029000000     2.4874800000
     20.7202800000     4.3756500000     5.3537300000
     14.0854000000    -1.5039100000     8.0043400000
     19.8717700000    -4.2896400000    12.0788900000
     18.1192500000    10.3836300000     1.2308900000
     20.6739200000    -1.5014600000    12.0737600000
     15.8833200000     8.5479000000     1.1708200000
     15.9048900000    -2.8334000000     8.0839300000
     18.7573200000     5.4764100000     5.2146400000
     25.4121100000     5.5731000000     1.2170200000
     11.2577800000     1.6127100000    12.0048400000
     24.6165500000     2.8187800000     1.2464300000
     13.5259700000     3.3950500000    12.0861100000
     20.4842300000     6.0300700000     3.1254300000
     15.7822900000    -0.9737400000    10.1064500000
     22.9383400000     4.8049500000     0.1926300000
     13.7356900000     0.8410000000    13.1208900000
     30.1787767193    -0.6881102624     2.8502059770
      9.6887141144    11.9816034648     1.2520669766
     17.1675263022     5.7543338685    10.5756657366
     19.1727741821     5.5411510609     9.1413475264
     11.3806940669    -4.5051022052    12.8618606567
     17.8812412728    -1.9972125496     3.1126390913
     12.3638572644    -6.3129970257    11.2898649677
     12.0981532622    12.6860573861     0.6549621415
     18.7417500000    -2.8481700000    18.2959100000
      8.3180000000    -6.0827200000    21.1860800000
     15.5682100000   -10.2156600000    22.9078000000
     12.1154500000     2.2328800000    16.5981500000
     12.9517800000     0.8459900000    18.1842000000
     14.0163300000    -9.9717000000    21.2811800000
     20.3299500000    -3.1725100000    16.7183700000
      7.5070000000    -4.6956000000    22.7840800000
     17.6574400000    -3.4273800000    15.7193600000
     10.0112200000    -5.5687700000    23.2844400000
     18.5962300000    -1.1400900000    16.1693400000
      8.2590400000    -7.2934500000    23.7771100000
     12.8655500000   -10.5014000000    23.8718300000
     14.6339900000     1.3940100000    16.0999100000
     13.8195000000    -8.2399100000    23.4076600000
     12.9277600000    -0.3631000000    15.5824800000
     16.0852800000    -2.6903500000    18.4487300000
      9.4504000000    -8.5699100000    21.0993400000
     15.2367700000   -11.3556400000    25.1738900000
     13.4842500000     3.3176300000    14.3258900000
     16.0389200000    -8.5674600000    25.1687600000
     11.2483200000     1.4819000000    14.2658200000
     11.2698900000    -9.8994000000    21.1789300000
     14.1223200000    -1.5895900000    18.3096400000
     20.7771100000    -1.4929000000    14.3120200000
      6.6227800000    -5.4532900000    25.0998400000
     19.9815500000    -4.2472200000    14.3414300000
      8.8909700000    -3.6709500000    25.1811100000
     15.8492300000    -1.0359300000    16.2204300000
     11.1472900000    -8.0397400000    23.2014500000
     18.3033400000    -2.2610500000    13.2876300000
      9.1006900000    -6.2250000000    26.2158900000
     25.5437767193    -7.7541102624    15.9452059770
      5.0537141144     4.9156034648    14.3470669766
     12.5325263022    -1.3116661315    23.6706657366
     14.5377741821    -1.5248489391    22.2363475264
      6.7456940669   -11.5711022052    25.9568606567
     13.2462412728    -9.0632125496    16.2076390913
      7.7288572644   -13.3789970257    24.3848649677
      7.4631532622     5.6200573861    13.7499621415
     16.8597500000    18.8308300000     5.1439100000
      6.4360000000    15.5962800000     8.0340800000
     13.6862100000    11.4633400000     9.7558000000
     10.2334500000    23.9118800000     3.4461500000
     11.0697800000    22.5249900000     5.0322000000
     12.1343300000    11.7073000000     8.1291800000
     18.4479500000    18.5064900000     3.5663700000
      5.6250000000    16.9834000000     9.6320800000
     15.7754400000    18.2516200000     2.5673600000
      8.1292200000    16.1102300000    10.1324400000
     16.7142300000    20.5389100000     3.0173400000
      6.3770400000    14.3855500000    10.6251100000
     10.9835500000    11.1776000000    10.7198300000
     12.7519900000    23.0730100000     2.9479100000
     11.9375000000    13.4390900000    10.2556600000
     11.0457600000    21.3159000000     2.4304800000
     14.2032800000    18.9886500000     5.2967300000
      7.5684000000    13.1090900000     7.9473400000
     13.3547700000    10.3233600000    12.0218900000
     11.6022500000    24.9966300000     1.1738900000
     14.1569200000    13.1115400000    12.0167600000
      9.3663200000    23.1609000000     1.1138200000
      9.3878900000    11.7796000000     8.0269300000
     12.2403200000    20.0894100000     5.1576400000
     18.8951100000    20.1861000000     1.1600200000
      4.7407800000    16.2257100000    11.9478400000
     18.0995500000    17.4317800000     1.1894300000
      7.0089700000    18.0080500000    12.0291100000
     13.9672300000    20.6430700000     3.0684300000
      9.2652900000    13.6392600000    10.0494500000
     16.4213400000    19.4179500000     0.1356300000
      7.2186900000    15.4540000000    13.0638900000
     23.6617767193    13.9248897376     2.7932059770
      3.1717141144    26.5946034648     1.1950669766
     10.6505263022    20.3673338685    10.5186657366
     12.6557741821    20.1541510609     9.0843475264
      4.8636940669    10.1078977948    12.8048606567
     11.3642412728    12.6157874504     3.0556390913
      5.8468572644     8.3000029743    11.2328649677
      5.5811532622    27.2990573861     0.5979621415
     12.2247500000    11.7648300000    18.2389100000
      1.8010000000     8.5302800000    21.1290800000
      9.0512100000     4.3973400000    22.8508000000
      5.5984500000    16.8458800000    16.5411500000
      6.4347800000    15.4589900000    18.1272000000
      7.4993300000     4.6413000000    21.2241800000
     13.8129500000    11.4404900000    16.6613700000
      0.9900000000     9.9174000000    22.7270800000
     11.1404400000    11.1856200000    15.6623600000
      3.4942200000     9.0442300000    23.2274400000
     12.0792300000    13.4729100000    16.1123400000
      1.7420400000     7.3195500000    23.7201100000
      6.3485500000     4.1116000000    23.8148300000
      8.1169900000    16.0070100000    16.0429100000
      7.3025000000     6.3730900000    23.3506600000
      6.4107600000    14.2499000000    15.5254800000
      9.5682800000    11.9226500000    18.3917300000
      2.9334000000     6.0430900000    21.0423400000
      8.7197700000     3.2573600000    25.1168900000
      6.9672500000    17.9306300000    14.2688900000
      9.5219200000     6.0455400000    25.1117600000
      4.7313200000    16.0949000000    14.2088200000
      4.7528900000     4.7136000000    21.1219300000
      7.6053200000    13.0234100000    18.2526400000
     14.2601100000    13.1201000000    14.2550200000
      0.1057800000     9.1597100000    25.0428400000
     13.4645500000    10.3657800000    14.2844300000
      2.3739700000    10.9420500000    25.1241100000
      9.3322300000    13.5770700000    16.1634300000
      4.6302900000     6.5732600000    23.1444500000
     11.7863400000    12.3519500000    13.2306300000
      2.5836900000     8.3880000000    26.1588900000
     19.0267767193     6.8588897376    15.8882059770
     -1.4632858856    19.5286034648    14.2900669766
      6.0155263022    13.3013338685    23.6136657366
      8.0207741821    13.0881510609    22.1793475264
      0.2286940669     3.0418977948    25.8998606567
      6.7292412728     5.5497874504    16.1506390913
      1.2118572644     1.2340029743    24.3278649677
      0.9461532622    20.2330573861    13.6929621415
      0.5787043608     1.4741364536     2.2931719636
      9.4347193359    -2.9646148102    11.6750036664
      2.0216110080     1.1965767638     0.7249929343
     -0.2624791878     0.2297250635     4.3251079841
      8.9918274345    -4.0114280165     9.6468992613
      2.8361353677     8.8755031251     8.2694134842
     -2.4121953889    -0.0299706559     4.7488352555
      7.8713523098    -5.4450844497    11.3392638881
      6.7847838690    12.4774518884     1.3772262727
     -1.3270268535    -1.5878986093     3.6771512311
     11.0073244353    -5.0783328270     9.5539823156
      3.5770190440     5.6591139300    11.2016367213
     -4.0562956392    -5.5918635464    15.3881719636
      4.7997193359   -10.0306148102    24.7700036664
     -2.6133889920    -5.8694232362    13.8199929343
     -4.8974791878    -6.8362749365    17.4201079841
      4.3568274345   -11.0774280165    22.7418992613
     -1.7988646323     1.8095031251    21.3644134842
     -7.0471953889    -7.0959706559    17.8438352555
      3.2363523098   -12.5110844497    24.4342638881
      2.1497838690     5.4114518884    14.4722262727
     -5.9620268535    -8.6538986093    16.7721512311
      6.3723244353   -12.1443328270    22.6489823156
     -1.0579809560    -1.4068860700    24.2966367213
     -5.9382956392    16.0871364536     2.2361719636
      2.9177193359    11.6483851898    11.6180036664
     -4.4953889920    15.8095767638     0.6679929343
     -6.7794791878    14.8427250635     4.2681079841
      2.4748274345    10.6015719835     9.5898992613
     -3.6808646323    23.4885031251     8.2124134842
     -8.9291953889    14.5830293441     4.6918352555
      1.3543523098     9.1679155503    11.2822638881
      0.2677838690    27.0904518884     1.3202262727
     -7.8440268535    13.0251013907     3.6201512311
      4.4903244353     9.5346671730     9.4969823156
     -2.9399809560    20.2721139300    11.1446367213
    -10.5732956392     9.0211364536    15.3311719636
     -1.7172806641     4.5823851898    24.7130036664
     -9.1303889920     8.7435767638    13.7629929343
    -11.4144791878     7.7767250635    17.3631079841
     -2.1601725655     3.5355719835    22.6848992613
     -8.3158646323    16.4225031251    21.3074134842
    -13.5641953889     7.5170293441    17.7868352555
     -3.2806476902     2.1019155503    24.3772638881
     -4.3672161310    20.0244518884    14.4152262727
    -12.4790268535     5.9591013907    16.7151512311
     -0.1446755647     2.4686671730    22.5919823156
     -7.5749809560    13.2061139300    24.2396367213
     16.5787043608     0.9171364536     2.3831719636
     25.4347193359    -3.5216148102    11.7650036664
     18.0216110080     0.6395767638     0.8149929343
     15.7375208122    -0.3272749365     4.4151079841
     24.9918274345    -4.5684280165     9.7368992613
     18.8361353677     8.3185031251     8.3594134842
     13.5878046111    -0.5869706559     4.8388352555
     23.8713523098    -6.0020844497    11.4292638881
     22.7847838690    11.9204518884     1.4672262727
     14.6729731465    -2.1448986093     3.7671512311
     27.0073244353    -5.6353328270     9.6439823156
     19.5770190440     5.1021139300    11.2916367213
     11.9437043608    -6.1488635464    15.4781719636
     20.7997193359   -10.5876148102    24.8600036664
     13.3866110080    -6.4264232362    13.9099929343
     11.1025208122    -7.3932749365    17.5101079841
     20.3568274345   -11.6344280165    22.8318992613
     14.2011353677     1.2525031251    21.4544134842
      8.9528046111    -7.6529706559    17.9338352555
     19.2363523098   -13.0680844497    24.5242638881
     18.1497838690     4.8544518884    14.5622262727
     10.0379731465    -9.2108986093    16.8621512311
     22.3723244353   -12.7013328270    22.7389823156
     14.9420190440    -1.9638860700    24.3866367213
     10.0617043608    15.5301364536     2.3261719636
     18.9177193359    11.0913851898    11.7080036664
     11.5046110080    15.2525767638     0.7579929343
      9.2205208122    14.2857250635     4.3581079841
     18.4748274345    10.0445719835     9.6798992613
     12.3191353677    22.9315031251     8.3024134842
      7.0708046111    14.0260293441     4.7818352555
     17.3543523098     8.6109155503    11.3722638881
     16.2677838690    26.5334518884     1.4102262727
      8.1559731465    12.4681013907     3.7101512311
     20.4903244353     8.9776671730     9.5869823156
     13.0600190440    19.7151139300    11.2346367213
      5.4267043608     8.4641364536    15.4211719636
     14.2827193359     4.0253851898    24.8030036664
      6.8696110080     8.1865767638    13.8529929343
      4.5855208122     7.2197250635    17.4531079841
     13.8398274345     2.9785719835    22.7748992613
      7.6841353677    15.8655031251    21.3974134842
      2.4358046111     6.9600293441    17.8768352555
     12.7193523098     1.5449155503    24.4672638881
     11.6327838690    19.4674518884    14.5052262727
      3.5209731465     5.4021013907    16.8051512311
     15.8553244353     1.9116671730    22.6819823156
      8.4250190440    12.6491139300    24.3296367213
      7.7242185833    13.7254606887     0.6643166035
      2.5680237074     6.6170642232    10.2860793447
     -4.6976099478    -5.2462175308    12.0919072181
     -5.0137612464    13.2627241661     1.5340615893
      3.0892185833     6.6594606887    13.7593166035
     -2.0669762926    -0.4489357768    23.3810793447
     -9.3326099478   -12.3122175308    25.1869072181
     -9.6487612464     6.1967241661    14.6290615893
      1.2072185833    28.3384606887     0.6073166035
     -3.9489762926    21.2300642232    10.2290793447
    -11.2146099478     9.3667824692    12.0349072181
    -11.5307612464    27.8757241661     1.4770615893
     -3.4277814167    21.2724606887    13.7023166035
     -8.5839762926    14.1640642232    23.3240793447
    -15.8496099478     2.3007824692    25.1299072181
    -16.1657612464    20.8097241661    14.5720615893
     23.7242185833    13.1684606887     0.7543166035
     18.5680237074     6.0600642232    10.3760793447
     11.3023900522    -5.8032175308    12.1819072181
     10.9862387536    12.7057241661     1.6240615893
     19.0892185833     6.1024606887    13.8493166035
     13.9330237074    -1.0059357768    23.4710793447
      6.6673900522   -12.8692175308    25.2769072181
      6.3512387536     5.6397241661    14.7190615893
     17.2072185833    27.7814606887     0.6973166035
     12.0510237074    20.6730642232    10.3190793447
      4.7853900522     8.8097824692    12.1249072181
      4.4692387536    27.3187241661     1.5670615893
     12.5722185833    20.7154606887    13.7923166035
      7.4160237074    13.6070642232    23.4140793447
      0.1503900522     1.7437824692    25.2199072181
     -0.1657612464    20.2527241661    14.6620615893
