frame0004
1.0
     32.0000000000    -1.1140000000     0.1800000000
    -13.0340000000    29.2260000000    -0.1140000000
     -9.2700000000   -14.1320000000    26.1900000000
  Ti  H  C  N  O  F  S
  64  448  496  80  320  96  32
Cartesian
     -2.8554400000     2.2297600000    11.2464000000
      7.9750400000     5.1109800000     1.8815900000
      1.2412500000    -1.7064400000     9.4264200000
      2.7524400000     7.4557000000     3.6533900000
      1.7538600000     9.1340100000     1.7490000000
      3.1294500000    -1.9607800000    11.3797900000
     -1.9062400000     0.4938700000     9.3549200000
      5.9872200000     5.4135300000     3.7290500000
     -7.4904400000    -4.8362400000    24.3414000000
      3.3400400000    -1.9550200000    14.9765900000
     -3.3937500000    -8.7724400000    22.5214200000
     -1.8825600000     0.3897000000    16.7483900000
     -2.8811400000     2.0680100000    14.8440000000
     -1.5055500000    -9.0267800000    24.4747900000
     -6.5412400000    -6.5721300000    22.4499200000
      1.3522200000    -1.6524700000    16.8240500000
     -9.3724400000    16.8427600000    11.1894000000
      1.4580400000    19.7239800000     1.8245900000
     -5.2757500000    12.9065600000     9.3694200000
     -3.7645600000    22.0687000000     3.5963900000
     -4.7631400000    23.7470100000     1.6920000000
     -3.3875500000    12.6522200000    11.3227900000
     -8.4232400000    15.1068700000     9.2979200000
     -0.5297800000    20.0265300000     3.6720500000
    -14.0074400000     9.7767600000    24.2844000000
     -3.1769600000    12.6579800000    14.9195900000
     -9.9107500000     5.8405600000    22.4644200000
     -8.3995600000    15.0027000000    16.6913900000
     -9.3981400000    16.6810100000    14.7870000000
     -8.0225500000     5.5862200000    24.4177900000
    -13.0582400000     8.0408700000    22.3929200000
     -5.1647800000    12.9605300000    16.7670500000
     13.1445600000     1.6727600000    11.3364000000
     23.9750400000     4.5539800000     1.9715900000
     17.2412500000    -2.2634400000     9.5164200000
     18.7524400000     6.8987000000     3.7433900000
     17.7538600000     8.5770100000     1.8390000000
     19.1294500000    -2.5177800000    11.4697900000
     14.0937600000    -0.0631300000     9.4449200000
     21.9872200000     4.8565300000     3.8190500000
      8.5095600000    -5.3932400000    24.4314000000
     19.3400400000    -2.5120200000    15.0665900000
     12.6062500000    -9.3294400000    22.6114200000
     14.1174400000    -0.1673000000    16.8383900000
     13.1188600000     1.5110100000    14.9340000000
     14.4944500000    -9.5837800000    24.5647900000
      9.4587600000    -7.1291300000    22.5399200000
     17.3522200000    -2.2094700000    16.9140500000
      6.6275600000    16.2857600000    11.2794000000
     17.4580400000    19.1669800000     1.9145900000
     10.7242500000    12.3495600000     9.4594200000
     12.2354400000    21.5117000000     3.6863900000
     11.2368600000    23.1900100000     1.7820000000
     12.6124500000    12.0952200000    11.4127900000
      7.5767600000    14.5498700000     9.3879200000
     15.4702200000    19.4695300000     3.7620500000
      1.9925600000     9.2197600000    24.3744000000
     12.8230400000    12.1009800000    15.0095900000
      6.0892500000     5.2835600000    22.5544200000
      7.6004400000    14.4457000000    16.7813900000
      6.6018600000    16.1240100000    14.8770000000
      7.9774500000     5.0292200000    24.5077900000
      2.9417600000     7.4838700000    22.4829200000
     10.8352200000    12.4035300000    16.8570500000
     -2.3535600000     6.1268500000    11.0269500000
      8.7838200000     1.2049200000     2.2022700000
     -6.8153400000     1.4731400000    10.8639500000
     11.3571900000     7.1152700000     2.0822400000
      4.1050600000    -5.9953200000    10.9938600000
     -2.3046600000     8.5441100000     2.0710500000
     -2.3866800000     0.4312000000    12.9709100000
      6.0995100000     4.8682800000     0.1816500000
      3.6393600000    -2.6278900000     5.8686900000
      1.0290000000     9.2927200000     7.2723500000
     -5.9788600000     3.8825000000     8.9990100000
     10.7297900000     3.0266500000     4.1875900000
     -3.6777500000     2.4350600000     5.6651700000
     -1.3462100000    10.9618700000     4.1022400000
      2.1461100000    12.2368400000     2.6044700000
      8.6259900000    -0.8139200000     3.4047600000
      4.8450600000     7.1358300000     2.3147600000
      0.1605500000     0.1419600000    10.7200400000
      7.3641900000    -0.0259300000     9.7694500000
      5.8830700000    -0.4949900000    10.5167800000
      7.9383100000     4.4077100000     8.6705500000
      7.3686000000     4.7662900000     7.0520000000
      6.8753800000    -4.9807600000     9.5794200000
      5.5962300000    -3.8801800000    10.0368100000
      3.7001644704     1.4615968810     8.5208338997
     -6.6049114963    10.6145274482     6.1098746935
      4.4540718907    10.2147802304     5.5814077244
      4.6976921884     3.0057717383     6.8045075378
      0.0421948989     3.7274676105     8.4313391509
     12.1304755574    -2.6509466256     7.0132364164
      1.3730387238     1.8294772721     9.2950036876
      1.0411224341     5.2685773137     6.7093028965
      5.7897666148     8.4450565163     4.4647207708
      8.2452611232     8.3506753157     4.7500115343
      0.1506813288     5.3638108608    13.0527597708
      1.5179565327     3.9110980078    11.1318587269
      4.1344390171     3.5129165766    11.1631318512
      4.7451507088    12.4622827181     2.4351132968
      4.8620047415     3.1874676168    12.7444797893
      4.4573847079    10.7624423906     3.0472268176
      5.1320608729     2.0559377025    11.3962711334
      2.7247930441     1.3863276462    11.4157668413
      5.9896836329    11.5511297030     3.2600068767
      6.9615984453     9.3343837030     1.8640916910
      3.4041748507     1.1451345575    13.0263204007
      4.9826999419     1.1602101298     2.5687799112
      3.9817248424     1.9642533718     1.3445375348
      1.6818239833     2.6330612588     1.9762283532
      4.6280376673    -0.4379509724     0.6987246939
      3.7851485416     0.3147709336     4.7802767636
     -0.4257859345     3.1672462460     4.9284948758
     -0.6125944586     2.9567733349     3.1747975375
      3.6662494950    -1.0351889313     2.0859742059
      1.3397157356     1.0745883386     5.9163708803
      2.9122886318    -0.1964791240     0.7264334259
     -0.9669679894     1.5866403762     4.2154638191
     -6.9885600000    -0.9391500000    24.1219500000
      4.1488200000    -5.8610800000    15.2972700000
    -11.4503400000    -5.5928600000    23.9589500000
      6.7221900000     0.0492700000    15.1772400000
     -0.5299400000   -13.0613200000    24.0888600000
     -6.9396600000     1.4781100000    15.1660500000
     -7.0216800000    -6.6348000000    26.0659100000
      1.4645100000    -2.1977200000    13.2766500000
     -0.9956400000    -9.6938900000    18.9636900000
     -3.6060000000     2.2267200000    20.3673500000
    -10.6138600000    -3.1835000000    22.0940100000
      6.0947900000    -4.0393500000    17.2825900000
     -8.3127500000    -4.6309400000    18.7601700000
     -5.9812100000     3.8958700000    17.1972400000
     -2.4888900000     5.1708400000    15.6994700000
      3.9909900000    -7.8799200000    16.4997600000
      0.2100600000     0.0698300000    15.4097600000
     -4.4744500000    -6.9240400000    23.8150400000
      2.7291900000    -7.0919300000    22.8644500000
      1.2480700000    -7.5609900000    23.6117800000
      3.3033100000    -2.6582900000    21.7655500000
      2.7336000000    -2.2997100000    20.1470000000
      2.2403800000   -12.0467600000    22.6744200000
      0.9612300000   -10.9461800000    23.1318100000
     -0.9348355296    -5.6044031190    21.6158338997
    -11.2399114963     3.5485274482    19.2048746935
     -0.1809281093     3.1487802304    18.6764077244
      0.0626921884    -4.0602282617    19.8995075378
     -4.5928051011    -3.3385323895    21.5263391509
      7.4954755574    -9.7169466256    20.1082364164
     -3.2619612762    -5.2365227279    22.3900036876
     -3.5938775659    -1.7974226863    19.8043028965
      1.1547666148     1.3790565163    17.5597207708
      3.6102611232     1.2846753157    17.8450115343
     -4.4843186712    -1.7021891392    26.1477597708
     -3.1170434673    -3.1549019922    24.2268587269
     -0.5005609829    -3.5530834234    24.2581318512
      0.1101507088     5.3962827181    15.5301132968
      0.2270047415    -3.8785323832    25.8394797893
     -0.1776152921     3.6964423906    16.1422268176
      0.4970608729    -5.0100622975    24.4912711334
     -1.9102069559    -5.6796723538    24.5107668413
      1.3546836329     4.4851297030    16.3550068767
      2.3265984453     2.2683837030    14.9590916910
     -1.2308251493    -5.9208654425    26.1213204007
      0.3476999419    -5.9057898702    15.6637799112
     -0.6532751576    -5.1017466282    14.4395375348
     -2.9531760167    -4.4329387412    15.0712283532
     -0.0069623327    -7.5039509724    13.7937246939
     -0.8498514584    -6.7512290664    17.8752767636
     -5.0607859345    -3.8987537540    18.0234948758
     -5.2475944586    -4.1092266651    16.2697975375
     -0.9687505050    -8.1011889313    15.1809742059
     -3.2952842644    -5.9914116614    19.0113708803
     -1.7227113682    -7.2624791240    13.8214334259
     -5.6019679894    -5.4793596238    17.3104638191
     -8.8705600000    20.7398500000    10.9699500000
      2.2668200000    15.8179200000     2.1452700000
    -13.3323400000    16.0861400000    10.8069500000
      4.8401900000    21.7282700000     2.0252400000
     -2.4119400000     8.6176800000    10.9368600000
     -8.8216600000    23.1571100000     2.0140500000
     -8.9036800000    15.0442000000    12.9139100000
     -0.4174900000    19.4812800000     0.1246500000
     -2.8776400000    11.9851100000     5.8116900000
     -5.4880000000    23.9057200000     7.2153500000
    -12.4958600000    18.4955000000     8.9420100000
      4.2127900000    17.6396500000     4.1305900000
    -10.1947500000    17.0480600000     5.6081700000
     -7.8632100000    25.5748700000     4.0452400000
     -4.3708900000    26.8498400000     2.5474700000
      2.1089900000    13.7990800000     3.3477600000
     -1.6719400000    21.7488300000     2.2577600000
     -6.3564500000    14.7549600000    10.6630400000
      0.8471900000    14.5870700000     9.7124500000
     -0.6339300000    14.1180100000    10.4597800000
      1.4213100000    19.0207100000     8.6135500000
      0.8516000000    19.3792900000     6.9950000000
      0.3583800000     9.6322400000     9.5224200000
     -0.9207700000    10.7328200000     9.9798100000
     -2.8168355296    16.0745968810     8.4638338997
    -13.1219114963    25.2275274482     6.0528746935
     -2.0629281093    24.8277802304     5.5244077244
     -1.8193078116    17.6187717383     6.7475075378
     -6.4748051011    18.3404676105     8.3743391509
      5.6134755574    11.9620533744     6.9562364164
     -5.1439612762    16.4424772721     9.2380036876
     -5.4758775659    19.8815773137     6.6523028965
     -0.7272333852    23.0580565163     4.4077207708
      1.7282611232    22.9636753157     4.6930115343
     -6.3663186712    19.9768108608    12.9957597708
     -4.9990434673    18.5240980078    11.0748587269
     -2.3825609829    18.1259165766    11.1061318512
     -1.7718492912    27.0752827181     2.3781132968
     -1.6549952585    17.8004676168    12.6874797893
     -2.0596152921    25.3754423906     2.9902268176
     -1.3849391271    16.6689377025    11.3392711334
     -3.7922069559    15.9993276462    11.3587668413
     -0.5273163671    26.1641297030     3.2030068767
      0.4445984453    23.9473837030     1.8070916910
     -3.1128251493    15.7581345575    12.9693204007
     -1.5343000581    15.7732101298     2.5117799112
     -2.5352751576    16.5772533718     1.2875375348
     -4.8351760167    17.2460612588     1.9192283532
     -1.8889623327    14.1750490276     0.6417246939
     -2.7318514584    14.9277709336     4.7232767636
     -6.9427859345    17.7802462460     4.8714948758
     -7.1295944586    17.5697733349     3.1177975375
     -2.8507505050    13.5778110687     2.0289742059
     -5.1772842644    15.6875883386     5.8593708803
     -3.6047113682    14.4165208760     0.6694334259
     -7.4839679894    16.1996403762     4.1584638191
    -13.5055600000    13.6738500000    24.0649500000
     -2.3681800000     8.7519200000    15.2402700000
    -17.9673400000     9.0201400000    23.9019500000
      0.2051900000    14.6622700000    15.1202400000
     -7.0469400000     1.5516800000    24.0318600000
    -13.4566600000    16.0911100000    15.1090500000
    -13.5386800000     7.9782000000    26.0089100000
     -5.0524900000    12.4152800000    13.2196500000
     -7.5126400000     4.9191100000    18.9066900000
    -10.1230000000    16.8397200000    20.3103500000
    -17.1308600000    11.4295000000    22.0370100000
     -0.4222100000    10.5736500000    17.2255900000
    -14.8297500000     9.9820600000    18.7031700000
    -12.4982100000    18.5088700000    17.1402400000
     -9.0058900000    19.7838400000    15.6424700000
     -2.5260100000     6.7330800000    16.4427600000
     -6.3069400000    14.6828300000    15.3527600000
    -10.9914500000     7.6889600000    23.7580400000
     -3.7878100000     7.5210700000    22.8074500000
     -5.2689300000     7.0520100000    23.5547800000
     -3.2136900000    11.9547100000    21.7085500000
     -3.7834000000    12.3132900000    20.0900000000
     -4.2766200000     2.5662400000    22.6174200000
     -5.5557700000     3.6668200000    23.0748100000
     -7.4518355296     9.0085968810    21.5588338997
    -17.7569114963    18.1615274482    19.1478746935
     -6.6979281093    17.7617802304    18.6194077244
     -6.4543078116    10.5527717383    19.8425075378
    -11.1098051011    11.2744676105    21.4693391509
      0.9784755574     4.8960533744    20.0512364164
     -9.7789612762     9.3764772721    22.3330036876
    -10.1108775659    12.8155773137    19.7473028965
     -5.3622333852    15.9920565163    17.5027207708
     -2.9067388768    15.8976753157    17.7880115343
    -11.0013186712    12.9108108608    26.0907597708
     -9.6340434673    11.4580980078    24.1698587269
     -7.0175609829    11.0599165766    24.2011318512
     -6.4068492912    20.0092827181    15.4731132968
     -6.2899952585    10.7344676168    25.7824797893
     -6.6946152921    18.3094423906    16.0852268176
     -6.0199391271     9.6029377025    24.4342711334
     -8.4272069559     8.9333276462    24.4537668413
     -5.1623163671    19.0981297030    16.2980068767
     -4.1904015547    16.8813837030    14.9020916910
     -7.7478251493     8.6921345575    26.0643204007
     -6.1693000581     8.7072101298    15.6067799112
     -7.1702751576     9.5112533718    14.3825375348
     -9.4701760167    10.1800612588    15.0142283532
     -6.5239623327     7.1090490276    13.7367246939
     -7.3668514584     7.8617709336    17.8182767636
    -11.5777859345    10.7142462460    17.9664948758
    -11.7645944586    10.5037733349    16.2127975375
     -7.4857505050     6.5118110687    15.1239742059
     -9.8122842644     8.6215883386    18.9543708803
     -8.2397113682     7.3505208760    13.7644334259
    -12.1189679894     9.1336403762    17.2534638191
     13.6464400000     5.5698500000    11.1169500000
     24.7838200000     0.6479200000     2.2922700000
      9.1846600000     0.9161400000    10.9539500000
     27.3571900000     6.5582700000     2.1722400000
     20.1050600000    -6.5523200000    11.0838600000
     13.6953400000     7.9871100000     2.1610500000
     13.6133200000    -0.1258000000    13.0609100000
     22.0995100000     4.3112800000     0.2716500000
     19.6393600000    -3.1848900000     5.9586900000
     17.0290000000     8.7357200000     7.3623500000
     10.0211400000     3.3255000000     9.0890100000
     26.7297900000     2.4696500000     4.2775900000
     12.3222500000     1.8780600000     5.7551700000
     14.6537900000    10.4048700000     4.1922400000
     18.1461100000    11.6798400000     2.6944700000
     24.6259900000    -1.3709200000     3.4947600000
     20.8450600000     6.5788300000     2.4047600000
     16.1605500000    -0.4150400000    10.8100400000
     23.3641900000    -0.5829300000     9.8594500000
     21.8830700000    -1.0519900000    10.6067800000
     23.9383100000     3.8507100000     8.7605500000
     23.3686000000     4.2092900000     7.1420000000
     22.8753800000    -5.5377600000     9.6694200000
     21.5962300000    -4.4371800000    10.1268100000
     19.7001644704     0.9045968810     8.6108338997
      9.3950885037    10.0575274482     6.1998746935
     20.4540718907     9.6577802304     5.6714077244
     20.6976921884     2.4487717383     6.8945075378
     16.0421948989     3.1704676105     8.5213391509
     28.1304755574    -3.2079466256     7.1032364164
     17.3730387238     1.2724772721     9.3850036876
     17.0411224341     4.7115773137     6.7993028965
     21.7897666148     7.8880565163     4.5547207708
     24.2452611232     7.7936753157     4.8400115343
     16.1506813288     4.8068108608    13.1427597708
     17.5179565327     3.3540980078    11.2218587269
     20.1344390171     2.9559165766    11.2531318512
     20.7451507088    11.9052827181     2.5251132968
     20.8620047415     2.6304676168    12.8344797893
     20.4573847079    10.2054423906     3.1372268176
     21.1320608729     1.4989377025    11.4862711334
     18.7247930441     0.8293276462    11.5057668413
     21.9896836329    10.9941297030     3.3500068767
     22.9615984453     8.7773837030     1.9540916910
     19.4041748507     0.5881345575    13.1163204007
     20.9826999419     0.6032101298     2.6587799112
     19.9817248424     1.4072533718     1.4345375348
     17.6818239833     2.0760612588     2.0662283532
     20.6280376673    -0.9949509724     0.7887246939
     19.7851485416    -0.2422290664     4.8702767636
     15.5742140655     2.6102462460     5.0184948758
     15.3874055414     2.3997733349     3.2647975375
     19.6662494950    -1.5921889313     2.1759742059
     17.3397157356     0.5175883386     6.0063708803
     18.9122886318    -0.7534791240     0.8164334259
     15.0330320106     1.0296403762     4.3054638191
      9.0114400000    -1.4961500000    24.2119500000
     20.1488200000    -6.4180800000    15.3872700000
      4.5496600000    -6.1498600000    24.0489500000
     22.7221900000    -0.5077300000    15.2672400000
     15.4700600000   -13.6183200000    24.1788600000
      9.0603400000     0.9211100000    15.2560500000
      8.9783200000    -7.1918000000    26.1559100000
     17.4645100000    -2.7547200000    13.3666500000
     15.0043600000   -10.2508900000    19.0536900000
     12.3940000000     1.6697200000    20.4573500000
      5.3861400000    -3.7405000000    22.1840100000
     22.0947900000    -4.5963500000    17.3725900000
      7.6872500000    -5.1879400000    18.8501700000
     10.0187900000     3.3388700000    17.2872400000
     13.5111100000     4.6138400000    15.7894700000
     19.9909900000    -8.4369200000    16.5897600000
     16.2100600000    -0.4871700000    15.4997600000
     11.5255500000    -7.4810400000    23.9050400000
     18.7291900000    -7.6489300000    22.9544500000
     17.2480700000    -8.1179900000    23.7017800000
     19.3033100000    -3.2152900000    21.8555500000
     18.7336000000    -2.8567100000    20.2370000000
     18.2403800000   -12.6037600000    22.7644200000
     16.9612300000   -11.5031800000    23.2218100000
     15.0651644704    -6.1614031190    21.7058338997
      4.7600885037     2.9915274482    19.2948746935
     15.8190718907     2.5917802304    18.7664077244
     16.0626921884    -4.6172282617    19.9895075378
     11.4071948989    -3.8955323895    21.6163391509
     23.4954755574   -10.2739466256    20.1982364164
     12.7380387238    -5.7935227279    22.4800036876
     12.4061224341    -2.3544226863    19.8943028965
     17.1547666148     0.8220565163    17.6497207708
     19.6102611232     0.7276753157    17.9350115343
     11.5156813288    -2.2591891392    26.2377597708
     12.8829565327    -3.7119019922    24.3168587269
     15.4994390171    -4.1100834234    24.3481318512
     16.1101507088     4.8392827181    15.6201132968
     16.2270047415    -4.4355323832    25.9294797893
     15.8223847079     3.1394423906    16.2322268176
     16.4970608729    -5.5670622975    24.5812711334
     14.0897930441    -6.2366723538    24.6007668413
     17.3546836329     3.9281297030    16.4450068767
     18.3265984453     1.7113837030    15.0490916910
     14.7691748507    -6.4778654425    26.2113204007
     16.3476999419    -6.4627898702    15.7537799112
     15.3467248424    -5.6587466282    14.5295375348
     13.0468239833    -4.9899387412    15.1612283532
     15.9930376673    -8.0609509724    13.8837246939
     15.1501485416    -7.3082290664    17.9652767636
     10.9392140655    -4.4557537540    18.1134948758
     10.7524055414    -4.6662266651    16.3597975375
     15.0312494950    -8.6581889313    15.2709742059
     12.7047157356    -6.5484116614    19.1013708803
     14.2772886318    -7.8194791240    13.9114334259
     10.3980320106    -6.0363596238    17.4004638191
      7.1294400000    20.1828500000    11.0599500000
     18.2668200000    15.2609200000     2.2352700000
      2.6676600000    15.5291400000    10.8969500000
     20.8401900000    21.1712700000     2.1152400000
     13.5880600000     8.0606800000    11.0268600000
      7.1783400000    22.6001100000     2.1040500000
      7.0963200000    14.4872000000    13.0039100000
     15.5825100000    18.9242800000     0.2146500000
     13.1223600000    11.4281100000     5.9016900000
     10.5120000000    23.3487200000     7.3053500000
      3.5041400000    17.9385000000     9.0320100000
     20.2127900000    17.0826500000     4.2205900000
      5.8052500000    16.4910600000     5.6981700000
      8.1367900000    25.0178700000     4.1352400000
     11.6291100000    26.2928400000     2.6374700000
     18.1089900000    13.2420800000     3.4377600000
     14.3280600000    21.1918300000     2.3477600000
      9.6435500000    14.1979600000    10.7530400000
     16.8471900000    14.0300700000     9.8024500000
     15.3660700000    13.5610100000    10.5497800000
     17.4213100000    18.4637100000     8.7035500000
     16.8516000000    18.8222900000     7.0850000000
     16.3583800000     9.0752400000     9.6124200000
     15.0792300000    10.1758200000    10.0698100000
     13.1831644704    15.5175968810     8.5538338997
      2.8780885037    24.6705274482     6.1428746935
     13.9370718907    24.2707802304     5.6144077244
     14.1806921884    17.0617717383     6.8375075378
      9.5251948989    17.7834676105     8.4643391509
     21.6134755574    11.4050533744     7.0462364164
     10.8560387238    15.8854772721     9.3280036876
     10.5241224341    19.3245773137     6.7423028965
     15.2727666148    22.5010565163     4.4977207708
     17.7282611232    22.4066753157     4.7830115343
      9.6336813288    19.4198108608    13.0857597708
     11.0009565327    17.9670980078    11.1648587269
     13.6174390171    17.5689165766    11.1961318512
     14.2281507088    26.5182827181     2.4681132968
     14.3450047415    17.2434676168    12.7774797893
     13.9403847079    24.8184423906     3.0802268176
     14.6150608729    16.1119377025    11.4292711334
     12.2077930441    15.4423276462    11.4487668413
     15.4726836329    25.6071297030     3.2930068767
     16.4445984453    23.3903837030     1.8970916910
     12.8871748507    15.2011345575    13.0593204007
     14.4656999419    15.2162101298     2.6017799112
     13.4647248424    16.0202533718     1.3775375348
     11.1648239833    16.6890612588     2.0092283532
     14.1110376673    13.6180490276     0.7317246939
     13.2681485416    14.3707709336     4.8132767636
      9.0572140655    17.2232462460     4.9614948758
      8.8704055414    17.0127733349     3.2077975375
     13.1492494950    13.0208110687     2.1189742059
     10.8227157356    15.1305883386     5.9493708803
     12.3952886318    13.8595208760     0.7594334259
      8.5160320106    15.6426403762     4.2484638191
      2.4944400000    13.1168500000    24.1549500000
     13.6318200000     8.1949200000    15.3302700000
     -1.9673400000     8.4631400000    23.9919500000
     16.2051900000    14.1052700000    15.2102400000
      8.9530600000     0.9946800000    24.1218600000
      2.5433400000    15.5341100000    15.1990500000
      2.4613200000     7.4212000000    26.0989100000
     10.9475100000    11.8582800000    13.3096500000
      8.4873600000     4.3621100000    18.9966900000
      5.8770000000    16.2827200000    20.4003500000
     -1.1308600000    10.8725000000    22.1270100000
     15.5777900000    10.0166500000    17.3155900000
      1.1702500000     9.4250600000    18.7931700000
      3.5017900000    17.9518700000    17.2302400000
      6.9941100000    19.2268400000    15.7324700000
     13.4739900000     6.1760800000    16.5327600000
      9.6930600000    14.1258300000    15.4427600000
      5.0085500000     7.1319600000    23.8480400000
     12.2121900000     6.9640700000    22.8974500000
     10.7310700000     6.4950100000    23.6447800000
     12.7863100000    11.3977100000    21.7985500000
     12.2166000000    11.7562900000    20.1800000000
     11.7233800000     2.0092400000    22.7074200000
     10.4442300000     3.1098200000    23.1648100000
      8.5481644704     8.4515968810    21.6488338997
     -1.7569114963    17.6045274482    19.2378746935
      9.3020718907    17.2047802304    18.7094077244
      9.5456921884     9.9957717383    19.9325075378
      4.8901948989    10.7174676105    21.5593391509
     16.9784755574     4.3390533744    20.1412364164
      6.2210387238     8.8194772721    22.4230036876
      5.8891224341    12.2585773137    19.8373028965
     10.6377666148    15.4350565163    17.5927207708
     13.0932611232    15.3406753157    17.8780115343
      4.9986813288    12.3538108608    26.1807597708
      6.3659565327    10.9010980078    24.2598587269
      8.9824390171    10.5029165766    24.2911318512
      9.5931507088    19.4522827181    15.5631132968
      9.7100047415    10.1774676168    25.8724797893
      9.3053847079    17.7524423906    16.1752268176
      9.9800608729     9.0459377025    24.5242711334
      7.5727930441     8.3763276462    24.5437668413
     10.8376836329    18.5411297030    16.3880068767
     11.8095984453    16.3243837030    14.9920916910
      8.2521748507     8.1351345575    26.1543204007
      9.8306999419     8.1502101298    15.6967799112
      8.8297248424     8.9542533718    14.4725375348
      6.5298239833     9.6230612588    15.1042283532
      9.4760376673     6.5520490276    13.8267246939
      8.6331485416     7.3047709336    17.9082767636
      4.4222140655    10.1572462460    18.0564948758
      4.2354055414     9.9467733349    16.3027975375
      8.5142494950     5.9548110687    15.2139742059
      6.1877157356     8.0645883386    19.0443708803
      7.7602886318     6.7935208760    13.8544334259
      3.8810320106     8.5766403762    17.3434638191
      8.5530700000     4.3697400000     4.7451200000
     -3.8159900000     2.4911500000     8.3993700000
      3.8217500000    -2.7171400000     8.5017000000
      0.8163200000     9.4262100000     4.6127500000
      9.4490900000     3.7654200000     5.7403100000
     -4.7478900000     3.1161600000     7.4223200000
      4.7619500000    -3.3314900000     7.5545100000
     -0.0735000000    10.0730100000     5.6125400000
      9.2003300000     3.8403400000     7.1467300000
     -4.5315000000     2.9961800000     6.0343000000
      5.8914000000    -4.0917900000     8.0075700000
     -1.1682200000    10.8459600000     5.1676100000
      0.1810000000     9.9022500000     6.9674200000
      4.5142400000    -3.1993500000     6.1705800000
     10.5827700000     3.0664400000     5.2646000000
     -5.8480500000     3.8085800000     7.9210000000
      8.7648500000     1.2839900000     0.0581800000
      2.2951100000    13.0755800000     0.0831900000
      6.6142800000    -0.0188900000    13.0271700000
     -6.7440500000     1.5235400000    13.0077900000
      3.4991600000     5.1125200000     5.6179800000
     -1.2569300000    -1.9818500000     7.5361200000
      3.9939900000    -4.3271500000    13.1299800000
      2.2023600000    11.6420600000     0.0457000000
      5.3164500000    -0.6357200000    13.0740400000
     -5.3417400000     1.9378900000    13.0322500000
      8.8042000000     0.6148800000     1.2878600000
     -2.3426400000     6.7152500000    11.9408400000
     -4.0954200000     7.8789100000     1.0761300000
     -7.3768300000     1.2937600000    11.7793000000
      7.3089400000     0.2494000000    11.7938000000
     -2.8062400000     8.3591200000     1.1252600000
      4.1467000000    -6.5224800000    11.9429100000
      8.8258900000    -0.7862300000     1.3694700000
      2.9223749788     4.2182069931     6.6498565216
      1.8123519404     2.5043008947     8.5622489042
      6.2879677023     9.1856114019     5.0893801991
     -1.9135197538    -2.9466889226     6.6204731011
      1.6079636214     4.4301161364     7.1093695067
      3.1261269386     2.2959155667     8.1201143966
      5.5354874627    10.1918924472     5.7070760096
     -7.6808874572    10.6464278182     5.9511282048
      7.6778954358     9.1362646443     5.2467455966
     12.6922041709    -3.4469924490     6.5298405440
      3.6821412710     3.1509048489     7.1676422819
      1.0566681452     3.5748253977     8.0648876800
      5.3741932487    11.5263631007     0.0530842460
      1.4468458499     3.7704165376    12.2028299852
      4.3963050179     2.7167674981    11.8717793575
      5.1439935057    11.4530174759     2.5785295264
      6.4864156078     9.9222762993     1.0898325823
      3.1678937510     1.9053048395    12.2741273473
      0.4104535133     0.3312774755     1.6942974245
      9.6321219899    -5.8089457097    11.1323481489
      4.0143611580     1.1314097480     2.0603415332
      1.9339113292     2.1950799594     2.9371494853
      2.9530432786     0.8784854140     4.3910591042
      3.7902718279    -0.2137791235     1.3702495582
      1.7661623645     1.2768494053     4.9442672187
     -0.3095807569     2.4649897734     4.1038263894
      7.6634158120    12.5790639719     2.7846145123
      9.7365191104    -6.6613028726    12.2529092496
      3.9180700000    -2.6962600000    17.8401200000
     -8.4509900000    -4.5748500000    21.4943700000
     -0.8132500000    -9.7831400000    21.5967000000
     -3.8186800000     2.3602100000    17.7077500000
      4.8140900000    -3.3005800000    18.8353100000
     -9.3828900000    -3.9498400000    20.5173200000
      0.1269500000   -10.3974900000    20.6495100000
     -4.7085000000     3.0070100000    18.7075400000
      4.5653300000    -3.2256600000    20.2417300000
     -9.1665000000    -4.0698200000    19.1293000000
      1.2564000000   -11.1577900000    21.1025700000
     -5.8032200000     3.7799600000    18.2626100000
     -4.4540000000     2.8362500000    20.0624200000
     -0.1207600000   -10.2653500000    19.2655800000
      5.9477700000    -3.9995600000    18.3596000000
    -10.4830500000    -3.2574200000    21.0160000000
      4.1298500000    -5.7820100000    13.1531800000
     -2.3398900000     6.0095800000    13.1781900000
      1.9792800000    -7.0848900000    26.1221700000
    -11.3790500000    -5.5424600000    26.1027900000
     -1.1358400000    -1.9534800000    18.7129800000
     -5.8919300000    -9.0478500000    20.6311200000
     -0.6410100000   -11.3931500000    26.2249800000
     -2.4326400000     4.5760600000    13.1407000000
      0.6814500000    -7.7017200000    26.1690400000
     -9.9767400000    -5.1281100000    26.1272500000
      4.1692000000    -6.4511200000    14.3828600000
     -6.9776400000    -0.3507500000    25.0358400000
     -8.7304200000     0.8129100000    14.1711300000
    -12.0118300000    -5.7722400000    24.8743000000
      2.6739400000    -6.8166000000    24.8888000000
     -7.4412400000     1.2931200000    14.2202600000
     -0.4883000000   -13.5884800000    25.0379100000
      4.1908900000    -7.8522300000    14.4644700000
     -1.7126250212    -2.8477930069    19.7448565216
     -2.8226480596    -4.5616991053    21.6572489042
      1.6529677023     2.1196114019    18.1843801991
     -6.5485197538   -10.0126889226    19.7154731011
     -3.0270363786    -2.6358838636    20.2043695067
     -1.5088730614    -4.7700844333    21.2151143966
      0.9004874627     3.1258924472    18.8020760096
    -12.3158874572     3.5804278182    19.0461282048
      3.0428954358     2.0702646443    18.3417455966
      8.0572041709   -10.5129924490    19.6248405440
     -0.9528587290    -3.9150951511    20.2626422819
     -3.5783318548    -3.4911746023    21.1598876800
      0.7391932487     4.4603631007    13.1480842460
     -3.1881541501    -3.2955834624    25.2978299852
     -0.2386949821    -4.3492325019    24.9667793575
      0.5089935057     4.3870174759    15.6735295264
      1.8514156078     2.8562762993    14.1848325823
     -1.4671062490    -5.1606951605    25.3691273473
     -4.2245464867    -6.7347225245    14.7892974245
      4.9971219899   -12.8749457097    24.2273481489
     -0.6206388420    -5.9345902520    15.1553415332
     -2.7010886708    -4.8709200406    16.0321494853
     -1.6819567214    -6.1875145860    17.4860591042
     -0.8447281721    -7.2797791235    14.4652495582
     -2.8688376355    -5.7891505947    18.0392672187
     -4.9445807569    -4.6010102266    17.1988263894
      3.0284158120     5.5130639719    15.8796145123
      5.1015191104   -13.7273028726    25.3479092496
      2.0360700000    18.9827400000     4.6881200000
    -10.3329900000    17.1041500000     8.3423700000
     -2.6952500000    11.8958600000     8.4447000000
     -5.7006800000    24.0392100000     4.5557500000
      2.9320900000    18.3784200000     5.6833100000
    -11.2648900000    17.7291600000     7.3653200000
     -1.7550500000    11.2815100000     7.4975100000
     -6.5905000000    24.6860100000     5.5555400000
      2.6833300000    18.4533400000     7.0897300000
    -11.0485000000    17.6091800000     5.9773000000
     -0.6256000000    10.5212100000     7.9505700000
     -7.6852200000    25.4589600000     5.1106100000
     -6.3360000000    24.5152500000     6.9104200000
     -2.0027600000    11.4136500000     6.1135800000
      4.0657700000    17.6794400000     5.2076000000
    -12.3650500000    18.4215800000     7.8640000000
      2.2478500000    15.8969900000     0.0011800000
     -4.2218900000    27.6885800000     0.0261900000
      0.0972800000    14.5941100000    12.9701700000
    -13.2610500000    16.1365400000    12.9507900000
     -3.0178400000    19.7255200000     5.5609800000
     -7.7739300000    12.6311500000     7.4791200000
     -2.5230100000    10.2858500000    13.0729800000
     -4.3146400000    26.2550600000    -0.0113000000
     -1.2005500000    13.9772800000    13.0170400000
    -11.8587400000    16.5508900000    12.9752500000
      2.2872000000    15.2278800000     1.2308600000
     -8.8596400000    21.3282500000    11.8838400000
    -10.6124200000    22.4919100000     1.0191300000
    -13.8938300000    15.9067600000    11.7223000000
      0.7919400000    14.8624000000    11.7368000000
     -9.3232400000    22.9721200000     1.0682600000
     -2.3703000000     8.0905200000    11.8859100000
      2.3088900000    13.8267700000     1.3124700000
     -3.5946250212    18.8312069931     6.5928565216
     -4.7046480596    17.1173008947     8.5052489042
     -0.2290322977    23.7986114019     5.0323801991
     -8.4305197538    11.6663110774     6.5634731011
     -4.9090363786    19.0431161364     7.0523695067
     -3.3908730614    16.9089155667     8.0631143966
     -0.9815125373    24.8048924472     5.6500760096
    -14.1978874572    25.2594278182     5.8941282048
      1.1608954358    23.7492646443     5.1897455966
      6.1752041709    11.1660075510     6.4728405440
     -2.8348587290    17.7639048489     7.1106422819
     -5.4603318548    18.1878253977     8.0078876800
     -1.1428067513    26.1393631007    -0.0039157540
     -5.0701541501    18.3834165376    12.1458299852
     -2.1206949821    17.3297674981    11.8147793575
     -1.3730064943    26.0660174759     2.5215295264
     -0.0305843922    24.5352762993     1.0328325823
     -3.3491062490    16.5183048395    12.2171273473
     -6.1065464867    14.9442774755     1.6372974245
      3.1151219899     8.8040542903    11.0753481489
     -2.5026388420    15.7444097480     2.0033415332
     -4.5830886708    16.8080799594     2.8801494853
     -3.5639567214    15.4914854140     4.3340591042
     -2.7267281721    14.3992208765     1.3132495582
     -4.7508376355    15.8898494053     4.8872672187
     -6.8265807569    17.0779897734     4.0468263894
      1.1464158120    27.1920639719     2.7276145123
      3.2195191104     7.9516971274    12.1959092496
     -2.5989300000    11.9167400000    17.7831200000
    -14.9679900000    10.0381500000    21.4373700000
     -7.3302500000     4.8298600000    21.5397000000
    -10.3356800000    16.9732100000    17.6507500000
     -1.7029100000    11.3124200000    18.7783100000
    -15.8998900000    10.6631600000    20.4603200000
     -6.3900500000     4.2155100000    20.5925100000
    -11.2255000000    17.6200100000    18.6505400000
     -1.9516700000    11.3873400000    20.1847300000
    -15.6835000000    10.5431800000    19.0723000000
     -5.2606000000     3.4552100000    21.0455700000
    -12.3202200000    18.3929600000    18.2056100000
    -10.9710000000    17.4492500000    20.0054200000
     -6.6377600000     4.3476500000    19.2085800000
     -0.5692300000    10.6134400000    18.3026000000
    -17.0000500000    11.3555800000    20.9590000000
     -2.3871500000     8.8309900000    13.0961800000
     -8.8568900000    20.6225800000    13.1211900000
     -4.5377200000     7.5281100000    26.0651700000
    -17.8960500000     9.0705400000    26.0457900000
     -7.6528400000    12.6595200000    18.6559800000
    -12.4089300000     5.5651500000    20.5741200000
     -7.1580100000     3.2198500000    26.1679800000
     -8.9496400000    19.1890600000    13.0837000000
     -5.8355500000     6.9112800000    26.1120400000
    -16.4937400000     9.4848900000    26.0702500000
     -2.3478000000     8.1618800000    14.3258600000
    -13.4946400000    14.2622500000    24.9788400000
    -15.2474200000    15.4259100000    14.1141300000
    -18.5288300000     8.8407600000    24.8173000000
     -3.8430600000     7.7964000000    24.8318000000
    -13.9582400000    15.9061200000    14.1632600000
     -7.0053000000     1.0245200000    24.9809100000
     -2.3261100000     6.7607700000    14.4074700000
     -8.2296250212    11.7652069931    19.6878565216
     -9.3396480596    10.0513008947    21.6002489042
     -4.8640322977    16.7326114019    18.1273801991
    -13.0655197538     4.6003110774    19.6584731011
     -9.5440363786    11.9771161364    20.1473695067
     -8.0258730614     9.8429155667    21.1581143966
     -5.6165125373    17.7388924472    18.7450760096
    -18.8328874572    18.1934278182    18.9891282048
     -3.4741045642    16.6832646443    18.2847455966
      1.5402041709     4.1000075510    19.5678405440
     -7.4698587290    10.6979048489    20.2056422819
    -10.0953318548    11.1218253977    21.1028876800
     -5.7778067513    19.0733631007    13.0910842460
     -9.7051541501    11.3174165376    25.2408299852
     -6.7556949821    10.2637674981    24.9097793575
     -6.0080064943    19.0000174759    15.6165295264
     -4.6655843922    17.4692762993    14.1278325823
     -7.9841062490     9.4523048395    25.3121273473
    -10.7415464867     7.8782774755    14.7322974245
     -1.5198780101     1.7380542903    24.1703481489
     -7.1376388420     8.6784097480    15.0983415332
     -9.2180886708     9.7420799594    15.9751494853
     -8.1989567214     8.4254854140    17.4290591042
     -7.3617281721     7.3332208765    14.4082495582
     -9.3858376355     8.8238494053    17.9822672187
    -11.4615807569    10.0119897734    17.1418263894
     -3.4885841880    20.1260639719    15.8226145123
     -1.4154808896     0.8856971274    25.2909092496
     24.5530700000     3.8127400000     4.8351200000
     12.1840100000     1.9341500000     8.4893700000
     19.8217500000    -3.2741400000     8.5917000000
     16.8163200000     8.8692100000     4.7027500000
     25.4490900000     3.2084200000     5.8303100000
     11.2521100000     2.5591600000     7.5123200000
     20.7619500000    -3.8884900000     7.6445100000
     15.9265000000     9.5160100000     5.7025400000
     25.2003300000     3.2833400000     7.2367300000
     11.4685000000     2.4391800000     6.1243000000
     21.8914000000    -4.6487900000     8.0975700000
     14.8317800000    10.2889600000     5.2576100000
     16.1810000000     9.3452500000     7.0574200000
     20.5142400000    -3.7563500000     6.2605800000
     26.5827700000     2.5094400000     5.3546000000
     10.1519500000     3.2515800000     8.0110000000
     24.7648500000     0.7269900000     0.1481800000
     18.2951100000    12.5185800000     0.1731900000
     22.6142800000    -0.5758900000    13.1171700000
      9.2559500000     0.9665400000    13.0977900000
     19.4991600000     4.5555200000     5.7079800000
     14.7430700000    -2.5388500000     7.6261200000
     19.9939900000    -4.8841500000    13.2199800000
     18.2023600000    11.0850600000     0.1357000000
     21.3164500000    -1.1927200000    13.1640400000
     10.6582600000     1.3808900000    13.1222500000
     24.8042000000     0.0578800000     1.3778600000
     13.6573600000     6.1582500000    12.0308400000
     11.9045800000     7.3219100000     1.1661300000
      8.6231700000     0.7367600000    11.8693000000
     23.3089400000    -0.3076000000    11.8838000000
     13.1937600000     7.8021200000     1.2152600000
     20.1467000000    -7.0794800000    12.0329100000
     24.8258900000    -1.3432300000     1.4594700000
     18.9223749788     3.6612069931     6.7398565216
     17.8123519404     1.9473008947     8.6522489042
     22.2879677023     8.6286114019     5.1793801991
     14.0864802462    -3.5036889226     6.7104731011
     17.6079636214     3.8731161364     7.1993695067
     19.1261269386     1.7389155667     8.2101143966
     21.5354874627     9.6348924472     5.7970760096
      8.3191125428    10.0894278182     6.0411282048
     23.6778954358     8.5792646443     5.3367455966
     28.6922041709    -4.0039924490     6.6198405440
     19.6821412710     2.5939048489     7.2576422819
     17.0566681452     3.0178253977     8.1548876800
     21.3741932487    10.9693631007     0.1430842460
     17.4468458499     3.2134165376    12.2928299852
     20.3963050179     2.1597674981    11.9617793575
     21.1439935057    10.8960174759     2.6685295264
     22.4864156078     9.3652762993     1.1798325823
     19.1678937510     1.3483048395    12.3641273473
     16.4104535133    -0.2257225245     1.7842974245
     25.6321219899    -6.3659457097    11.2223481489
     20.0143611580     0.5744097480     2.1503415332
     17.9339113292     1.6380799594     3.0271494853
     18.9530432786     0.3214854140     4.4810591042
     19.7902718279    -0.7707791235     1.4602495582
     17.7661623645     0.7198494053     5.0342672187
     15.6904192431     1.9079897734     4.1938263894
     23.6634158120    12.0220639719     2.8746145123
     25.7365191104    -7.2183028726    12.3429092496
     19.9180700000    -3.2532600000    17.9301200000
      7.5490100000    -5.1318500000    21.5843700000
     15.1867500000   -10.3401400000    21.6867000000
     12.1813200000     1.8032100000    17.7977500000
     20.8140900000    -3.8575800000    18.9253100000
      6.6171100000    -4.5068400000    20.6073200000
     16.1269500000   -10.9544900000    20.7395100000
     11.2915000000     2.4500100000    18.7975400000
     20.5653300000    -3.7826600000    20.3317300000
      6.8335000000    -4.6268200000    19.2193000000
     17.2564000000   -11.7147900000    21.1925700000
     10.1967800000     3.2229600000    18.3526100000
     11.5460000000     2.2792500000    20.1524200000
     15.8792400000   -10.8223500000    19.3555800000
     21.9477700000    -4.5565600000    18.4496000000
      5.5169500000    -3.8144200000    21.1060000000
     20.1298500000    -6.3390100000    13.2431800000
     13.6601100000     5.4525800000    13.2681900000
     17.9792800000    -7.6418900000    26.2121700000
      4.6209500000    -6.0994600000    26.1927900000
     14.8641600000    -2.5104800000    18.8029800000
     10.1080700000    -9.6048500000    20.7211200000
     15.3589900000   -11.9501500000    26.3149800000
     13.5673600000     4.0190600000    13.2307000000
     16.6814500000    -8.2587200000    26.2590400000
      6.0232600000    -5.6851100000    26.2172500000
     20.1692000000    -7.0081200000    14.4728600000
      9.0223600000    -0.9077500000    25.1258400000
      7.2695800000     0.2559100000    14.2611300000
      3.9881700000    -6.3292400000    24.9643000000
     18.6739400000    -7.3736000000    24.9788000000
      8.5587600000     0.7361200000    14.3102600000
     15.5117000000   -14.1454800000    25.1279100000
     20.1908900000    -8.4092300000    14.5544700000
     14.2873749788    -3.4047930069    19.8348565216
     13.1773519404    -5.1186991053    21.7472489042
     17.6529677023     1.5626114019    18.2743801991
      9.4514802462   -10.5696889226    19.8054731011
     12.9729636214    -3.1928838636    20.2943695067
     14.4911269386    -5.3270844333    21.3051143966
     16.9004874627     2.5688924472    18.8920760096
      3.6841125428     3.0234278182    19.1361282048
     19.0428954358     1.5132646443    18.4317455966
     24.0572041709   -11.0699924490    19.7148405440
     15.0471412710    -4.4720951511    20.3526422819
     12.4216681452    -4.0481746023    21.2498876800
     16.7391932487     3.9033631007    13.2380842460
     12.8118458499    -3.8525834624    25.3878299852
     15.7613050179    -4.9062325019    25.0567793575
     16.5089935057     3.8300174759    15.7635295264
     17.8514156078     2.2992762993    14.2748325823
     14.5328937510    -5.7176951605    25.4591273473
     11.7754535133    -7.2917225245    14.8792974245
     20.9971219899   -13.4319457097    24.3173481489
     15.3793611580    -6.4915902520    15.2453415332
     13.2989113292    -5.4279200406    16.1221494853
     14.3180432786    -6.7445145860    17.5760591042
     15.1552718279    -7.8367791235    14.5552495582
     13.1311623645    -6.3461505947    18.1292672187
     11.0554192431    -5.1580102266    17.2888263894
     19.0284158120     4.9560639719    15.9696145123
     21.1015191104   -14.2843028726    25.4379092496
     18.0360700000    18.4257400000     4.7781200000
      5.6670100000    16.5471500000     8.4323700000
     13.3047500000    11.3388600000     8.5347000000
     10.2993200000    23.4822100000     4.6457500000
     18.9320900000    17.8214200000     5.7733100000
      4.7351100000    17.1721600000     7.4553200000
     14.2449500000    10.7245100000     7.5875100000
      9.4095000000    24.1290100000     5.6455400000
     18.6833300000    17.8963400000     7.1797300000
      4.9515000000    17.0521800000     6.0673000000
     15.3744000000     9.9642100000     8.0405700000
      8.3147800000    24.9019600000     5.2006100000
      9.6640000000    23.9582500000     7.0004200000
     13.9972400000    10.8566500000     6.2035800000
     20.0657700000    17.1224400000     5.2976000000
      3.6349500000    17.8645800000     7.9540000000
     18.2478500000    15.3399900000     0.0911800000
     11.7781100000    27.1315800000     0.1161900000
     16.0972800000    14.0371100000    13.0601700000
      2.7389500000    15.5795400000    13.0407900000
     12.9821600000    19.1685200000     5.6509800000
      8.2260700000    12.0741500000     7.5691200000
     13.4769900000     9.7288500000    13.1629800000
     11.6853600000    25.6980600000     0.0787000000
     14.7994500000    13.4202800000    13.1070400000
      4.1412600000    15.9938900000    13.0652500000
     18.2872000000    14.6708800000     1.3208600000
      7.1403600000    20.7712500000    11.9738400000
      5.3875800000    21.9349100000     1.1091300000
      2.1061700000    15.3497600000    11.8123000000
     16.7919400000    14.3054000000    11.8268000000
      6.6767600000    22.4151200000     1.1582600000
     13.6297000000     7.5335200000    11.9759100000
     18.3088900000    13.2697700000     1.4024700000
     12.4053749788    18.2742069931     6.6828565216
     11.2953519404    16.5603008947     8.5952489042
     15.7709677023    23.2416114019     5.1223801991
      7.5694802462    11.1093110774     6.6534731011
     11.0909636214    18.4861161364     7.1423695067
     12.6091269386    16.3519155667     8.1531143966
     15.0184874627    24.2478924472     5.7400760096
      1.8021125428    24.7024278182     5.9841282048
     17.1608954358    23.1922646443     5.2797455966
     22.1752041709    10.6090075510     6.5628405440
     13.1651412710    17.2069048489     7.2006422819
     10.5396681452    17.6308253977     8.0978876800
     14.8571932487    25.5823631007     0.0860842460
     10.9298458499    17.8264165376    12.2358299852
     13.8793050179    16.7727674981    11.9047793575
     14.6269935057    25.5090174759     2.6115295264
     15.9694156078    23.9782762993     1.1228325823
     12.6508937510    15.9613048395    12.3071273473
      9.8934535133    14.3872774755     1.7272974245
     19.1151219899     8.2470542903    11.1653481489
     13.4973611580    15.1874097480     2.0933415332
     11.4169113292    16.2510799594     2.9701494853
     12.4360432786    14.9344854140     4.4240591042
     13.2732718279    13.8422208765     1.4032495582
     11.2491623645    15.3328494053     4.9772672187
      9.1734192431    16.5209897734     4.1368263894
     17.1464158120    26.6350639719     2.8176145123
     19.2195191104     7.3946971274    12.2859092496
     13.4010700000    11.3597400000    17.8731200000
      1.0320100000     9.4811500000    21.5273700000
      8.6697500000     4.2728600000    21.6297000000
      5.6643200000    16.4162100000    17.7407500000
     14.2970900000    10.7554200000    18.8683100000
      0.1001100000    10.1061600000    20.5503200000
      9.6099500000     3.6585100000    20.6825100000
      4.7745000000    17.0630100000    18.7405400000
     14.0483300000    10.8303400000    20.2747300000
      0.3165000000     9.9861800000    19.1623000000
     10.7394000000     2.8982100000    21.1355700000
      3.6797800000    17.8359600000    18.2956100000
      5.0290000000    16.8922500000    20.0954200000
      9.3622400000     3.7906500000    19.2985800000
     15.4307700000    10.0564400000    18.3926000000
     -1.0000500000    10.7985800000    21.0490000000
     13.6128500000     8.2739900000    13.1861800000
      7.1431100000    20.0655800000    13.2111900000
     11.4622800000     6.9711100000    26.1551700000
     -1.8960500000     8.5135400000    26.1357900000
      8.3471600000    12.1025200000    18.7459800000
      3.5910700000     5.0081500000    20.6641200000
      8.8419900000     2.6628500000    26.2579800000
      7.0503600000    18.6320600000    13.1737000000
     10.1644500000     6.3542800000    26.2020400000
     -0.4937400000     8.9278900000    26.1602500000
     13.6522000000     7.6048800000    14.4158600000
      2.5053600000    13.7052500000    25.0688400000
      0.7525800000    14.8689100000    14.2041300000
     -2.5288300000     8.2837600000    24.9073000000
     12.1569400000     7.2394000000    24.9218000000
      2.0417600000    15.3491200000    14.2532600000
      8.9947000000     0.4675200000    25.0709100000
     13.6738900000     6.2037700000    14.4974700000
      7.7703749788    11.2082069931    19.7778565216
      6.6603519404     9.4943008947    21.6902489042
     11.1359677023    16.1756114019    18.2173801991
      2.9344802462     4.0433110774    19.7484731011
      6.4559636214    11.4201161364    20.2373695067
      7.9741269386     9.2859155667    21.2481143966
     10.3834874627    17.1818924472    18.8350760096
     -2.8328874572    17.6364278182    19.0791282048
     12.5258954358    16.1262646443    18.3747455966
     17.5402041709     3.5430075510    19.6578405440
      8.5301412710    10.1409048489    20.2956422819
      5.9046681452    10.5648253977    21.1928876800
     10.2221932487    18.5163631007    13.1810842460
      6.2948458499    10.7604165376    25.3308299852
      9.2443050179     9.7067674981    24.9997793575
      9.9919935057    18.4430174759    15.7065295264
     11.3344156078    16.9122762993    14.2178325823
      8.0158937510     8.8953048395    25.4021273473
      5.2584535133     7.3212774755    14.8222974245
     14.4801219899     1.1810542903    24.2603481489
      8.8623611580     8.1214097480    15.1883415332
      6.7819113292     9.1850799594    16.0651494853
      7.8010432786     7.8684854140    17.5190591042
      8.6382718279     6.7762208765    14.4982495582
      6.6141623645     8.2668494053    18.0722672187
      4.5384192431     9.4549897734    17.2318263894
     12.5114158120    19.5690639719    15.9126145123
     14.5845191104     0.3286971274    25.3809092496
      8.8809500000    -1.3850600000     2.6076300000
      6.7299000000     0.0665500000    10.5548300000
      8.1194500000     4.4865800000     7.6780200000
      6.2224100000    -4.2500400000     9.3249700000
      5.6046275401    10.9218063383     1.2804349302
      2.1342461232     2.7712364532    12.8696908671
     13.6058946068    -0.2349200963     0.2640262641
      3.0187215372     1.4194034749     3.1171023285
      1.1159353555     2.0752485319     4.0127266884
     -0.5589582653     0.5307807817     1.4667777903
      4.2459500000    -8.4510600000    15.7026300000
      2.0949000000    -6.9994500000    23.6498300000
      3.4844500000    -2.5794200000    20.7730200000
      1.5874100000   -11.3160400000    22.4199700000
      0.9696275401     3.8558063383    14.3754349302
     -2.5007538768    -4.2947635468    25.9646908671
      8.9708946068    -7.3009200963    13.3590262641
     -1.6162784628    -5.6465965251    16.2121023285
     -3.5190646445    -4.9907514681    17.1077266884
     -5.1939582653    -6.5352192183    14.5617777903
      2.3639500000    13.2279400000     2.5506300000
      0.2129000000    14.6795500000    10.4978300000
      1.6024500000    19.0995800000     7.6210200000
     -0.2945900000    10.3629600000     9.2679700000
     -0.9123724599    25.5348063383     1.2234349302
     -4.3827538768    17.3842364532    12.8126908671
      7.0888946068    14.3780799037     0.2070262641
     -3.4982784628    16.0324034749     3.0601023285
     -5.4010646445    16.6882485319     3.9557266884
     -7.0759582653    15.1437807817     1.4097777903
     -2.2710500000     6.1619400000    15.6456300000
     -4.4221000000     7.6135500000    23.5928300000
     -3.0325500000    12.0335800000    20.7160200000
     -4.9295900000     3.2969600000    22.3629700000
     -5.5473724599    18.4688063383    14.3184349302
     -9.0177538768    10.3182364532    25.9076908671
      2.4538946068     7.3120799037    13.3020262641
     -8.1332784628     8.9664034749    16.1551023285
    -10.0360646445     9.6222485319    17.0507266884
    -11.7109582653     8.0777807817    14.5047777903
     24.8809500000    -1.9420600000     2.6976300000
     22.7299000000    -0.4904500000    10.6448300000
     24.1194500000     3.9295800000     7.7680200000
     22.2224100000    -4.8070400000     9.4149700000
     21.6046275401    10.3648063383     1.3704349302
     18.1342461232     2.2142364532    12.9596908671
     29.6058946068    -0.7919200963     0.3540262641
     19.0187215372     0.8624034749     3.2071023285
     17.1159353555     1.5182485319     4.1027266884
     15.4410417347    -0.0262192183     1.5567777903
     20.2459500000    -9.0080600000    15.7926300000
     18.0949000000    -7.5564500000    23.7398300000
     19.4844500000    -3.1364200000    20.8630200000
     17.5874100000   -11.8730400000    22.5099700000
     16.9696275401     3.2988063383    14.4654349302
     13.4992461232    -4.8517635468    26.0546908671
     24.9708946068    -7.8579200963    13.4490262641
     14.3837215372    -6.2035965251    16.3021023285
     12.4809353555    -5.5477514681    17.1977266884
     10.8060417347    -7.0922192183    14.6517777903
     18.3639500000    12.6709400000     2.6406300000
     16.2129000000    14.1225500000    10.5878300000
     17.6024500000    18.5425800000     7.7110200000
     15.7054100000     9.8059600000     9.3579700000
     15.0876275401    24.9778063383     1.3134349302
     11.6172461232    16.8272364532    12.9026908671
     23.0888946068    13.8210799037     0.2970262641
     12.5017215372    15.4754034749     3.1501023285
     10.5989353555    16.1312485319     4.0457266884
      8.9240417347    14.5867807817     1.4997777903
     13.7289500000     5.6049400000    15.7356300000
     11.5779000000     7.0565500000    23.6828300000
     12.9674500000    11.4765800000    20.8060200000
     11.0704100000     2.7399600000    22.4529700000
     10.4526275401    17.9118063383    14.4084349302
      6.9822461232     9.7612364532    25.9976908671
     18.4538946068     6.7550799037    13.3920262641
      7.8667215372     8.4094034749    16.2451023285
      5.9639353555     9.0652485319    17.1407266884
      4.2890417347     7.5207807817    14.5947777903
      7.3767500000     4.7748300000     5.1109100000
     -3.0470000000     1.5402800000     8.0010800000
      4.2032100000    -2.5926600000     9.7228000000
      0.7504500000     9.8558800000     3.4131500000
      1.5867800000     8.4689900000     4.9992000000
      2.6513300000    -2.3487000000     8.0961800000
      8.9649500000     4.4504900000     3.5333700000
     -3.8580000000     2.9274000000     9.5990800000
      6.2924400000     4.1956200000     2.5343600000
     -1.3537800000     2.0542300000    10.0994400000
      7.2312300000     6.4829100000     2.9843400000
     -3.1059600000     0.3295500000    10.5921100000
      1.5005500000    -2.8784000000    10.6868300000
      3.2689900000     9.0170100000     2.9149100000
      2.4545000000    -0.6169100000    10.2226600000
      1.5627600000     7.2599000000     2.3974800000
      4.7202800000     4.9326500000     5.2637300000
     -1.9146000000    -0.9469100000     7.9143400000
      3.8717700000    -3.7326400000    11.9888900000
      2.1192500000    10.9406300000     1.1408900000
      4.6739200000    -0.9444600000    11.9837600000
     -0.1166800000     9.1049000000     1.0808200000
     -0.0951100000    -2.2764000000     7.9939300000
      2.7573200000     6.0334100000     5.1246400000
      9.4121100000     6.1301000000     1.1270200000
     -4.7422200000     2.1697100000    11.9148400000
      8.6165500000     3.3757800000     1.1564300000
     -2.4740300000     3.9520500000    11.9961100000
      4.4842300000     6.5870700000     3.0354300000
     -0.2177100000    -0.4167400000    10.0164500000
      6.9383400000     5.3619500000     0.1026300000
     -2.2643100000     1.3980000000    13.0308900000
     13.7888680896    -0.5894356638     2.7576865881
      8.3279217303    12.0769668434     1.1722862711
      1.3166211416     6.8260531729    11.0192667107
      3.8250927732     5.9097281687    11.1686583197
      0.2517435583     2.8039362260     0.3650152271
      1.2606008310    -1.4585693211     2.9006063674
     -3.7008392598    -6.3065171716    12.1345708769
      9.7863658610    12.1499626902     0.6989391770
      2.7417500000    -2.2911700000    18.2059100000
     -7.6820000000    -5.5257200000    21.0960800000
     -0.4317900000    -9.6586600000    22.8178000000
     -3.8845500000     2.7898800000    16.5081500000
     -3.0482200000     1.4029900000    18.0942000000
     -1.9836700000    -9.4147000000    21.1911800000
      4.3299500000    -2.6155100000    16.6283700000
     -8.4930000000    -4.1386000000    22.6940800000
      1.6574400000    -2.8703800000    15.6293600000
     -5.9887800000    -5.0117700000    23.1944400000
      2.5962300000    -0.5830900000    16.0793400000
     -7.7409600000    -6.7364500000    23.6871100000
     -3.1344500000    -9.9444000000    23.7818300000
     -1.3660100000     1.9510100000    16.0099100000
     -2.1805000000    -7.6829100000    23.3176600000
     -3.0722400000     0.1939000000    15.4924800000
      0.0852800000    -2.1333500000    18.3587300000
     -6.5496000000    -8.0129100000    21.0093400000
     -0.7632300000   -10.7986400000    25.0838900000
     -2.5157500000     3.8746300000    14.2358900000
      0.0389200000    -8.0104600000    25.0787600000
     -4.7516800000     2.0389000000    14.1758200000
     -4.7301100000    -9.3424000000    21.0889300000
     -1.8776800000    -1.0325900000    18.2196400000
      4.7771100000    -0.9359000000    14.2220200000
     -9.3772200000    -4.8962900000    25.0098400000
      3.9815500000    -3.6902200000    14.2514300000
     -7.1090300000    -3.1139500000    25.0911100000
     -0.1507700000    -0.4789300000    16.1304300000
     -4.8527100000    -7.4827400000    23.1114500000
      2.3033400000    -1.7040500000    13.1976300000
     -6.8993100000    -5.6680000000    26.1258900000
      9.1538680896    -7.6554356638    15.8526865881
      3.6929217303     5.0109668434    14.2672862711
     -3.3183788584    -0.2399468271    24.1142667107
     -0.8099072268    -1.1562718313    24.2636583197
     -4.3832564417    -4.2620637740    13.4600152271
     -3.3743991690    -8.5245693211    15.9956063674
     -8.3358392598   -13.3725171716    25.2295708769
      5.1513658610     5.0839626902    13.7939391770
      0.8597500000    19.3878300000     5.0539100000
     -9.5640000000    16.1532800000     7.9440800000
     -2.3137900000    12.0203400000     9.6658000000
     -5.7665500000    24.4688800000     3.3561500000
     -4.9302200000    23.0819900000     4.9422000000
     -3.8656700000    12.2643000000     8.0391800000
      2.4479500000    19.0634900000     3.4763700000
    -10.3750000000    17.5404000000     9.5420800000
     -0.2245600000    18.8086200000     2.4773600000
     -7.8707800000    16.6672300000    10.0424400000
      0.7142300000    21.0959100000     2.9273400000
     -9.6229600000    14.9425500000    10.5351100000
     -5.0164500000    11.7346000000    10.6298300000
     -3.2480100000    23.6300100000     2.8579100000
     -4.0625000000    13.9960900000    10.1656600000
     -4.9542400000    21.8729000000     2.3404800000
     -1.7967200000    19.5456500000     5.2067300000
     -8.4316000000    13.6660900000     7.8573400000
     -2.6452300000    10.8803600000    11.9318900000
     -4.3977500000    25.5536300000     1.0838900000
     -1.8430800000    13.6685400000    11.9267600000
     -6.6336800000    23.7179000000     1.0238200000
     -6.6121100000    12.3366000000     7.9369300000
     -3.7596800000    20.6464100000     5.0676400000
      2.8951100000    20.7431000000     1.0700200000
    -11.2592200000    16.7827100000    11.8578400000
      2.0995500000    17.9887800000     1.0994300000
     -8.9910300000    18.5650500000    11.9391100000
     -2.0327700000    21.2000700000     2.9784300000
     -6.7347100000    14.1962600000     9.9594500000
      0.4213400000    19.9749500000     0.0456300000
     -8.7813100000    16.0110000000    12.9738900000
      7.2718680896    14.0235643362     2.7006865881
      1.8109217303    26.6899668434     1.1152862711
     -5.2003788584    21.4390531729    10.9622667107
     -2.6919072268    20.5227281687    11.1116583197
     -6.2652564417    17.4169362260     0.3080152271
     -5.2563991690    13.1544306789     2.8436063674
    -10.2178392598     8.3064828284    12.0775708769
      3.2693658610    26.7629626902     0.6419391770
     -3.7752500000    12.3218300000    18.1489100000
    -14.1990000000     9.0872800000    21.0390800000
     -6.9487900000     4.9543400000    22.7608000000
    -10.4015500000    17.4028800000    16.4511500000
     -9.5652200000    16.0159900000    18.0372000000
     -8.5006700000     5.1983000000    21.1341800000
     -2.1870500000    11.9974900000    16.5713700000
    -15.0100000000    10.4744000000    22.6370800000
     -4.8595600000    11.7426200000    15.5723600000
    -12.5057800000     9.6012300000    23.1374400000
     -3.9207700000    14.0299100000    16.0223400000
    -14.2579600000     7.8765500000    23.6301100000
     -9.6514500000     4.6686000000    23.7248300000
     -7.8830100000    16.5640100000    15.9529100000
     -8.6975000000     6.9300900000    23.2606600000
     -9.5892400000    14.8069000000    15.4354800000
     -6.4317200000    12.4796500000    18.3017300000
    -13.0666000000     6.6000900000    20.9523400000
     -7.2802300000     3.8143600000    25.0268900000
     -9.0327500000    18.4876300000    14.1788900000
     -6.4780800000     6.6025400000    25.0217600000
    -11.2686800000    16.6519000000    14.1188200000
    -11.2471100000     5.2706000000    21.0319300000
     -8.3946800000    13.5804100000    18.1626400000
     -1.7398900000    13.6771000000    14.1650200000
    -15.8942200000     9.7167100000    24.9528400000
     -2.5354500000    10.9227800000    14.1944300000
    -13.6260300000    11.4990500000    25.0341100000
     -6.6677700000    14.1340700000    16.0734300000
    -11.3697100000     7.1302600000    23.0544500000
     -4.2136600000    12.9089500000    13.1406300000
    -13.4163100000     8.9450000000    26.0688900000
      2.6368680896     6.9575643362    15.7956865881
     -2.8240782697    19.6239668434    14.2102862711
     -9.8353788584    14.3730531729    24.0572667107
     -7.3269072268    13.4567281687    24.2066583197
    -10.9002564417    10.3509362260    13.4030152271
     -9.8913991690     6.0884306789    15.9386063674
    -14.8528392598     1.2404828284    25.1725708769
     -1.3656341390    19.6969626902    13.7369391770
     23.3767500000     4.2178300000     5.2009100000
     12.9530000000     0.9832800000     8.0910800000
     20.2032100000    -3.1496600000     9.8128000000
     16.7504500000     9.2988800000     3.5031500000
     17.5867800000     7.9119900000     5.0892000000
     18.6513300000    -2.9057000000     8.1861800000
     24.9649500000     3.8934900000     3.6233700000
     12.1420000000     2.3704000000     9.6890800000
     22.2924400000     3.6386200000     2.6243600000
     14.6462200000     1.4972300000    10.1894400000
     23.2312300000     5.9259100000     3.0743400000
     12.8940400000    -0.2274500000    10.6821100000
     17.5005500000    -3.4354000000    10.7768300000
     19.2689900000     8.4600100000     3.0049100000
     18.4545000000    -1.1739100000    10.3126600000
     17.5627600000     6.7029000000     2.4874800000
     20.7202800000     4.3756500000     5.3537300000
     14.0854000000    -1.5039100000     8.0043400000
     19.8717700000    -4.2896400000    12.0788900000
     18.1192500000    10.3836300000     1.2308900000
     20.6739200000    -1.5014600000    12.0737600000
     15.8833200000     8.5479000000     1.1708200000
     15.9048900000    -2.8334000000     8.0839300000
     18.7573200000     5.4764100000     5.2146400000
     25.4121100000     5.5731000000     1.2170200000
     11.2577800000     1.6127100000    12.0048400000
     24.6165500000     2.8187800000     1.2464300000
     13.5259700000     3.3950500000    12.0861100000
     20.4842300000     6.0300700000     3.1254300000
     15.7822900000    -0.9737400000    10.1064500000
     22.9383400000     4.8049500000     0.1926300000
     13.7356900000     0.8410000000    13.1208900000
     29.7888680896    -1.1464356638     2.8476865881
     24.3279217303    11.5199668434     1.2622862711
     17.3166211416     6.2690531729    11.1092667107
     19.8250927732     5.3527281687    11.2586583197
     16.2517435583     2.2469362260     0.4550152271
     17.2606008310    -2.0155693211     2.9906063674
     12.2991607402    -6.8635171716    12.2245708769
     25.7863658610    11.5929626902     0.7889391770
     18.7417500000    -2.8481700000    18.2959100000
      8.3180000000    -6.0827200000    21.1860800000
     15.5682100000   -10.2156600000    22.9078000000
     12.1154500000     2.2328800000    16.5981500000
     12.9517800000     0.8459900000    18.1842000000
     14.0163300000    -9.9717000000    21.2811800000
     20.3299500000    -3.1725100000    16.7183700000
      7.5070000000    -4.6956000000    22.7840800000
     17.6574400000    -3.4273800000    15.7193600000
     10.0112200000    -5.5687700000    23.2844400000
     18.5962300000    -1.1400900000    16.1693400000
      8.2590400000    -7.2934500000    23.7771100000
     12.8655500000   -10.5014000000    23.8718300000
     14.6339900000     1.3940100000    16.0999100000
     13.8195000000    -8.2399100000    23.4076600000
     12.9277600000    -0.3631000000    15.5824800000
     16.0852800000    -2.6903500000    18.4487300000
      9.4504000000    -8.5699100000    21.0993400000
     15.2367700000   -11.3556400000    25.1738900000
     13.4842500000     3.3176300000    14.3258900000
     16.0389200000    -8.5674600000    25.1687600000
     11.2483200000     1.4819000000    14.2658200000
     11.2698900000    -9.8994000000    21.1789300000
     14.1223200000    -1.5895900000    18.3096400000
     20.7771100000    -1.4929000000    14.3120200000
      6.6227800000    -5.4532900000    25.0998400000
     19.9815500000    -4.2472200000    14.3414300000
      8.8909700000    -3.6709500000    25.1811100000
     15.8492300000    -1.0359300000    16.2204300000
     11.1472900000    -8.0397400000    23.2014500000
     18.3033400000    -2.2610500000    13.2876300000
      9.1006900000    -6.2250000000    26.2158900000
     25.1538680896    -8.2124356638    15.9426865881
     19.6929217303     4.4539668434    14.3572862711
     12.6816211416    -0.7969468271    24.2042667107
     15.1900927732    -1.7132718313    24.3536583197
     11.6167435583    -4.8190637740    13.5500152271
     12.6256008310    -9.0815693211    16.0856063674
      7.6641607402   -13.9295171716    25.3195708769
     21.1513658610     4.5269626902    13.8839391770
     16.8597500000    18.8308300000     5.1439100000
      6.4360000000    15.5962800000     8.0340800000
     13.6862100000    11.4633400000     9.7558000000
     10.2334500000    23.9118800000     3.4461500000
     11.0697800000    22.5249900000     5.0322000000
     12.1343300000    11.7073000000     8.1291800000
     18.4479500000    18.5064900000     3.5663700000
      5.6250000000    16.9834000000     9.6320800000
     15.7754400000    18.2516200000     2.5673600000
      8.1292200000    16.1102300000    10.1324400000
     16.7142300000    20.5389100000     3.0173400000
      6.3770400000    14.3855500000    10.6251100000
     10.9835500000    11.1776000000    10.7198300000
     12.7519900000    23.0730100000     2.9479100000
     11.9375000000    13.4390900000    10.2556600000
     11.0457600000    21.3159000000     2.4304800000
     14.2032800000    18.9886500000     5.2967300000
      7.5684000000    13.1090900000     7.9473400000
     13.3547700000    10.3233600000    12.0218900000
     11.6022500000    24.9966300000     1.1738900000
     14.1569200000    13.1115400000    12.0167600000
      9.3663200000    23.1609000000     1.1138200000
      9.3878900000    11.7796000000     8.0269300000
     12.2403200000    20.0894100000     5.1576400000
     18.8951100000    20.1861000000     1.1600200000
      4.7407800000    16.2257100000    11.9478400000
     18.0995500000    17.4317800000     1.1894300000
      7.0089700000    18.0080500000    12.0291100000
     13.9672300000    20.6430700000     3.0684300000
      9.2652900000    13.6392600000    10.0494500000
     16.4213400000    19.4179500000     0.1356300000
      7.2186900000    15.4540000000    13.0638900000
     23.2718680896    13.4665643362     2.7906865881
     17.8109217303    26.1329668434     1.2052862711
     10.7996211416    20.8820531729    11.0522667107
     13.3080927732    19.9657281687    11.2016583197
      9.7347435583    16.8599362260     0.3980152271
     10.7436008310    12.5974306789     2.9336063674
      5.7821607402     7.7494828284    12.1675708769
     19.2693658610    26.2059626902     0.7319391770
     12.2247500000    11.7648300000    18.2389100000
      1.8010000000     8.5302800000    21.1290800000
      9.0512100000     4.3973400000    22.8508000000
      5.5984500000    16.8458800000    16.5411500000
      6.4347800000    15.4589900000    18.1272000000
      7.4993300000     4.6413000000    21.2241800000
     13.8129500000    11.4404900000    16.6613700000
      0.9900000000     9.9174000000    22.7270800000
     11.1404400000    11.1856200000    15.6623600000
      3.4942200000     9.0442300000    23.2274400000
     12.0792300000    13.4729100000    16.1123400000
      1.7420400000     7.3195500000    23.7201100000
      6.3485500000     4.1116000000    23.8148300000
      8.1169900000    16.0070100000    16.0429100000
      7.3025000000     6.3730900000    23.3506600000
      6.4107600000    14.2499000000    15.5254800000
      9.5682800000    11.9226500000    18.3917300000
      2.9334000000     6.0430900000    21.0423400000
      8.7197700000     3.2573600000    25.1168900000
      6.9672500000    17.9306300000    14.2688900000
      9.5219200000     6.0455400000    25.1117600000
      4.7313200000    16.0949000000    14.2088200000
      4.7528900000     4.7136000000    21.1219300000
      7.6053200000    13.0234100000    18.2526400000
     14.2601100000    13.1201000000    14.2550200000
      0.1057800000     9.1597100000    25.0428400000
     13.4645500000    10.3657800000    14.2844300000
      2.3739700000    10.9420500000    25.1241100000
      9.3322300000    13.5770700000    16.1634300000
      4.6302900000     6.5732600000    23.1444500000
     11.7863400000    12.3519500000    13.2306300000
      2.5836900000     8.3880000000    26.1588900000
     18.6368680896     6.4005643362    15.8856865881
     13.1759217303    19.0669668434    14.3002862711
      6.1646211416    13.8160531729    24.1472667107
      8.6730927732    12.8997281687    24.2966583197
      5.0997435583     9.7939362260    13.4930152271
      6.1086008310     5.5314306789    16.0286063674
      1.1471607402     0.6834828284    25.2625708769
     14.6343658610    19.1399626902    13.8269391770
      0.1517206624     1.8176296683     1.9587834827
     10.7100440994    -5.0257271821    11.7944362470
      1.2002762742     0.3605119289     0.5610229824
      0.4147524250    -0.1330399821     3.2290005802
      8.6767081472    -4.9104109320    11.0820407490
      3.2541897582     8.6999209287     9.4023341314
     13.9312700805    -1.5971325448     4.1474487899
      8.5302248410    -5.9883666369    12.8622892623
      6.5837853540    12.7988767033     1.8008046593
      7.6331587020    11.2083593255     3.0658666781
     10.2616027775    -6.2832739911    10.8280246919
      3.0566009743     6.2236101962    12.1915455264
     -4.4832793376    -5.2483703317    15.0537834827
      6.0750440994   -12.0917271821    24.8894362470
     -3.4347237258    -6.7054880711    13.6560229824
     -4.2202475750    -7.1990399821    16.3240005802
      4.0417081472   -11.9764109320    24.1770407490
     -1.3808102418     1.6339209287    22.4973341314
      9.2962700805    -8.6631325448    17.2424487899
      3.8952248410   -13.0543666369    25.9572892623
      1.9487853540     5.7328767033    14.8958046593
      2.9981587020     4.1423593255    16.1608666781
      5.6266027775   -13.3492739911    23.9230246919
     -1.5783990257    -0.8423898038    25.2865455264
     -6.3652793376    16.4306296683     1.9017834827
      4.1930440994     9.5872728179    11.7374362470
     -5.3167237258    14.9735119289     0.5040229824
     -6.1022475750    14.4799600179     3.1720005802
      2.1597081472     9.7025890680    11.0250407490
     -3.2628102418    23.3129209287     9.3453341314
      7.4142700805    13.0158674552     4.0904487899
      2.0132248410     8.6246333631    12.8052892623
      0.0667853540    27.4118767033     1.7438046593
      1.1161587020    25.8213593255     3.0088666781
      3.7446027775     8.3297260089    10.7710246919
     -3.4603990257    20.8366101962    12.1345455264
    -11.0002793376     9.3646296683    14.9967834827
     -0.4419559006     2.5212728179    24.8324362470
     -9.9517237258     7.9075119289    13.5990229824
    -10.7372475750     7.4139600179    16.2670005802
     -2.4752918528     2.6365890680    24.1200407490
     -7.8978102418    16.2469209287    22.4403341314
      2.7792700805     5.9498674552    17.1854487899
     -2.6217751590     1.5586333631    25.9002892623
     -4.5682146460    20.3458767033    14.8388046593
     -3.5188412980    18.7553593255    16.1038666781
     -0.8903972225     1.2637260089    23.8660246919
     -8.0953990257    13.7706101962    25.2295455264
     16.1517206624     1.2606296683     2.0487834827
     26.7100440994    -5.5827271821    11.8844362470
     17.2002762742    -0.1964880711     0.6510229824
     16.4147524250    -0.6900399821     3.3190005802
     24.6767081472    -5.4674109320    11.1720407490
     19.2541897582     8.1429209287     9.4923341314
     29.9312700805    -2.1541325448     4.2374487899
     24.5302248410    -6.5453666369    12.9522892623
     22.5837853540    12.2418767033     1.8908046593
     23.6331587020    10.6513593255     3.1558666781
     26.2616027775    -6.8402739911    10.9180246919
     19.0566009743     5.6666101962    12.2815455264
     11.5167206624    -5.8053703317    15.1437834827
     22.0750440994   -12.6487271821    24.9794362470
     12.5652762742    -7.2624880711    13.7460229824
     11.7797524250    -7.7560399821    16.4140005802
     20.0417081472   -12.5334109320    24.2670407490
     14.6191897582     1.0769209287    22.5873341314
     25.2962700805    -9.2201325448    17.3324487899
     19.8952248410   -13.6113666369    26.0472892623
     17.9487853540     5.1758767033    14.9858046593
     18.9981587020     3.5853593255    16.2508666781
     21.6266027775   -13.9062739911    24.0130246919
     14.4216009743    -1.3993898038    25.3765455264
      9.6347206624    15.8736296683     1.9917834827
     20.1930440994     9.0302728179    11.8274362470
     10.6832762742    14.4165119289     0.5940229824
      9.8977524250    13.9229600179     3.2620005802
     18.1597081472     9.1455890680    11.1150407490
     12.7371897582    22.7559209287     9.4353341314
     23.4142700805    12.4588674552     4.1804487899
     18.0132248410     8.0676333631    12.8952892623
     16.0667853540    26.8548767033     1.8338046593
     17.1161587020    25.2643593255     3.0988666781
     19.7446027775     7.7727260089    10.8610246919
     12.5396009743    20.2796101962    12.2245455264
      4.9997206624     8.8076296683    15.0867834827
     15.5580440994     1.9642728179    24.9224362470
      6.0482762742     7.3505119289    13.6890229824
      5.2627524250     6.8569600179    16.3570005802
     13.5247081472     2.0795890680    24.2100407490
      8.1021897582    15.6899209287    22.5303341314
     18.7792700805     5.3928674552    17.2754487899
     13.3782248410     1.0016333631    25.9902892623
     11.4317853540    19.7888767033    14.9288046593
     12.4811587020    18.1983593255    16.1938666781
     15.1096027775     0.7067260089    23.9560246919
      7.9046009743    13.2136101962    25.3195455264
     14.3712212650    -1.0627901966     1.4538643092
      2.6068493717     6.9907700821    11.6058903046
      0.0095211919     1.3565999371     0.0973759270
     -6.5476489794    13.4851166051     1.8844495796
      9.7362212650    -8.1287901966    14.5488643092
     -2.0281506283    -0.0752299179    24.7008903046
     -4.6254788081    -5.7094000629    13.1923759270
    -11.1826489794     6.4191166051    14.9794495796
      7.8542212650    13.5502098034     1.3968643092
     -3.9101506283    21.6037700821    11.5488903046
     -6.5074788081    15.9695999371     0.0403759270
    -13.0646489794    28.0981166051     1.8274495796
      3.2192212650     6.4842098034    14.4918643092
     -8.5451506283    14.5377700821    24.6438903046
    -11.1424788081     8.9035999371    13.1353759270
    -17.6996489794    21.0321166051    14.9224495796
     30.3712212650    -1.6197901966     1.5438643092
     18.6068493717     6.4337700821    11.6958903046
     16.0095211919     0.7995999371     0.1873759270
      9.4523510206    12.9281166051     1.9744495796
     25.7362212650    -8.6857901966    14.6388643092
     13.9718493717    -0.6322299179    24.7908903046
     11.3745211919    -6.2664000629    13.2823759270
      4.8173510206     5.8621166051    15.0694495796
     23.8542212650    12.9932098034     1.4868643092
     12.0898493717    21.0467700821    11.6388903046
      9.4925211919    15.4125999371     0.1303759270
      2.9353510206    27.5411166051     1.9174495796
     19.2192212650     5.9272098034    14.5818643092
      7.4548493717    13.9807700821    24.7338903046
      4.8575211919     8.3465999371    13.2253759270
     -1.6996489794    20.4751166051    15.0124495796
