192
frame0027 prim | 192 atoms
Ti      -2.8554400000     2.2297600000    11.2464000000
Ti       7.9750400000     5.1109800000     1.8815900000
Ti       1.2412500000    -1.7064400000     9.4264200000
Ti       2.7524400000     7.4557000000     3.6533900000
Ti       1.7538600000     9.1340100000     1.7490000000
Ti       3.1294500000    -1.9607800000    11.3797900000
Ti      -1.9062400000     0.4938700000     9.3549200000
Ti       5.9872200000     5.4135300000     3.7290500000
H       -2.3535600000     6.1268500000    11.0269500000
H        8.7838200000     1.2049200000     2.2022700000
H       -6.8153400000     1.4731400000    10.8639500000
H       11.3571900000     7.1152700000     2.0822400000
H        4.1050600000    -5.9953200000    10.9938600000
H       -2.3046600000     8.5441100000     2.0710500000
H        2.2483200000     7.4972000000    -0.1240900000
H        6.0995100000     4.8682800000     0.1816500000
H        3.6393600000    -2.6278900000     5.8686900000
H        1.0290000000     9.2927200000     7.2723500000
H       -5.9788600000     3.8825000000     8.9990100000
H       10.7297900000     3.0266500000     4.1875900000
H       -3.6777500000     2.4350600000     5.6651700000
H       -1.3462100000    10.9618700000     4.1022400000
H        2.1461100000    12.2368400000     2.6044700000
H        8.6259900000    -0.8139200000     3.4047600000
H        4.8450600000     7.1358300000     2.3147600000
H        0.1605500000     0.1419600000    10.7200400000
H        7.3641900000    -0.0259300000     9.7694500000
H        5.8830700000    -0.4949900000    10.5167800000
H        7.9383100000     4.4077100000     8.6705500000
H        7.3686000000     4.7662900000     7.0520000000
H        6.8753800000    -4.9807600000     9.5794200000
H        5.5962300000    -3.8801800000    10.0368100000
C        8.5530700000     4.3697400000     4.7451200000
C       -3.8159900000     2.4911500000     8.3993700000
C        3.8217500000    -2.7171400000     8.5017000000
C        0.8163200000     9.4262100000     4.6127500000
C        9.4490900000     3.7654200000     5.7403100000
C       -4.7478900000     3.1161600000     7.4223200000
C        4.7619500000    -3.3314900000     7.5545100000
C       -0.0735000000    10.0730100000     5.6125400000
C        9.2003300000     3.8403400000     7.1467300000
C       -4.5315000000     2.9961800000     6.0343000000
C        5.8914000000    -4.0917900000     8.0075700000
C       -1.1682200000    10.8459600000     5.1676100000
C        0.1810000000     9.9022500000     6.9674200000
C        4.5142400000    -3.1993500000     6.1705800000
C       10.5827700000     3.0664400000     5.2646000000
C       -5.8480500000     3.8085800000     7.9210000000
C        8.7648500000     1.2839900000     0.0581800000
C        2.2951100000    13.0755800000     0.0831900000
C       11.2492800000     7.0471100000    -0.0678300000
C       -2.1090500000     8.5895400000    -0.0872100000
C        3.4991600000     5.1125200000     5.6179800000
C       -1.2569300000    -1.9818500000     7.5361200000
C        8.6289900000     2.7388500000     0.0349800000
C        2.2023600000    11.6420600000     0.0457000000
C        9.9514500000     6.4302800000    -0.0209600000
C       -0.7067400000     9.0038900000    -0.0627500000
C        8.8042000000     0.6148800000     1.2878600000
C       -2.3426400000     6.7152500000    11.9408400000
C       11.9045800000     7.3219100000     1.1661300000
C       -7.3768300000     1.2937600000    11.7793000000
C        7.3089400000     0.2494000000    11.7938000000
C       -2.8062400000     8.3591200000     1.1252600000
C        4.1467000000    -6.5224800000    11.9429100000
C        2.3088900000    13.8267700000     1.3124700000
N        2.3639500000    13.2279400000     2.5506300000
N        6.7299000000     0.0665500000    10.5548300000
N        8.1194500000     4.4865800000     7.6780200000
N        6.2224100000    -4.2500400000     9.3249700000
O        7.3767500000     4.7748300000     5.1109100000
O       -3.0470000000     1.5402800000     8.0010800000
O        4.2032100000    -2.5926600000     9.7228000000
O        0.7504500000     9.8558800000     3.4131500000
O        1.5867800000     8.4689900000     4.9992000000
O        2.6513300000    -2.3487000000     8.0961800000
O        8.9649500000     4.4504900000     3.5333700000
O       -3.8580000000     2.9274000000     9.5990800000
O        6.2924400000     4.1956200000     2.5343600000
O       -1.3537800000     2.0542300000    10.0994400000
O        7.2312300000     6.4829100000     2.9843400000
O       -3.1059600000     0.3295500000    10.5921100000
O        1.5005500000    -2.8784000000    10.6868300000
O        3.2689900000     9.0170100000     2.9149100000
O        2.4545000000    -0.6169100000    10.2226600000
O        1.5627600000     7.2599000000     2.3974800000
O        4.7202800000     4.9326500000     5.2637300000
O       -1.9146000000    -0.9469100000     7.9143400000
O        3.8717700000    -3.7326400000    11.9888900000
O        2.1192500000    10.9406300000     1.1408900000
O        4.6739200000    -0.9444600000    11.9837600000
O       -0.1166800000     9.1049000000     1.0808200000
O       -0.0951100000    -2.2764000000     7.9939300000
O        2.7573200000     6.0334100000     5.1246400000
O        9.4121100000     6.1301000000     1.1270200000
O       -4.7422200000     2.1697100000    11.9148400000
O        8.6165500000     3.3757800000     1.1564300000
O       -2.4740300000     3.9520500000    11.9961100000
O        4.4842300000     6.5870700000     3.0354300000
O       -0.2177100000    -0.4167400000    10.0164500000
O        6.9383400000     5.3619500000     0.1026300000
O        2.3706900000     8.4640000000    -0.0641100000
H        3.7892683312     1.5253365783     8.5764403724
H       -0.0859056941    -3.9723415940     6.1362341728
H        4.4288328019    10.0805421319     5.8001205006
H        4.7306369426     3.0313515258     6.8013120262
H        0.2385111775     3.9529776134     8.7419610218
H       -3.8842011557    -2.1549887929     7.0236852363
H        1.4994001932     1.9241780709     9.4292576667
H        1.1960771866     5.4611787446     6.9806170540
H        5.7618082244     8.3133210488     4.6727773083
H       -7.7630794703     8.8641976522     4.7371986396
C        2.9716134245     4.2730587428     6.7172411797
C        1.9308106162     2.6135203050     8.7046479883
C        6.2689524472     9.0920973878     5.2413385974
C       -1.9211891341    -2.9667094315     6.6539751887
C        1.7235286166     4.5650469830     7.2949507080
C        3.2157142616     2.3704957012     8.2010365753
C        5.5152247725    10.0950597208     5.8632351276
C       -1.1683706220    -3.9764454651     6.0313702716
C        7.6656330113     9.0860871011     5.3291849274
C       -3.3218478023    -2.9446912034     6.5322786533
C        3.7390782590     3.2040007662     7.2140460595
C        1.2018079536     3.7317499544     8.2859119210
N       -5.8221246285    18.1445469884    14.3188791027
N       -4.5821997946    16.9932182262    12.9398352903
C       -6.0330359816    18.6341300856    13.0433345880
C       -5.2926876262    17.8941658909    12.1718151418
C       -2.3497417369    17.1061453356    11.9327317236
C       -6.1937320050    18.8071911014    15.5789304800
C       -4.9147015788    17.1625663804    14.2294682977
C       -3.4602208594    16.1982244674    12.4438723425
H       -6.6007276416    19.5352209882    12.8647343302
H       -5.1691046958    17.9895689340    11.1077396415
H       -2.7129274958    17.7275963436    11.1091309696
H       -6.2189059034    19.8889922210    15.4064445226
H       -1.9657862820    17.7631058147    12.7236419280
H       -7.1562346619    18.4370571339    15.9035014920
H       -1.5193787254    16.5060139682    11.5401498153
H       -3.8075811445    15.5228941191    11.6535962418
H       -5.4294698623    18.5948265584    16.3261991413
H       -4.4575511154    16.6389266951    15.0730356663
H       -3.1322957881    15.5829544776    13.2901359871
N       -4.2452540063    21.9134595422    12.6954613427
C       -0.6792645678    22.2024191006    14.2388231814
C       -3.3487051072    24.1440646402     9.4845925169
O       -3.4317580128    22.0825095010    15.8502207453
O       -1.3752934937    19.5196459796    14.4036805358
O       -5.2981355697    21.1111072472    10.3388043452
O       -3.3955188153    21.0029005357     8.7925327969
F       -1.0082120043    22.9833785556    15.3399893147
F       -3.5207199433    26.2711196395    11.5247848772
F        0.4508906241    22.8310887634    13.7781846869
F       -1.9900877313    21.8872705665    17.5235579800
F       -3.9247620845    25.3552229288     9.4053111835
F       -3.7774803120    23.4993739663     8.2372731773
S       -3.3764235561    21.3221216405    13.7294382701
S       -3.9114789508    21.2923103147    10.1042235235
N        3.5443251433     1.5749493576     3.6385468744
N        1.7224011046     2.3202666161     4.5767553065
C        4.6962929627     1.4677973542     2.7088844274
C        2.6108239654     2.5446536290     3.5957401634
C        3.2384050122     0.7286863018     4.6852492833
C        4.8763435583     0.0956292199     2.0669678825
C        2.0855246700     1.1763431327     5.2652470494
C        0.4711698464     3.0730059721     4.7253305212
H        5.5827988349     1.8079802233     3.2657773807
H        4.5192873357     2.2259258356     1.9430441645
H        2.5276150966     3.3094371150     2.8420441512
H        5.8819899323     0.0354158936     1.6229548942
H        3.7971076159    -0.1905041753     4.8824312975
H        0.3652246426     3.4219314508     5.7515302805
H        0.4768261918     3.9227279376     4.0552086687
H        4.7679432287    -0.7173819405     2.7956590178
H        1.4776836624     0.7853839953     6.0651013648
H        4.1251427268    -0.0704708400     1.2982748876
H       -0.3690912791     2.4129975606     4.4588614570
N       -0.0413509447     0.5454215943     0.2291268761
C       -1.4813470645    -0.1854726370     3.7958191340
C       -2.0862495489     1.7019425895    -2.4003205434
O       -0.1085369663     3.0446774661    -0.3841830212
O        1.8887421938    -1.3879707800     3.0867990938
O        0.8933855916     1.3150935273    -2.0083930147
O        2.6727802528    -1.4669349019     0.7482970260
F       -2.4973260045     0.0721377133     4.8101428744
F       -3.2509162251     2.1490527340    -2.0135614105
F       -2.6187753232    -1.6144743581     1.3779273900
F       -1.3651167758    -1.5752422662     3.7499758204
F       -0.3161040698     2.5944597044    -3.7745509667
F       -1.2439253692    -1.2847458161    -2.0470213215
S       -0.1119172772     1.7481526698    -1.0334217557
S        1.5126759665    -1.3351006846     1.6685174886
