192
frame0034 prim | 192 atoms
Ti      -2.8554400000     2.2297600000    11.2464000000
Ti       7.9750400000     5.1109800000     1.8815900000
Ti       1.2412500000    -1.7064400000     9.4264200000
Ti       2.7524400000     7.4557000000     3.6533900000
Ti       1.7538600000     9.1340100000     1.7490000000
Ti       3.1294500000    -1.9607800000    11.3797900000
Ti      -1.9062400000     0.4938700000     9.3549200000
Ti       5.9872200000     5.4135300000     3.7290500000
H       -2.3535600000     6.1268500000    11.0269500000
H        8.7838200000     1.2049200000     2.2022700000
H       -6.8153400000     1.4731400000    10.8639500000
H       11.3571900000     7.1152700000     2.0822400000
H        4.1050600000    -5.9953200000    10.9938600000
H       -2.3046600000     8.5441100000     2.0710500000
H        2.2483200000     7.4972000000    -0.1240900000
H        6.0995100000     4.8682800000     0.1816500000
H        3.6393600000    -2.6278900000     5.8686900000
H        1.0290000000     9.2927200000     7.2723500000
H       -5.9788600000     3.8825000000     8.9990100000
H       10.7297900000     3.0266500000     4.1875900000
H       -3.6777500000     2.4350600000     5.6651700000
H       -1.3462100000    10.9618700000     4.1022400000
H        2.1461100000    12.2368400000     2.6044700000
H        8.6259900000    -0.8139200000     3.4047600000
H        4.8450600000     7.1358300000     2.3147600000
H        0.1605500000     0.1419600000    10.7200400000
H        7.3641900000    -0.0259300000     9.7694500000
H        5.8830700000    -0.4949900000    10.5167800000
H        7.9383100000     4.4077100000     8.6705500000
H        7.3686000000     4.7662900000     7.0520000000
H        6.8753800000    -4.9807600000     9.5794200000
H        5.5962300000    -3.8801800000    10.0368100000
C        8.5530700000     4.3697400000     4.7451200000
C       -3.8159900000     2.4911500000     8.3993700000
C        3.8217500000    -2.7171400000     8.5017000000
C        0.8163200000     9.4262100000     4.6127500000
C        9.4490900000     3.7654200000     5.7403100000
C       -4.7478900000     3.1161600000     7.4223200000
C        4.7619500000    -3.3314900000     7.5545100000
C       -0.0735000000    10.0730100000     5.6125400000
C        9.2003300000     3.8403400000     7.1467300000
C       -4.5315000000     2.9961800000     6.0343000000
C        5.8914000000    -4.0917900000     8.0075700000
C       -1.1682200000    10.8459600000     5.1676100000
C        0.1810000000     9.9022500000     6.9674200000
C        4.5142400000    -3.1993500000     6.1705800000
C       10.5827700000     3.0664400000     5.2646000000
C       -5.8480500000     3.8085800000     7.9210000000
C        8.7648500000     1.2839900000     0.0581800000
C        2.2951100000    13.0755800000     0.0831900000
C       11.2492800000     7.0471100000    -0.0678300000
C       -2.1090500000     8.5895400000    -0.0872100000
C        3.4991600000     5.1125200000     5.6179800000
C       -1.2569300000    -1.9818500000     7.5361200000
C        8.6289900000     2.7388500000     0.0349800000
C        2.2023600000    11.6420600000     0.0457000000
C        9.9514500000     6.4302800000    -0.0209600000
C       -0.7067400000     9.0038900000    -0.0627500000
C        8.8042000000     0.6148800000     1.2878600000
C       -2.3426400000     6.7152500000    11.9408400000
C       11.9045800000     7.3219100000     1.1661300000
C       -7.3768300000     1.2937600000    11.7793000000
C        7.3089400000     0.2494000000    11.7938000000
C       -2.8062400000     8.3591200000     1.1252600000
C        4.1467000000    -6.5224800000    11.9429100000
C        2.3088900000    13.8267700000     1.3124700000
N        2.3639500000    13.2279400000     2.5506300000
N        6.7299000000     0.0665500000    10.5548300000
N        8.1194500000     4.4865800000     7.6780200000
N        6.2224100000    -4.2500400000     9.3249700000
O        7.3767500000     4.7748300000     5.1109100000
O       -3.0470000000     1.5402800000     8.0010800000
O        4.2032100000    -2.5926600000     9.7228000000
O        0.7504500000     9.8558800000     3.4131500000
O        1.5867800000     8.4689900000     4.9992000000
O        2.6513300000    -2.3487000000     8.0961800000
O        8.9649500000     4.4504900000     3.5333700000
O       -3.8580000000     2.9274000000     9.5990800000
O        6.2924400000     4.1956200000     2.5343600000
O       -1.3537800000     2.0542300000    10.0994400000
O        7.2312300000     6.4829100000     2.9843400000
O       -3.1059600000     0.3295500000    10.5921100000
O        1.5005500000    -2.8784000000    10.6868300000
O        3.2689900000     9.0170100000     2.9149100000
O        2.4545000000    -0.6169100000    10.2226600000
O        1.5627600000     7.2599000000     2.3974800000
O        4.7202800000     4.9326500000     5.2637300000
O       -1.9146000000    -0.9469100000     7.9143400000
O        3.8717700000    -3.7326400000    11.9888900000
O        2.1192500000    10.9406300000     1.1408900000
O        4.6739200000    -0.9444600000    11.9837600000
O       -0.1166800000     9.1049000000     1.0808200000
O       -0.0951100000    -2.2764000000     7.9939300000
O        2.7573200000     6.0334100000     5.1246400000
O        9.4121100000     6.1301000000     1.1270200000
O       -4.7422200000     2.1697100000    11.9148400000
O        8.6165500000     3.3757800000     1.1564300000
O       -2.4740300000     3.9520500000    11.9961100000
O        4.4842300000     6.5870700000     3.0354300000
O       -0.2177100000    -0.4167400000    10.0164500000
O        6.9383400000     5.3619500000     0.1026300000
O        2.3706900000     8.4640000000    -0.0641100000
H        3.8048720200     1.5113573292     8.5605353175
H       -0.0887656083    -3.9468479124     6.0913799902
H        4.4215251596    10.0808812820     5.8168309047
H        4.7053659874     2.9809553712     6.7398626828
H        0.2126128095     3.8816738346     8.6953899945
H       -3.8859545064    -2.1618116331     7.0440346989
H        1.5597431383     1.9584482419     9.4984102118
H        1.1375405085     5.3755365045     6.8999098912
H        5.7482482769     8.3233090946     4.6681702576
H       -7.7748446010     8.8854838156     4.7038227892
C        2.9713246910     4.2626023278     6.7105040464
C        1.9619192162     2.6171132942     8.7289206108
C        6.2585772523     9.1003164645     5.2365338894
C       -1.9228072272    -2.9598863422     6.6464656229
C        1.7049958093     4.5229920081     7.2629707719
C        3.2345997814     2.3664968566     8.2031291179
C        5.5086347242    10.0984192909     5.8692166159
C       -1.1732971171    -3.9613660889     6.0075287049
C        7.6573194203     9.1048480501     5.3035863447
C       -3.3253014789    -2.9463368464     6.5422075189
C        3.7364249467     3.1806544829     7.1871027831
C        1.2023097325     3.7013467373     8.2736481804
N       -5.8422368300    18.1464857190    14.4188739044
N       -4.5609540968    17.0638331990    13.0070712904
C       -6.0662461211    18.6626745920    13.1625497456
C       -5.3100656881    17.9598109727    12.2744669331
C       -2.3052027125    17.1808961007    11.9813048727
C       -6.1790068617    18.8489334140    15.6700243706
C       -4.8930713154    17.2008312715    14.3109290181
C       -3.4345789373    16.2864140327    12.4860232702
H       -6.6420818184    19.5638135367    13.0121723610
H       -5.1739464944    18.1131792076    11.2161203382
H       -2.6290526866    17.8064983420    11.1407083394
H       -6.2833244278    19.9107552091    15.4395404122
H       -1.9148994874    17.8315846263    12.7759112028
H       -7.1001477222    18.4344484128    16.0812728231
H       -1.4939024206    16.5417155793    11.6126474685
H       -3.7972715541    15.6303777946    11.6843389355
H       -5.3457890656    18.7325323498    16.3714865105
H       -4.4189700158    16.6932740908    15.1524805154
H       -3.1006363223    15.6494443380    13.3123946555
N       -4.2533065293    21.9005713714    12.8466205552
C       -0.5568611042    22.1154238221    14.0976058451
C       -2.9924479750    24.2434420550     9.3039157591
O       -3.5969871976    22.1430925422    15.9233008935
O       -1.4482851938    19.5187224885    14.4206541225
O       -5.0404341815    21.0243611139    10.3020912395
O       -3.1387326456    21.3579132032     8.7399253030
F       -0.8829627824    22.8700328151    15.2257918209
F       -3.3240910384    26.3652493963    11.6597738205
F        0.6180988149    22.6733970536    13.6110626742
F       -2.1181003832    21.9454257862    17.5934505235
F       -3.4655028668    25.4780129564     9.4029832522
F       -3.6554607675    23.7131130830     8.2554283983
S       -3.3464850675    21.3505214596    13.8477514388
S       -3.6658222499    21.4876815739    10.0739604720
N        3.6041878753     1.6234321473     3.6195337685
N        1.7313586372     2.3640999782     4.4687437757
C        4.8267069176     1.5252144706     2.7923475457
C        2.6666618918     2.5827361595     3.5262990172
C        3.2583809200     0.7774387724     4.6526334475
C        5.0528162562     0.1445231503     2.1865593619
C        2.0813969986     1.2397818495     5.1813574790
C        0.4546727802     3.0835931205     4.5495921894
H        5.6691597848     1.8261883588     3.4345770492
H        4.7410635979     2.2912902610     2.0150484075
H        2.6293898374     3.3641195591     2.7718479875
H        6.0283997759     0.1525464627     1.6806046038
H        3.8358071934    -0.1135848724     4.8852457341
H        0.2623011988     3.3497537068     5.5969503481
H        0.4976666329     3.9840631000     3.9292235295
H        5.0832802829    -0.6401675441     2.9570040123
H        1.4527958041     0.8524155336     5.9750196288
H        4.2751080121    -0.1334845623     1.4657059321
H       -0.3312610044     2.4139108416     4.1741153684
N        0.0697942759     0.5039754435     0.0055078373
C       -1.6464462806    -0.0851943053     3.9094402761
C       -1.5993657247     1.7042735778    -2.4050311454
O        0.0353069777     3.0512879988    -0.4747538443
O        1.8417513728    -1.2402657281     3.0732287627
O        1.1536401064     1.3932074174    -2.0778443937
O        2.5717717201    -1.6467245222     0.7044342831
F       -2.6376173545     0.0447835043     4.9672526617
F       -2.7384694855     2.1351719833    -1.8808164643
F       -2.5494309055    -1.6806599663     1.3793423895
F       -1.5170041107    -1.4668169309     3.8429841082
F        0.0147205468     2.6878105378    -3.9408880577
F       -1.0437881742    -1.1171120645    -2.0961644285
S        0.0828350715     1.7322825654    -1.1141436492
S        1.4644319467    -1.3139173873     1.6477404173
