192
frame0005 prim | 192 atoms
Ti      -2.8554400000     2.2297600000    11.2464000000
Ti       7.9750400000     5.1109800000     1.8815900000
Ti       1.2412500000    -1.7064400000     9.4264200000
Ti       2.7524400000     7.4557000000     3.6533900000
Ti       1.7538600000     9.1340100000     1.7490000000
Ti       3.1294500000    -1.9607800000    11.3797900000
Ti      -1.9062400000     0.4938700000     9.3549200000
Ti       5.9872200000     5.4135300000     3.7290500000
H       -2.3535600000     6.1268500000    11.0269500000
H        8.7838200000     1.2049200000     2.2022700000
H       -6.8153400000     1.4731400000    10.8639500000
H       11.3571900000     7.1152700000     2.0822400000
H        4.1050600000    -5.9953200000    10.9938600000
H       -2.3046600000     8.5441100000     2.0710500000
H        2.2483200000     7.4972000000    -0.1240900000
H        6.0995100000     4.8682800000     0.1816500000
H        3.6393600000    -2.6278900000     5.8686900000
H        1.0290000000     9.2927200000     7.2723500000
H       -5.9788600000     3.8825000000     8.9990100000
H       10.7297900000     3.0266500000     4.1875900000
H       -3.6777500000     2.4350600000     5.6651700000
H       -1.3462100000    10.9618700000     4.1022400000
H        2.1461100000    12.2368400000     2.6044700000
H        8.6259900000    -0.8139200000     3.4047600000
H        4.8450600000     7.1358300000     2.3147600000
H        0.1605500000     0.1419600000    10.7200400000
H        7.3641900000    -0.0259300000     9.7694500000
H        5.8830700000    -0.4949900000    10.5167800000
H        7.9383100000     4.4077100000     8.6705500000
H        7.3686000000     4.7662900000     7.0520000000
H        6.8753800000    -4.9807600000     9.5794200000
H        5.5962300000    -3.8801800000    10.0368100000
C        8.5530700000     4.3697400000     4.7451200000
C       -3.8159900000     2.4911500000     8.3993700000
C        3.8217500000    -2.7171400000     8.5017000000
C        0.8163200000     9.4262100000     4.6127500000
C        9.4490900000     3.7654200000     5.7403100000
C       -4.7478900000     3.1161600000     7.4223200000
C        4.7619500000    -3.3314900000     7.5545100000
C       -0.0735000000    10.0730100000     5.6125400000
C        9.2003300000     3.8403400000     7.1467300000
C       -4.5315000000     2.9961800000     6.0343000000
C        5.8914000000    -4.0917900000     8.0075700000
C       -1.1682200000    10.8459600000     5.1676100000
C        0.1810000000     9.9022500000     6.9674200000
C        4.5142400000    -3.1993500000     6.1705800000
C       10.5827700000     3.0664400000     5.2646000000
C       -5.8480500000     3.8085800000     7.9210000000
C        8.7648500000     1.2839900000     0.0581800000
C        2.2951100000    13.0755800000     0.0831900000
C       11.2492800000     7.0471100000    -0.0678300000
C       -2.1090500000     8.5895400000    -0.0872100000
C        3.4991600000     5.1125200000     5.6179800000
C       -1.2569300000    -1.9818500000     7.5361200000
C        8.6289900000     2.7388500000     0.0349800000
C        2.2023600000    11.6420600000     0.0457000000
C        9.9514500000     6.4302800000    -0.0209600000
C       -0.7067400000     9.0038900000    -0.0627500000
C        8.8042000000     0.6148800000     1.2878600000
C       -2.3426400000     6.7152500000    11.9408400000
C       11.9045800000     7.3219100000     1.1661300000
C       -7.3768300000     1.2937600000    11.7793000000
C        7.3089400000     0.2494000000    11.7938000000
C       -2.8062400000     8.3591200000     1.1252600000
C        4.1467000000    -6.5224800000    11.9429100000
C        2.3088900000    13.8267700000     1.3124700000
N        2.3639500000    13.2279400000     2.5506300000
N        6.7299000000     0.0665500000    10.5548300000
N        8.1194500000     4.4865800000     7.6780200000
N        6.2224100000    -4.2500400000     9.3249700000
O        7.3767500000     4.7748300000     5.1109100000
O       -3.0470000000     1.5402800000     8.0010800000
O        4.2032100000    -2.5926600000     9.7228000000
O        0.7504500000     9.8558800000     3.4131500000
O        1.5867800000     8.4689900000     4.9992000000
O        2.6513300000    -2.3487000000     8.0961800000
O        8.9649500000     4.4504900000     3.5333700000
O       -3.8580000000     2.9274000000     9.5990800000
O        6.2924400000     4.1956200000     2.5343600000
O       -1.3537800000     2.0542300000    10.0994400000
O        7.2312300000     6.4829100000     2.9843400000
O       -3.1059600000     0.3295500000    10.5921100000
O        1.5005500000    -2.8784000000    10.6868300000
O        3.2689900000     9.0170100000     2.9149100000
O        2.4545000000    -0.6169100000    10.2226600000
O        1.5627600000     7.2599000000     2.3974800000
O        4.7202800000     4.9326500000     5.2637300000
O       -1.9146000000    -0.9469100000     7.9143400000
O        3.8717700000    -3.7326400000    11.9888900000
O        2.1192500000    10.9406300000     1.1408900000
O        4.6739200000    -0.9444600000    11.9837600000
O       -0.1166800000     9.1049000000     1.0808200000
O       -0.0951100000    -2.2764000000     7.9939300000
O        2.7573200000     6.0334100000     5.1246400000
O        9.4121100000     6.1301000000     1.1270200000
O       -4.7422200000     2.1697100000    11.9148400000
O        8.6165500000     3.3757800000     1.1564300000
O       -2.4740300000     3.9520500000    11.9961100000
O        4.4842300000     6.5870700000     3.0354300000
O       -0.2177100000    -0.4167400000    10.0164500000
O        6.9383400000     5.3619500000     0.1026300000
O        2.3706900000     8.4640000000    -0.0641100000
H        3.7004235853     1.4613836447     8.5214004786
H       -0.0871562946    -3.9979788457     6.1650899756
H        4.4540336869    10.2147213070     5.5833117591
H        4.6974013369     3.0056216633     6.8049332647
H        0.0416964116     3.7269167123     8.4309699251
H       -3.8702861899    -2.0949011979     6.9233772490
H        1.3734438976     1.8297989097     9.2940653903
H        1.0411780198     5.2688726696     6.7095635286
H        5.7901142862     8.4455579404     4.4654394394
H       -7.7540481014     8.9086221961     4.6607073344
C        2.9220675631     4.2178558240     6.6516513285
C        1.8130846654     2.5052281690     8.5617580058
C        6.2882327200     9.1853347840     5.0912780760
C       -1.9135632999    -2.9479849257     6.6221330386
C        1.6078839295     4.4302707428     7.1093069456
C        3.1267441088     2.2960875499     8.1211290737
C        5.5355501419    10.1921808440     5.7074197302
C       -1.1636404594    -3.9681820249     6.0108190228
C        7.6777119276     9.1349815674     5.2498105253
C       -3.3075628184    -2.8902818552     6.4403773442
C        3.6821694343     3.1513607644     7.1683553766
C        1.0562497012     3.5745794513     8.0646680184
N       -5.5847586098    18.4369080996    14.3167010279
N       -4.3851439341    17.3811439227    12.8132441599
C       -5.8001712097    19.0538368138    13.0894923987
C       -5.0754274446    18.3783672750    12.1461660208
C       -2.1193519042    17.3270420527    11.8145225409
C       -6.0531850095    18.9653490599    15.6187852411
C       -4.6840005854    17.4531065010    14.1265806920
C       -3.3487189173    16.5177764096    12.2169474720
H       -6.3740736710    19.9680130777    12.9963538687
H       -4.9971703627    18.5242051808    11.0758671229
H       -2.3815079772    18.1229785570    11.1057534110
H       -6.4453048523    19.9784470466    15.4749547962
H       -1.6529313255    17.7991596985    12.6863115509
H       -6.7436348882    18.2819264151    16.0835800942
H       -1.3854341529    16.6659966541    11.3367180953
H       -3.7932260961    15.9979101384    11.3595535951
H       -5.2128506322    19.0638352948    16.3061804463
H       -4.1974995636    16.8750705608    14.9011200764
H       -3.1134945592    15.7576936973    12.9694167055
N       -4.1083943670    21.8980731787    13.2524818163
C       -1.2865783456    21.9519206365    14.7934785941
C       -3.3686026735    23.4127542486    10.9887997989
O       -3.8850828441    21.5767221035    15.7403904442
O       -2.7991893871    19.5468072634    14.2351938997
O       -5.2032815435    21.4231302034    10.9438319941
O       -2.6934093661    20.5274067729    10.9767420633
F       -1.5550172214    23.4473199759    15.0786819649
F       -2.3670239242    24.3355830280    11.6733838604
F       -0.3214856253    22.1521949752    13.7431897764
F       -1.5042475750    21.5142695994    16.4823552588
F       -4.3750239884    24.2889382809    10.8822763148
F       -3.3936407481    23.2437449496     9.2603317107
S       -3.3275020814    21.0439387819    14.4304513039
S       -3.9181761176    21.5882294993    11.5389780184
N        3.0300662037     1.4254173426     3.1306432086
N        1.1384811432     2.1051081329     4.0359215216
C        4.0228252343     1.1326305746     2.0691125692
C        1.9591963739     2.2249519027     2.9599487154
C        2.9605210051     0.8744501859     4.4003665538
C        3.8114291411    -0.2148354836     1.3773583496
C        1.7804815979     1.2880025766     4.9562841635
C       -0.2936416563     2.4884165953     4.1291727343
H        4.9972024414     1.1634665086     2.5647221549
H        3.9827315869     1.9637088312     1.3508884748
H        1.7270385577     2.6758929694     2.0006316938
H        4.6482031504    -0.4340042926     0.7048269099
H        3.7839453380     0.2970643100     4.7874816083
H       -0.4293107192     3.1778154591     4.9585482589
H       -0.6101253793     2.9781972642     3.2046277326
H        3.6638212373    -1.0369114770     2.0871198917
H        1.3390515699     1.0709324385     5.9182127219
H        2.9413247853    -0.2100652699     0.7298182749
H       -0.9355922208     1.5937161950     4.2206361599
N       -0.5988920418     0.5317302167     1.4156400184
C       -1.8041755655    -1.4836925407     2.8232212981
C       -1.6266432468     0.9760959869    -0.9115476096
O        0.3671183546     2.8612936441     0.3534023417
O        1.5029877581    -1.5350132827     2.6960340580
O        0.8581790421     0.6855553140    -1.0132992512
O        0.3814956591    -1.8026495247     0.5267395317
F       -2.0885577128    -1.0502053646     4.1194524857
F       -2.8750305955     1.6732848452    -0.3060064438
F       -2.9310126662    -1.3401249335     1.7978878621
F       -1.8362931150    -2.8641879934     3.1194603793
F       -1.0486427885     1.3467759233    -2.3827667633
F       -1.7778801126    -0.8070715493    -0.9476611155
S        0.0493743499     1.4249277604     0.0791176276
S        0.0166534406    -1.1491952518     1.9129303067
