192
frame0015 prim | 192 atoms
Ti      -2.8554400000     2.2297600000    11.2464000000
Ti       7.9750400000     5.1109800000     1.8815900000
Ti       1.2412500000    -1.7064400000     9.4264200000
Ti       2.7524400000     7.4557000000     3.6533900000
Ti       1.7538600000     9.1340100000     1.7490000000
Ti       3.1294500000    -1.9607800000    11.3797900000
Ti      -1.9062400000     0.4938700000     9.3549200000
Ti       5.9872200000     5.4135300000     3.7290500000
H       -2.3535600000     6.1268500000    11.0269500000
H        8.7838200000     1.2049200000     2.2022700000
H       -6.8153400000     1.4731400000    10.8639500000
H       11.3571900000     7.1152700000     2.0822400000
H        4.1050600000    -5.9953200000    10.9938600000
H       -2.3046600000     8.5441100000     2.0710500000
H        2.2483200000     7.4972000000    -0.1240900000
H        6.0995100000     4.8682800000     0.1816500000
H        3.6393600000    -2.6278900000     5.8686900000
H        1.0290000000     9.2927200000     7.2723500000
H       -5.9788600000     3.8825000000     8.9990100000
H       10.7297900000     3.0266500000     4.1875900000
H       -3.6777500000     2.4350600000     5.6651700000
H       -1.3462100000    10.9618700000     4.1022400000
H        2.1461100000    12.2368400000     2.6044700000
H        8.6259900000    -0.8139200000     3.4047600000
H        4.8450600000     7.1358300000     2.3147600000
H        0.1605500000     0.1419600000    10.7200400000
H        7.3641900000    -0.0259300000     9.7694500000
H        5.8830700000    -0.4949900000    10.5167800000
H        7.9383100000     4.4077100000     8.6705500000
H        7.3686000000     4.7662900000     7.0520000000
H        6.8753800000    -4.9807600000     9.5794200000
H        5.5962300000    -3.8801800000    10.0368100000
C        8.5530700000     4.3697400000     4.7451200000
C       -3.8159900000     2.4911500000     8.3993700000
C        3.8217500000    -2.7171400000     8.5017000000
C        0.8163200000     9.4262100000     4.6127500000
C        9.4490900000     3.7654200000     5.7403100000
C       -4.7478900000     3.1161600000     7.4223200000
C        4.7619500000    -3.3314900000     7.5545100000
C       -0.0735000000    10.0730100000     5.6125400000
C        9.2003300000     3.8403400000     7.1467300000
C       -4.5315000000     2.9961800000     6.0343000000
C        5.8914000000    -4.0917900000     8.0075700000
C       -1.1682200000    10.8459600000     5.1676100000
C        0.1810000000     9.9022500000     6.9674200000
C        4.5142400000    -3.1993500000     6.1705800000
C       10.5827700000     3.0664400000     5.2646000000
C       -5.8480500000     3.8085800000     7.9210000000
C        8.7648500000     1.2839900000     0.0581800000
C        2.2951100000    13.0755800000     0.0831900000
C       11.2492800000     7.0471100000    -0.0678300000
C       -2.1090500000     8.5895400000    -0.0872100000
C        3.4991600000     5.1125200000     5.6179800000
C       -1.2569300000    -1.9818500000     7.5361200000
C        8.6289900000     2.7388500000     0.0349800000
C        2.2023600000    11.6420600000     0.0457000000
C        9.9514500000     6.4302800000    -0.0209600000
C       -0.7067400000     9.0038900000    -0.0627500000
C        8.8042000000     0.6148800000     1.2878600000
C       -2.3426400000     6.7152500000    11.9408400000
C       11.9045800000     7.3219100000     1.1661300000
C       -7.3768300000     1.2937600000    11.7793000000
C        7.3089400000     0.2494000000    11.7938000000
C       -2.8062400000     8.3591200000     1.1252600000
C        4.1467000000    -6.5224800000    11.9429100000
C        2.3088900000    13.8267700000     1.3124700000
N        2.3639500000    13.2279400000     2.5506300000
N        6.7299000000     0.0665500000    10.5548300000
N        8.1194500000     4.4865800000     7.6780200000
N        6.2224100000    -4.2500400000     9.3249700000
O        7.3767500000     4.7748300000     5.1109100000
O       -3.0470000000     1.5402800000     8.0010800000
O        4.2032100000    -2.5926600000     9.7228000000
O        0.7504500000     9.8558800000     3.4131500000
O        1.5867800000     8.4689900000     4.9992000000
O        2.6513300000    -2.3487000000     8.0961800000
O        8.9649500000     4.4504900000     3.5333700000
O       -3.8580000000     2.9274000000     9.5990800000
O        6.2924400000     4.1956200000     2.5343600000
O       -1.3537800000     2.0542300000    10.0994400000
O        7.2312300000     6.4829100000     2.9843400000
O       -3.1059600000     0.3295500000    10.5921100000
O        1.5005500000    -2.8784000000    10.6868300000
O        3.2689900000     9.0170100000     2.9149100000
O        2.4545000000    -0.6169100000    10.2226600000
O        1.5627600000     7.2599000000     2.3974800000
O        4.7202800000     4.9326500000     5.2637300000
O       -1.9146000000    -0.9469100000     7.9143400000
O        3.8717700000    -3.7326400000    11.9888900000
O        2.1192500000    10.9406300000     1.1408900000
O        4.6739200000    -0.9444600000    11.9837600000
O       -0.1166800000     9.1049000000     1.0808200000
O       -0.0951100000    -2.2764000000     7.9939300000
O        2.7573200000     6.0334100000     5.1246400000
O        9.4121100000     6.1301000000     1.1270200000
O       -4.7422200000     2.1697100000    11.9148400000
O        8.6165500000     3.3757800000     1.1564300000
O       -2.4740300000     3.9520500000    11.9961100000
O        4.4842300000     6.5870700000     3.0354300000
O       -0.2177100000    -0.4167400000    10.0164500000
O        6.9383400000     5.3619500000     0.1026300000
O        2.3706900000     8.4640000000    -0.0641100000
H        3.7200548788     1.4882851135     8.5479324418
H       -0.0969689772    -4.0560439276     6.2669689635
H        4.4459671563    10.1657193828     5.6523938540
H        4.7129315351     3.0276191395     6.8277512991
H        0.0626024775     3.7530796481     8.4537345874
H       -3.8812058733    -2.1320677664     6.9783235746
H        1.3807950715     1.8401367418     9.3002640275
H        1.0891466368     5.3333064522     6.7855075615
H        5.7904906509     8.4014558879     4.5367816136
H       -7.7541154164     8.8560428529     4.7502856500
C        2.9441081296     4.2474898715     6.6863327737
C        1.8283365988     2.5238297678     8.5808192705
C        6.2861626502     9.1410553870     5.1638640506
C       -1.9234608719    -2.9834942893     6.6767796883
C        1.6441098025     4.4774731352     7.1660174155
C        3.1477519677     2.3259992692     8.1528216236
C        5.5268910871    10.1441433474     5.7786762904
C       -1.1701998744    -4.0166449934     6.0891545842
C        7.6748960512     9.0855668270     5.3310984404
C       -3.3182212971    -2.9328614885     6.5048092318
C        3.7017211741     3.1793876030     7.1979522618
C        1.0814354413     3.6050657965     8.0983238327
N       -6.0361491554    17.9543963658    14.2697479757
N       -4.5630859167    17.1336740058    12.8694185984
C       -6.1577932729    18.6017399706    13.0653498215
C       -5.2430948318    18.1127602571    12.1849117003
C       -2.2095327326    17.2736933853    11.8255017250
C       -6.4793794684    18.5795847281    15.5243231085
C       -4.9873543475    17.0852347275    14.1234255094
C       -3.3994744465    16.4258531197    12.2828074484
H       -6.8105978828    19.4555123010    12.9628823162
H       -5.0355431133    18.4331865270    11.1915793278
H       -2.4953606487    18.0102572271    11.0704628752
H       -6.6337523133    19.6412529897    15.3668839740
H       -1.7320601744    17.8030411438    12.6581123231
H       -7.4063887810    18.1189399987    15.8412395430
H       -1.4822745529    16.5977102511    11.3561063753
H       -3.7897951983    15.8623682480    11.4277019217
H       -5.7917411841    18.3858194536    16.3390650246
H       -4.6293716442    16.4250021009    14.9197510516
H       -3.0800902026    15.7021716111    13.0355907144
N       -4.5141015582    21.1618600329    12.8612906334
C       -1.1819839126    22.2528167221    14.6289872834
C       -3.8200621351    23.7899570659    10.2151560438
O       -3.8399731350    21.8368884314    15.7423658956
O       -2.0719412489    19.2922477592    14.4011611282
O       -5.1137980166    20.2654992863    10.1627314107
O       -2.6001002641    21.0352136858     8.6707213153
F       -1.2040836535    23.5264178094    15.3654090621
F       -3.8537978562    26.1242759492    11.7655825671
F        0.1773882069    22.8634732289    13.8197582162
F       -1.9451231348    21.4628097043    17.1263369872
F       -4.1823014406    24.9452870260     9.8701925425
F       -4.3366300117    22.9178766697     8.3018211381
S       -3.4683309094    20.9087635414    14.3390786237
S       -3.9670382152    21.0626051571    10.6550021619
N        3.2618974171     1.4985619512     3.4411716902
N        1.6083578751     2.4393724340     4.5891740951
C        4.3158419211     1.2709149400     2.3948676134
C        2.3821272050     2.5498141174     3.4821679191
C        3.0912323090     0.8024690658     4.5915797505
C        4.2076403755    -0.1219727689     1.7566619266
C        1.9887697842     1.2096112831     5.2373054674
C        0.2634576478     2.9997266821     4.7961614060
H        5.2924788256     1.4173203766     2.8669037406
H        4.1647578444     2.0193313827     1.6149881357
H        2.2286983588     3.2960862594     2.7152569900
H        5.1459394349    -0.3154034159     1.2212365554
H        3.6734340350    -0.1460584183     4.7539423617
H        0.2375195477     3.4216080963     5.7981826604
H        0.0639526347     3.7848680774     4.0467660498
H        4.0471785584    -0.9561796103     2.4512896085
H        1.5399600271     0.9704117366     6.1776289968
H        3.4068505478    -0.1318294799     1.0160698975
H       -0.5047418678     2.2084420907     4.6927647852
N       -0.4260458060     0.5925894912     0.6043979935
C       -1.5846982622    -0.6255023733     3.9650660053
C       -2.3087124153     1.2888909089    -1.4880926768
O        0.7067937137     3.3652477489    -0.1390300423
O        1.7516761638    -1.8811424756     2.6426745376
O        0.9770517143     1.1962057908    -1.4749841985
O        1.6810382784    -1.3386672154     0.1593749007
F       -2.3601611931    -0.7163162400     5.0790332986
F       -3.4275136947     1.8166692859    -0.7710306961
F       -2.9661589409    -1.7456911785     1.9157815846
F       -1.3888985402    -1.8639756614     3.5345284853
F       -0.7172987724     2.3065165197    -3.0569090999
F       -1.1584218352    -1.5352450074    -1.8616553180
S        0.2002894572     2.0804532226    -0.6329789353
S        1.0543117698    -1.3977713399     1.5068155183
