192
frame0020 prim | 192 atoms
Ti      -2.8554400000     2.2297600000    11.2464000000
Ti       7.9750400000     5.1109800000     1.8815900000
Ti       1.2412500000    -1.7064400000     9.4264200000
Ti       2.7524400000     7.4557000000     3.6533900000
Ti       1.7538600000     9.1340100000     1.7490000000
Ti       3.1294500000    -1.9607800000    11.3797900000
Ti      -1.9062400000     0.4938700000     9.3549200000
Ti       5.9872200000     5.4135300000     3.7290500000
H       -2.3535600000     6.1268500000    11.0269500000
H        8.7838200000     1.2049200000     2.2022700000
H       -6.8153400000     1.4731400000    10.8639500000
H       11.3571900000     7.1152700000     2.0822400000
H        4.1050600000    -5.9953200000    10.9938600000
H       -2.3046600000     8.5441100000     2.0710500000
H        2.2483200000     7.4972000000    -0.1240900000
H        6.0995100000     4.8682800000     0.1816500000
H        3.6393600000    -2.6278900000     5.8686900000
H        1.0290000000     9.2927200000     7.2723500000
H       -5.9788600000     3.8825000000     8.9990100000
H       10.7297900000     3.0266500000     4.1875900000
H       -3.6777500000     2.4350600000     5.6651700000
H       -1.3462100000    10.9618700000     4.1022400000
H        2.1461100000    12.2368400000     2.6044700000
H        8.6259900000    -0.8139200000     3.4047600000
H        4.8450600000     7.1358300000     2.3147600000
H        0.1605500000     0.1419600000    10.7200400000
H        7.3641900000    -0.0259300000     9.7694500000
H        5.8830700000    -0.4949900000    10.5167800000
H        7.9383100000     4.4077100000     8.6705500000
H        7.3686000000     4.7662900000     7.0520000000
H        6.8753800000    -4.9807600000     9.5794200000
H        5.5962300000    -3.8801800000    10.0368100000
C        8.5530700000     4.3697400000     4.7451200000
C       -3.8159900000     2.4911500000     8.3993700000
C        3.8217500000    -2.7171400000     8.5017000000
C        0.8163200000     9.4262100000     4.6127500000
C        9.4490900000     3.7654200000     5.7403100000
C       -4.7478900000     3.1161600000     7.4223200000
C        4.7619500000    -3.3314900000     7.5545100000
C       -0.0735000000    10.0730100000     5.6125400000
C        9.2003300000     3.8403400000     7.1467300000
C       -4.5315000000     2.9961800000     6.0343000000
C        5.8914000000    -4.0917900000     8.0075700000
C       -1.1682200000    10.8459600000     5.1676100000
C        0.1810000000     9.9022500000     6.9674200000
C        4.5142400000    -3.1993500000     6.1705800000
C       10.5827700000     3.0664400000     5.2646000000
C       -5.8480500000     3.8085800000     7.9210000000
C        8.7648500000     1.2839900000     0.0581800000
C        2.2951100000    13.0755800000     0.0831900000
C       11.2492800000     7.0471100000    -0.0678300000
C       -2.1090500000     8.5895400000    -0.0872100000
C        3.4991600000     5.1125200000     5.6179800000
C       -1.2569300000    -1.9818500000     7.5361200000
C        8.6289900000     2.7388500000     0.0349800000
C        2.2023600000    11.6420600000     0.0457000000
C        9.9514500000     6.4302800000    -0.0209600000
C       -0.7067400000     9.0038900000    -0.0627500000
C        8.8042000000     0.6148800000     1.2878600000
C       -2.3426400000     6.7152500000    11.9408400000
C       11.9045800000     7.3219100000     1.1661300000
C       -7.3768300000     1.2937600000    11.7793000000
C        7.3089400000     0.2494000000    11.7938000000
C       -2.8062400000     8.3591200000     1.1252600000
C        4.1467000000    -6.5224800000    11.9429100000
C        2.3088900000    13.8267700000     1.3124700000
N        2.3639500000    13.2279400000     2.5506300000
N        6.7299000000     0.0665500000    10.5548300000
N        8.1194500000     4.4865800000     7.6780200000
N        6.2224100000    -4.2500400000     9.3249700000
O        7.3767500000     4.7748300000     5.1109100000
O       -3.0470000000     1.5402800000     8.0010800000
O        4.2032100000    -2.5926600000     9.7228000000
O        0.7504500000     9.8558800000     3.4131500000
O        1.5867800000     8.4689900000     4.9992000000
O        2.6513300000    -2.3487000000     8.0961800000
O        8.9649500000     4.4504900000     3.5333700000
O       -3.8580000000     2.9274000000     9.5990800000
O        6.2924400000     4.1956200000     2.5343600000
O       -1.3537800000     2.0542300000    10.0994400000
O        7.2312300000     6.4829100000     2.9843400000
O       -3.1059600000     0.3295500000    10.5921100000
O        1.5005500000    -2.8784000000    10.6868300000
O        3.2689900000     9.0170100000     2.9149100000
O        2.4545000000    -0.6169100000    10.2226600000
O        1.5627600000     7.2599000000     2.3974800000
O        4.7202800000     4.9326500000     5.2637300000
O       -1.9146000000    -0.9469100000     7.9143400000
O        3.8717700000    -3.7326400000    11.9888900000
O        2.1192500000    10.9406300000     1.1408900000
O        4.6739200000    -0.9444600000    11.9837600000
O       -0.1166800000     9.1049000000     1.0808200000
O       -0.0951100000    -2.2764000000     7.9939300000
O        2.7573200000     6.0334100000     5.1246400000
O        9.4121100000     6.1301000000     1.1270200000
O       -4.7422200000     2.1697100000    11.9148400000
O        8.6165500000     3.3757800000     1.1564300000
O       -2.4740300000     3.9520500000    11.9961100000
O        4.4842300000     6.5870700000     3.0354300000
O       -0.2177100000    -0.4167400000    10.0164500000
O        6.9383400000     5.3619500000     0.1026300000
O        2.3706900000     8.4640000000    -0.0641100000
H        3.7465362672     1.5035352396     8.5672072496
H       -0.0964876026    -4.0369848887     6.2269664705
H        4.4359323316    10.1136294325     5.7196876448
H        4.7321246593     3.0331105907     6.8433233306
H        0.1199771686     3.8194574799     8.5512868997
H       -3.8936547864    -2.1674647855     7.0148164455
H        1.4088702218     1.8483398479     9.3175365503
H        1.1532244705     5.4170983968     6.9082541172
H        5.7809060709     8.3731129192     4.5644949775
H       -7.7571624886     8.8450918973     4.7613288489
C        2.9732730056     4.2799540122     6.7272203165
C        1.8665080147     2.5577869296     8.6291456845
C        6.2782694807     9.1146240607     5.1895792929
C       -1.9250551007    -2.9811863166     6.6707421014
C        1.6986964139     4.5434697508     7.2602835420
C        3.1800876703     2.3528999595     8.1885109372
C        5.5196785620    10.1098123764     5.8188794526
C       -1.1731617796    -4.0101399141     6.0770023018
C        7.6684752441     9.0728296492     5.3402293031
C       -3.3236330774    -2.9502813618     6.5219036111
C        3.7307847689     3.2054660200     7.2314288695
C        1.1357978261     3.6677585005     8.1901423085
N       -5.9351244581    18.0412501291    14.2789926454
N       -4.6010174484    17.0177654487    12.8813629804
C       -6.0835470345    18.6044137167    13.0215585304
C       -5.2025380230    18.0183903090    12.1464788173
C       -2.2703150258    17.1640425977    11.8570444675
C       -6.3156532507    18.7252764715    15.5423890567
C       -4.9176744402    17.1474950065    14.1802560601
C       -3.4237397969    16.2951060192    12.3445770911
H       -6.6271656587    19.5320277886    12.8953387206
H       -5.0598058380    18.1768444795    11.0918776704
H       -2.6228192012    17.8520168918    11.0762477840
H       -6.3443651996    19.8040182558    15.3595969331
H       -1.8649857340    17.7738641669    12.6757142829
H       -7.2841282152    18.3963023932    15.8656245118
H       -1.4701503965    16.5464033836    11.4282902568
H       -3.8060282981    15.6709901343    11.5240917084
H       -5.5701494703    18.5590058611    16.3287765067
H       -4.5519634443    16.5050341294    14.9832346070
H       -3.1095935086    15.5968086986    13.1282896718
N       -4.4412042523    21.7669293045    12.8593488279
C       -1.1178692136    22.2457964816    14.3870035468
C       -3.5788857209    23.9231455446     9.9492395982
O       -3.6766431884    21.8439631807    15.6312363967
O       -1.6224759119    19.5877793804    14.0693893215
O       -5.2715919328    20.5332628463    10.5659059105
O       -2.8816279590    20.5880304479     9.5134526489
F       -1.2821091308    23.2711871931    15.3742598424
F       -3.6271917253    26.1149731296    11.6149911106
F        0.1436050418    22.6178639516    13.7590058294
F       -2.0496547257    21.6823138040    17.1990186009
F       -4.1613520335    25.0688058353     9.6979955387
F       -3.7880725386    23.3733502830     8.2773826447
S       -3.5212795457    21.1376586589    13.8392094509
S       -3.9325569997    21.1867554425    10.5895625951
N        3.3520262602     1.4823561383     3.5097139846
N        1.6263168607     2.3004782004     4.5926038531
C        4.4341404954     1.3763823363     2.5048709447
C        2.4453258867     2.4822988473     3.5417570440
C        3.1355781579     0.6658605791     4.6102126415
C        4.4154012475    -0.0102786510     1.8763975637
C        2.0697786356     1.2013150017     5.2856121487
C        0.3723008263     3.0386015753     4.7723725566
H        5.3781536897     1.6026381368     3.0141568102
H        4.2562818847     2.1764804323     1.7706976082
H        2.2917311495     3.2192407180     2.7557454812
H        5.3649730062    -0.2214858238     1.3691549989
H        3.7432260242    -0.2147428987     4.8001255987
H        0.3588699389     3.4572825353     5.7920263407
H        0.3497333412     3.8537251307     4.0255125880
H        4.2400258478    -0.7895015926     2.6269925751
H        1.5750860117     0.8543941203     6.1884903408
H        3.6057961017    -0.1173012151     1.1462407185
H       -0.4518799174     2.3328170906     4.6094392534
N       -0.3791200190     0.5768774482     0.3992104092
C       -1.5351277836    -0.4210991621     3.6285569408
C       -2.3277431403     1.5831563228    -1.7783884138
O        0.4281767368     3.2429176175    -0.2535229622
O        1.6309081250    -1.5776571286     2.9410559373
O        1.1140048240     1.2330198801    -1.6415479554
O        2.2548393886    -1.4576204055     0.5042180372
F       -2.5802073614    -0.4003606797     4.7814611913
F       -3.3879949363     2.2475172668    -1.3644516320
F       -2.8364678762    -1.6545006619     1.4369434016
F       -1.2359893993    -1.7712203411     3.4126069090
F       -0.5257683755     2.3812844281    -3.3233451724
F       -1.2591897282    -1.3347178691    -1.6356063868
S        0.1288147286     1.9446721929    -0.8551483755
S        1.1888931069    -1.3563386042     1.4838422750
