192
frame0006 prim | 192 atoms
Ti      -2.8554400000     2.2297600000    11.2464000000
Ti       7.9750400000     5.1109800000     1.8815900000
Ti       1.2412500000    -1.7064400000     9.4264200000
Ti       2.7524400000     7.4557000000     3.6533900000
Ti       1.7538600000     9.1340100000     1.7490000000
Ti       3.1294500000    -1.9607800000    11.3797900000
Ti      -1.9062400000     0.4938700000     9.3549200000
Ti       5.9872200000     5.4135300000     3.7290500000
H       -2.3535600000     6.1268500000    11.0269500000
H        8.7838200000     1.2049200000     2.2022700000
H       -6.8153400000     1.4731400000    10.8639500000
H       11.3571900000     7.1152700000     2.0822400000
H        4.1050600000    -5.9953200000    10.9938600000
H       -2.3046600000     8.5441100000     2.0710500000
H        2.2483200000     7.4972000000    -0.1240900000
H        6.0995100000     4.8682800000     0.1816500000
H        3.6393600000    -2.6278900000     5.8686900000
H        1.0290000000     9.2927200000     7.2723500000
H       -5.9788600000     3.8825000000     8.9990100000
H       10.7297900000     3.0266500000     4.1875900000
H       -3.6777500000     2.4350600000     5.6651700000
H       -1.3462100000    10.9618700000     4.1022400000
H        2.1461100000    12.2368400000     2.6044700000
H        8.6259900000    -0.8139200000     3.4047600000
H        4.8450600000     7.1358300000     2.3147600000
H        0.1605500000     0.1419600000    10.7200400000
H        7.3641900000    -0.0259300000     9.7694500000
H        5.8830700000    -0.4949900000    10.5167800000
H        7.9383100000     4.4077100000     8.6705500000
H        7.3686000000     4.7662900000     7.0520000000
H        6.8753800000    -4.9807600000     9.5794200000
H        5.5962300000    -3.8801800000    10.0368100000
C        8.5530700000     4.3697400000     4.7451200000
C       -3.8159900000     2.4911500000     8.3993700000
C        3.8217500000    -2.7171400000     8.5017000000
C        0.8163200000     9.4262100000     4.6127500000
C        9.4490900000     3.7654200000     5.7403100000
C       -4.7478900000     3.1161600000     7.4223200000
C        4.7619500000    -3.3314900000     7.5545100000
C       -0.0735000000    10.0730100000     5.6125400000
C        9.2003300000     3.8403400000     7.1467300000
C       -4.5315000000     2.9961800000     6.0343000000
C        5.8914000000    -4.0917900000     8.0075700000
C       -1.1682200000    10.8459600000     5.1676100000
C        0.1810000000     9.9022500000     6.9674200000
C        4.5142400000    -3.1993500000     6.1705800000
C       10.5827700000     3.0664400000     5.2646000000
C       -5.8480500000     3.8085800000     7.9210000000
C        8.7648500000     1.2839900000     0.0581800000
C        2.2951100000    13.0755800000     0.0831900000
C       11.2492800000     7.0471100000    -0.0678300000
C       -2.1090500000     8.5895400000    -0.0872100000
C        3.4991600000     5.1125200000     5.6179800000
C       -1.2569300000    -1.9818500000     7.5361200000
C        8.6289900000     2.7388500000     0.0349800000
C        2.2023600000    11.6420600000     0.0457000000
C        9.9514500000     6.4302800000    -0.0209600000
C       -0.7067400000     9.0038900000    -0.0627500000
C        8.8042000000     0.6148800000     1.2878600000
C       -2.3426400000     6.7152500000    11.9408400000
C       11.9045800000     7.3219100000     1.1661300000
C       -7.3768300000     1.2937600000    11.7793000000
C        7.3089400000     0.2494000000    11.7938000000
C       -2.8062400000     8.3591200000     1.1252600000
C        4.1467000000    -6.5224800000    11.9429100000
C        2.3088900000    13.8267700000     1.3124700000
N        2.3639500000    13.2279400000     2.5506300000
N        6.7299000000     0.0665500000    10.5548300000
N        8.1194500000     4.4865800000     7.6780200000
N        6.2224100000    -4.2500400000     9.3249700000
O        7.3767500000     4.7748300000     5.1109100000
O       -3.0470000000     1.5402800000     8.0010800000
O        4.2032100000    -2.5926600000     9.7228000000
O        0.7504500000     9.8558800000     3.4131500000
O        1.5867800000     8.4689900000     4.9992000000
O        2.6513300000    -2.3487000000     8.0961800000
O        8.9649500000     4.4504900000     3.5333700000
O       -3.8580000000     2.9274000000     9.5990800000
O        6.2924400000     4.1956200000     2.5343600000
O       -1.3537800000     2.0542300000    10.0994400000
O        7.2312300000     6.4829100000     2.9843400000
O       -3.1059600000     0.3295500000    10.5921100000
O        1.5005500000    -2.8784000000    10.6868300000
O        3.2689900000     9.0170100000     2.9149100000
O        2.4545000000    -0.6169100000    10.2226600000
O        1.5627600000     7.2599000000     2.3974800000
O        4.7202800000     4.9326500000     5.2637300000
O       -1.9146000000    -0.9469100000     7.9143400000
O        3.8717700000    -3.7326400000    11.9888900000
O        2.1192500000    10.9406300000     1.1408900000
O        4.6739200000    -0.9444600000    11.9837600000
O       -0.1166800000     9.1049000000     1.0808200000
O       -0.0951100000    -2.2764000000     7.9939300000
O        2.7573200000     6.0334100000     5.1246400000
O        9.4121100000     6.1301000000     1.1270200000
O       -4.7422200000     2.1697100000    11.9148400000
O        8.6165500000     3.3757800000     1.1564300000
O       -2.4740300000     3.9520500000    11.9961100000
O        4.4842300000     6.5870700000     3.0354300000
O       -0.2177100000    -0.4167400000    10.0164500000
O        6.9383400000     5.3619500000     0.1026300000
O        2.3706900000     8.4640000000    -0.0641100000
H        3.7005994326     1.4619500891     8.5219180436
H       -0.0863919840    -3.9974784493     6.1633405681
H        4.4541479450    10.2145732646     5.5861940792
H        4.6970582213     3.0055587103     6.8055465459
H        0.0417951073     3.7263532541     8.4299706789
H       -3.8710842223    -2.0960620482     6.9236993567
H        1.3736333696     1.8296986395     9.2936747387
H        1.0415002685     5.2694302291     6.7102609248
H        5.7905806385     8.4459994673     4.4666388430
H       -7.7531312580     8.9094792738     4.6619491439
C        2.9221442539     4.2181172597     6.6528897819
C        1.8135187955     2.5056278813     8.5618772911
C        6.2886035072     9.1843146735     5.0944195074
C       -1.9136456340    -2.9497188357     6.6247615705
C        1.6081083548     4.4305930628     7.1093452022
C        3.1270977772     2.2969123489     8.1221693547
C        5.5357308973    10.1917345095     5.7089432005
C       -1.1635780350    -3.9703556537     6.0145711501
C        7.6774706857     9.1324233863     5.2548649361
C       -3.3073546994    -2.8912110008     6.4418653447
C        3.6821552993     3.1520744028     7.1690939292
C        1.0563873046     3.5740485835     8.0639835437
N       -5.6456959490    18.3843572659    14.3140017814
N       -4.3914869006    17.3736052768    12.8139104607
C       -5.8327701576    19.0238835705    13.0882327096
C       -5.0833920670    18.3698461630    12.1473769300
C       -2.1181946305    17.3245629746    11.8147593915
C       -6.1162566544    18.9129259418    15.6228112916
C       -4.7093943404    17.4303825868    14.1249445742
C       -3.3482378084    16.5170654897    12.2173311102
H       -6.3865253642    19.9519534589    12.9974182156
H       -4.9931067789    18.5260426481    11.0782937716
H       -2.3797086072    18.1202475199    11.1051841890
H       -6.5004981601    19.9304083807    15.4774268925
H       -1.6493863092    17.7988536897    12.6844659851
H       -6.8161996758    18.2381331506    16.0790475066
H       -1.3871601049    16.6624663915    11.3337537456
H       -3.7942929944    15.9966486678    11.3606614254
H       -5.2813184950    19.0095431577    16.3174390245
H       -4.2095360177    16.8650649550    14.9001862651
H       -3.1144057375    15.7571138644    12.9701694458
N       -4.1619702430    21.8409493235    13.2526262224
C       -1.2943423055    21.9807424661    14.7997936388
C       -3.3326038670    23.4143130451    10.9522866779
O       -3.8750972064    21.5947666467    15.7306316177
O       -2.7522988467    19.4492765844    14.2604495173
O       -5.2108441362    21.3948535978    10.9288000976
O       -2.6963713065    20.5578009951    10.7544242400
F       -1.5994241614    23.4818795819    15.1321549548
F       -2.4382007022    24.5244924575    11.6684920520
F       -0.1226051586    22.4021949752    13.8637117716
F       -1.6188716467    21.5246690888    16.5639014796
F       -4.4002959923    24.2604405442    10.7748713818
F       -3.5744554689    23.1173452311     9.1565880291
S       -3.3394427252    20.9766431862    14.4185503405
S       -3.9235932272    21.5654571075    11.5151377771
N        3.0517489978     1.4507853403     3.1494165418
N        1.1702483594     2.1553743503     4.0707384926
C        4.0346076312     1.1309825687     2.0806799414
C        1.9785758792     2.2403250840     2.9823475584
C        2.9662115823     0.8673370882     4.4063830218
C        3.8415620335    -0.2185585682     1.3834178228
C        1.7941180460     1.2954113155     4.9678282029
C       -0.2732964982     2.5235782589     4.1707011602
H        5.0153347880     1.1717793585     2.5630274821
H        3.9834989285     1.9615201121     1.3616948190
H        1.7625620182     2.7233523963     2.0355247756
H        4.6845252789    -0.4308033899     0.7187023883
H        3.7775075104     0.2738827835     4.7955215899
H       -0.4263052154     3.1952320453     5.0081058740
H       -0.6041812423     3.0184052608     3.2551163607
H        3.6707348997    -1.0391357892     2.0895944883
H        1.3401012089     1.0673347573     5.9207892310
H        2.9805421215    -0.2337438249     0.7306979365
H       -0.8933716704     1.6076319424     4.2340288594
N       -0.6177468781     0.5310054816     1.3340951802
C       -1.7565604152    -1.4746611812     2.9207700268
C       -1.6290390741     0.9948895314    -0.8891094165
O        0.5078521538     2.9238833613     0.3359266801
O        1.4707837115    -1.5511974220     2.6919082497
O        0.7860164067     0.6129869611    -1.0695753690
O        0.4827169018    -1.6953129573     0.3513459232
F       -2.1138825861    -1.0488642600     4.1993243986
F       -2.9285831929     1.7060360904    -0.2739405971
F       -2.9405427216    -1.4511341341     1.8350116353
F       -1.8086440512    -2.8665896010     3.2260178003
F       -0.9755832636     1.3678476908    -2.4125081711
F       -1.7459528897    -0.8615759125    -0.9851014733
S        0.0993875675     1.5067853585     0.0348819797
S        0.1080068728    -1.1775344226     1.8548060659
