192
frame0019 prim | 192 atoms
Ti      -2.8554400000     2.2297600000    11.2464000000
Ti       7.9750400000     5.1109800000     1.8815900000
Ti       1.2412500000    -1.7064400000     9.4264200000
Ti       2.7524400000     7.4557000000     3.6533900000
Ti       1.7538600000     9.1340100000     1.7490000000
Ti       3.1294500000    -1.9607800000    11.3797900000
Ti      -1.9062400000     0.4938700000     9.3549200000
Ti       5.9872200000     5.4135300000     3.7290500000
H       -2.3535600000     6.1268500000    11.0269500000
H        8.7838200000     1.2049200000     2.2022700000
H       -6.8153400000     1.4731400000    10.8639500000
H       11.3571900000     7.1152700000     2.0822400000
H        4.1050600000    -5.9953200000    10.9938600000
H       -2.3046600000     8.5441100000     2.0710500000
H        2.2483200000     7.4972000000    -0.1240900000
H        6.0995100000     4.8682800000     0.1816500000
H        3.6393600000    -2.6278900000     5.8686900000
H        1.0290000000     9.2927200000     7.2723500000
H       -5.9788600000     3.8825000000     8.9990100000
H       10.7297900000     3.0266500000     4.1875900000
H       -3.6777500000     2.4350600000     5.6651700000
H       -1.3462100000    10.9618700000     4.1022400000
H        2.1461100000    12.2368400000     2.6044700000
H        8.6259900000    -0.8139200000     3.4047600000
H        4.8450600000     7.1358300000     2.3147600000
H        0.1605500000     0.1419600000    10.7200400000
H        7.3641900000    -0.0259300000     9.7694500000
H        5.8830700000    -0.4949900000    10.5167800000
H        7.9383100000     4.4077100000     8.6705500000
H        7.3686000000     4.7662900000     7.0520000000
H        6.8753800000    -4.9807600000     9.5794200000
H        5.5962300000    -3.8801800000    10.0368100000
C        8.5530700000     4.3697400000     4.7451200000
C       -3.8159900000     2.4911500000     8.3993700000
C        3.8217500000    -2.7171400000     8.5017000000
C        0.8163200000     9.4262100000     4.6127500000
C        9.4490900000     3.7654200000     5.7403100000
C       -4.7478900000     3.1161600000     7.4223200000
C        4.7619500000    -3.3314900000     7.5545100000
C       -0.0735000000    10.0730100000     5.6125400000
C        9.2003300000     3.8403400000     7.1467300000
C       -4.5315000000     2.9961800000     6.0343000000
C        5.8914000000    -4.0917900000     8.0075700000
C       -1.1682200000    10.8459600000     5.1676100000
C        0.1810000000     9.9022500000     6.9674200000
C        4.5142400000    -3.1993500000     6.1705800000
C       10.5827700000     3.0664400000     5.2646000000
C       -5.8480500000     3.8085800000     7.9210000000
C        8.7648500000     1.2839900000     0.0581800000
C        2.2951100000    13.0755800000     0.0831900000
C       11.2492800000     7.0471100000    -0.0678300000
C       -2.1090500000     8.5895400000    -0.0872100000
C        3.4991600000     5.1125200000     5.6179800000
C       -1.2569300000    -1.9818500000     7.5361200000
C        8.6289900000     2.7388500000     0.0349800000
C        2.2023600000    11.6420600000     0.0457000000
C        9.9514500000     6.4302800000    -0.0209600000
C       -0.7067400000     9.0038900000    -0.0627500000
C        8.8042000000     0.6148800000     1.2878600000
C       -2.3426400000     6.7152500000    11.9408400000
C       11.9045800000     7.3219100000     1.1661300000
C       -7.3768300000     1.2937600000    11.7793000000
C        7.3089400000     0.2494000000    11.7938000000
C       -2.8062400000     8.3591200000     1.1252600000
C        4.1467000000    -6.5224800000    11.9429100000
C        2.3088900000    13.8267700000     1.3124700000
N        2.3639500000    13.2279400000     2.5506300000
N        6.7299000000     0.0665500000    10.5548300000
N        8.1194500000     4.4865800000     7.6780200000
N        6.2224100000    -4.2500400000     9.3249700000
O        7.3767500000     4.7748300000     5.1109100000
O       -3.0470000000     1.5402800000     8.0010800000
O        4.2032100000    -2.5926600000     9.7228000000
O        0.7504500000     9.8558800000     3.4131500000
O        1.5867800000     8.4689900000     4.9992000000
O        2.6513300000    -2.3487000000     8.0961800000
O        8.9649500000     4.4504900000     3.5333700000
O       -3.8580000000     2.9274000000     9.5990800000
O        6.2924400000     4.1956200000     2.5343600000
O       -1.3537800000     2.0542300000    10.0994400000
O        7.2312300000     6.4829100000     2.9843400000
O       -3.1059600000     0.3295500000    10.5921100000
O        1.5005500000    -2.8784000000    10.6868300000
O        3.2689900000     9.0170100000     2.9149100000
O        2.4545000000    -0.6169100000    10.2226600000
O        1.5627600000     7.2599000000     2.3974800000
O        4.7202800000     4.9326500000     5.2637300000
O       -1.9146000000    -0.9469100000     7.9143400000
O        3.8717700000    -3.7326400000    11.9888900000
O        2.1192500000    10.9406300000     1.1408900000
O        4.6739200000    -0.9444600000    11.9837600000
O       -0.1166800000     9.1049000000     1.0808200000
O       -0.0951100000    -2.2764000000     7.9939300000
O        2.7573200000     6.0334100000     5.1246400000
O        9.4121100000     6.1301000000     1.1270200000
O       -4.7422200000     2.1697100000    11.9148400000
O        8.6165500000     3.3757800000     1.1564300000
O       -2.4740300000     3.9520500000    11.9961100000
O        4.4842300000     6.5870700000     3.0354300000
O       -0.2177100000    -0.4167400000    10.0164500000
O        6.9383400000     5.3619500000     0.1026300000
O        2.3706900000     8.4640000000    -0.0641100000
H        3.7378254146     1.4976108669     8.5610872192
H       -0.0977454676    -4.0408450688     6.2344404822
H        4.4384589170    10.1280011633     5.7007978195
H        4.7272502483     3.0297702225     6.8406463456
H        0.1023184033     3.7970783085     8.5182864436
H       -3.8905971098    -2.1607739853     7.0045789703
H        1.3991828623     1.8434963003     9.3107214450
H        1.1361449327     5.3936479605     6.8755787301
H        5.7834468327     8.3813590058     4.5541219340
H       -7.7567334752     8.8471480932     4.7579668664
C        2.9661920169     4.2712627980     6.7170932108
C        1.8561463696     2.5481184763     8.6166644325
C        6.2808597875     9.1237239192     5.1777471431
C       -1.9247824353    -2.9834301720     6.6732469888
C        1.6847252371     4.5253708281     7.2355676558
C        3.1712621657     2.3459009909     8.1802518433
C        5.5219257775    10.1207730919     5.8034206900
C       -1.1742857521    -4.0149384408     6.0846717540
C        7.6702388261     9.0780975929     5.3326143899
C       -3.3227520827    -2.9506689010     6.5202275852
C        3.7232332452     3.1978631644     7.2229395909
C        1.1209896798     3.6489814574     8.1637489555
N       -5.9310157680    18.0359791832    14.2702115156
N       -4.5188701636    17.0888782625    12.8737758442
C       -6.0725872681    18.6615757552    13.0379192080
C       -5.2564931186    18.0200506750    12.1694653668
C       -2.2584665915    17.2023045395    11.8537879985
C       -6.3469566773    18.7088235186    15.5302290922
C       -4.9369282265    17.1213891357    14.1683648731
C       -3.4002282522    16.3012598390    12.3229947632
H       -6.6737636392    19.5446497488    12.9107846360
H       -5.0397383053    18.2434393126    11.1254567759
H       -2.5890621486    17.8970041313    11.0685475511
H       -6.4217581871    19.7806610685    15.3714546006
H       -1.8238692934    17.7845121074    12.6743958064
H       -7.2998067624    18.3649098546    15.8596569038
H       -1.4781654765    16.5648992306    11.4158598388
H       -3.8116930950    15.7203625106    11.4900840242
H       -5.5922742330    18.5296349381    16.3096807225
H       -4.5487889331    16.4793645190    14.9499913753
H       -3.1047190872    15.6062497765    13.1142350631
N       -4.4365573993    21.6588479224    12.8902495987
C       -1.1652256165    22.2486100230    14.4519224891
C       -3.6403444347    23.8771968243    10.0541491274
O       -3.7235418372    21.8108569945    15.6342108837
O       -1.7198818234    19.5428188482    14.0852373522
O       -5.2328486146    20.4782392642    10.5286117927
O       -2.7974238082    20.6925599976     9.3712087840
F       -1.3106366626    23.3440195253    15.3722711669
F       -3.6606067780    26.0835322999    11.6573569169
F        0.1309083264    22.6405147916    13.7750496097
F       -2.0826278926    21.6367243393    17.1920150830
F       -4.2061357140    25.0114107488     9.7428732102
F       -3.8907905281    23.2790790509     8.3204689638
S       -3.5139406205    21.0769434548    13.9406775181
S       -3.9414470331    21.1757433410    10.6665381798
N        3.3311210009     1.5358272995     3.4915799315
N        1.6347399743     2.3147525046     4.5733505798
C        4.3789771165     1.3399073760     2.4710149809
C        2.4195019175     2.5117020778     3.4973256424
C        3.1034167372     0.6592518823     4.5823695863
C        4.3488985419    -0.0409513889     1.8278349023
C        2.0352540268     1.1608263861     5.2690409218
C        0.3587333471     3.0086491844     4.7642637518
H        5.3329860834     1.5560541368     2.9700123534
H        4.2220379220     2.1436451463     1.7386378647
H        2.2458729796     3.2129196355     2.7085119380
H        5.2925987480    -0.2570348324     1.3092411621
H        3.7269634810    -0.1729012620     4.8050419547
H        0.3072114817     3.4474680809     5.7594506004
H        0.2639866777     3.8110339694     4.0232545251
H        4.1662800503    -0.8195058033     2.5766636130
H        1.5639392688     0.8949861862     6.1985008662
H        3.5294425154    -0.1310385474     1.1057324090
H       -0.4701388718     2.2911699113     4.6130807171
N       -0.4188700721     0.5849422913     0.4585443638
C       -1.5619787437    -0.5322471419     3.6233333934
C       -2.3040961305     1.5113932292    -1.6617228110
O        0.5249900529     3.2745073386    -0.2146818042
O        1.5762438501    -1.6367614248     2.9145367826
O        1.0979636372     1.1974935720    -1.5744874104
O        2.0959960729    -1.4662242999     0.4463290109
F       -2.5286489245    -0.5148151448     4.8072245567
F       -3.3316312841     2.1819863532    -1.1841030777
F       -2.8771399259    -1.6742719107     1.5163197038
F       -1.2453935267    -1.8668907555     3.4291978831
F       -0.5928145094     2.3348027319    -3.2194414496
F       -1.2421185895    -1.3573694425    -1.6382079759
S        0.1708581916     1.9772980009    -0.7826900753
S        1.1040114486    -1.3550238148     1.4821051096
