192
frame0009 prim | 192 atoms
Ti      -2.8554400000     2.2297600000    11.2464000000
Ti       7.9750400000     5.1109800000     1.8815900000
Ti       1.2412500000    -1.7064400000     9.4264200000
Ti       2.7524400000     7.4557000000     3.6533900000
Ti       1.7538600000     9.1340100000     1.7490000000
Ti       3.1294500000    -1.9607800000    11.3797900000
Ti      -1.9062400000     0.4938700000     9.3549200000
Ti       5.9872200000     5.4135300000     3.7290500000
H       -2.3535600000     6.1268500000    11.0269500000
H        8.7838200000     1.2049200000     2.2022700000
H       -6.8153400000     1.4731400000    10.8639500000
H       11.3571900000     7.1152700000     2.0822400000
H        4.1050600000    -5.9953200000    10.9938600000
H       -2.3046600000     8.5441100000     2.0710500000
H        2.2483200000     7.4972000000    -0.1240900000
H        6.0995100000     4.8682800000     0.1816500000
H        3.6393600000    -2.6278900000     5.8686900000
H        1.0290000000     9.2927200000     7.2723500000
H       -5.9788600000     3.8825000000     8.9990100000
H       10.7297900000     3.0266500000     4.1875900000
H       -3.6777500000     2.4350600000     5.6651700000
H       -1.3462100000    10.9618700000     4.1022400000
H        2.1461100000    12.2368400000     2.6044700000
H        8.6259900000    -0.8139200000     3.4047600000
H        4.8450600000     7.1358300000     2.3147600000
H        0.1605500000     0.1419600000    10.7200400000
H        7.3641900000    -0.0259300000     9.7694500000
H        5.8830700000    -0.4949900000    10.5167800000
H        7.9383100000     4.4077100000     8.6705500000
H        7.3686000000     4.7662900000     7.0520000000
H        6.8753800000    -4.9807600000     9.5794200000
H        5.5962300000    -3.8801800000    10.0368100000
C        8.5530700000     4.3697400000     4.7451200000
C       -3.8159900000     2.4911500000     8.3993700000
C        3.8217500000    -2.7171400000     8.5017000000
C        0.8163200000     9.4262100000     4.6127500000
C        9.4490900000     3.7654200000     5.7403100000
C       -4.7478900000     3.1161600000     7.4223200000
C        4.7619500000    -3.3314900000     7.5545100000
C       -0.0735000000    10.0730100000     5.6125400000
C        9.2003300000     3.8403400000     7.1467300000
C       -4.5315000000     2.9961800000     6.0343000000
C        5.8914000000    -4.0917900000     8.0075700000
C       -1.1682200000    10.8459600000     5.1676100000
C        0.1810000000     9.9022500000     6.9674200000
C        4.5142400000    -3.1993500000     6.1705800000
C       10.5827700000     3.0664400000     5.2646000000
C       -5.8480500000     3.8085800000     7.9210000000
C        8.7648500000     1.2839900000     0.0581800000
C        2.2951100000    13.0755800000     0.0831900000
C       11.2492800000     7.0471100000    -0.0678300000
C       -2.1090500000     8.5895400000    -0.0872100000
C        3.4991600000     5.1125200000     5.6179800000
C       -1.2569300000    -1.9818500000     7.5361200000
C        8.6289900000     2.7388500000     0.0349800000
C        2.2023600000    11.6420600000     0.0457000000
C        9.9514500000     6.4302800000    -0.0209600000
C       -0.7067400000     9.0038900000    -0.0627500000
C        8.8042000000     0.6148800000     1.2878600000
C       -2.3426400000     6.7152500000    11.9408400000
C       11.9045800000     7.3219100000     1.1661300000
C       -7.3768300000     1.2937600000    11.7793000000
C        7.3089400000     0.2494000000    11.7938000000
C       -2.8062400000     8.3591200000     1.1252600000
C        4.1467000000    -6.5224800000    11.9429100000
C        2.3088900000    13.8267700000     1.3124700000
N        2.3639500000    13.2279400000     2.5506300000
N        6.7299000000     0.0665500000    10.5548300000
N        8.1194500000     4.4865800000     7.6780200000
N        6.2224100000    -4.2500400000     9.3249700000
O        7.3767500000     4.7748300000     5.1109100000
O       -3.0470000000     1.5402800000     8.0010800000
O        4.2032100000    -2.5926600000     9.7228000000
O        0.7504500000     9.8558800000     3.4131500000
O        1.5867800000     8.4689900000     4.9992000000
O        2.6513300000    -2.3487000000     8.0961800000
O        8.9649500000     4.4504900000     3.5333700000
O       -3.8580000000     2.9274000000     9.5990800000
O        6.2924400000     4.1956200000     2.5343600000
O       -1.3537800000     2.0542300000    10.0994400000
O        7.2312300000     6.4829100000     2.9843400000
O       -3.1059600000     0.3295500000    10.5921100000
O        1.5005500000    -2.8784000000    10.6868300000
O        3.2689900000     9.0170100000     2.9149100000
O        2.4545000000    -0.6169100000    10.2226600000
O        1.5627600000     7.2599000000     2.3974800000
O        4.7202800000     4.9326500000     5.2637300000
O       -1.9146000000    -0.9469100000     7.9143400000
O        3.8717700000    -3.7326400000    11.9888900000
O        2.1192500000    10.9406300000     1.1408900000
O        4.6739200000    -0.9444600000    11.9837600000
O       -0.1166800000     9.1049000000     1.0808200000
O       -0.0951100000    -2.2764000000     7.9939300000
O        2.7573200000     6.0334100000     5.1246400000
O        9.4121100000     6.1301000000     1.1270200000
O       -4.7422200000     2.1697100000    11.9148400000
O        8.6165500000     3.3757800000     1.1564300000
O       -2.4740300000     3.9520500000    11.9961100000
O        4.4842300000     6.5870700000     3.0354300000
O       -0.2177100000    -0.4167400000    10.0164500000
O        6.9383400000     5.3619500000     0.1026300000
O        2.3706900000     8.4640000000    -0.0641100000
H        3.7028553102     1.4660199333     8.5240672159
H       -0.0854299961    -3.9987904797     6.1660733931
H        4.4551315926    10.2118029895     5.5954724939
H        4.6974243004     3.0062805504     6.8083199960
H        0.0424688522     3.7265794883     8.4256797680
H       -3.8712365952    -2.0984832952     6.9266409601
H        1.3744828710     1.8305240375     9.2927435231
H        1.0443594260     5.2740774262     6.7169932289
H        5.7918929451     8.4434989250     4.4736813497
H       -7.7513786711     8.9059089572     4.6721099581
C        2.9238735823     4.2207810859     6.6552934500
C        1.8146012741     2.5068951590     8.5614013945
C        6.2887237454     9.1741596400     5.1113270179
C       -1.9148451136    -2.9598195355     6.6397995265
C        1.6107975915     4.4338202383     7.1121468397
C        3.1288406558     2.3006278531     8.1250218419
C        5.5358480474    10.1832578602     5.7233144768
C       -1.1653097781    -3.9836753225     6.0357403132
C        7.6762158868     9.1189713726     5.2763391026
C       -3.3080467737    -2.8999014948     6.4548757451
C        3.6836796140     3.1557806007     7.1723830976
C        1.0575852078     3.5740899646     8.0624186006
N       -5.7981033036    18.2344567323    14.2942799548
N       -4.4175299433    17.3448800937    12.8272290425
C       -5.9583582319    18.9146630816    13.0850933107
C       -5.1284172665    18.3269858559    12.1634576586
C       -2.1247852574    17.3235243794    11.8157398229
C       -6.2902294135    18.7360461308    15.6195909344
C       -4.8230289416    17.3189610504    14.1229363576
C       -3.3524093657    16.5146271370    12.2262793688
H       -6.4685194266    19.8686662555    13.0056887432
H       -4.9762755110    18.5412648004    11.1082828705
H       -2.3757594879    18.1163816719    11.0970912817
H       -6.6588276096    19.7574982579    15.4771986594
H       -1.6414861824    17.8020097740    12.6749556695
H       -7.0486147034    18.0928647851    16.0323609973
H       -1.4062760315    16.6528265058    11.3250246987
H       -3.7927949294    15.9932804035    11.3666058697
H       -5.4521091875    18.7800205010    16.3190040551
H       -4.2796143531    16.8080944781    14.9102117561
H       -3.1130892714    15.7542414046    12.9759675801
N       -4.3383808944    21.5705042665    13.1650351802
C       -1.3195728700    22.0934271225    14.7797631434
C       -3.3398012591    23.4753710126    10.8064564204
O       -3.8884917894    21.6822790525    15.6386467620
O       -2.5901732217    19.1743786192    14.3899047042
O       -5.2817203593    21.1675556183    10.9125900478
O       -2.6179712022    20.8096430316    10.0044242400
F       -1.6999132529    23.5767621360    15.2296327866
F       -2.7915151784    25.0674762995    11.7261501898
F        0.1883558446    22.8278716818    14.0390152831
F       -1.8632516037    21.5689123902    16.7586970248
F       -4.4774269893    24.2867263621    10.4141045333
F       -3.8910343347    22.7582575300     8.9186550230
S       -3.3465714688    20.8002975889    14.3680324985
S       -3.9252119892    21.4582542581    11.3215673862
N        3.0784896838     1.4559138845     3.1940693250
N        1.2469272954     2.2244795016     4.1693954200
C        4.0779743906     1.1455048864     2.1194364098
C        2.0728360414     2.3928488760     3.0958519942
C        2.9885608075     0.8718173825     4.4497570778
C        3.9127145732    -0.2300052708     1.4273517183
C        1.8388589834     1.3190865052     5.0328261617
C       -0.1844145542     2.6537896921     4.3267093608
H        5.0702249377     1.2026550168     2.5789258253
H        4.0007016224     1.9517028785     1.3784272000
H        1.8474080881     2.8927565074     2.1713812155
H        4.8111448858    -0.4246723352     0.8239672146
H        3.7480993465     0.1873735125     4.8075159916
H       -0.3540858931     3.2445370873     5.2235582903
H       -0.5404764676     3.1993226074     3.4504810809
H        3.7625925887    -1.0572217762     2.1265039965
H        1.3508524206     1.0498438004     5.9572991175
H        3.0704735582    -0.2737299606     0.7325806000
H       -0.7500514309     1.7007013234     4.3261305252
N       -0.6430556428     0.5398315120     1.0707009821
C       -1.5928469347    -1.3355577968     3.2628493225
C       -1.7638639359     1.0643337892    -0.9100015239
O        0.6760598325     3.0527206533     0.2662926615
O        1.4465953689    -1.6089361238     2.6419433047
O        0.9219498070     0.8106740788    -1.0739486389
O        0.7678568139    -1.6277901841     0.1524428075
F       -2.2116021359    -0.9009022696     4.4271326752
F       -3.2112882744     1.6668257671    -0.2833597969
F       -2.9123807323    -1.7543547112     1.9317764677
F       -1.6266977451    -2.7507966269     3.5529933831
F       -0.7930724800     1.5462903920    -2.5115142431
F       -1.5746476658    -1.0448985881    -1.2363851190
S        0.2088815049     1.7077457393    -0.1480577927
S        0.4001708137    -1.2403812886     1.6877023653
