frame0001
1.0
     32.0000000000    -1.1140000000     0.1800000000
    -13.0340000000    29.2260000000    -0.1140000000
     -9.2700000000   -14.1320000000    26.1900000000
  Ti  H  C  N  O  F  S
  64  448  496  80  320  96  32
Cartesian
     -2.8554400000     2.2297600000    11.2464000000
      7.9750400000     5.1109800000     1.8815900000
      1.2412500000    -1.7064400000     9.4264200000
      2.7524400000     7.4557000000     3.6533900000
      1.7538600000     9.1340100000     1.7490000000
      3.1294500000    -1.9607800000    11.3797900000
     -1.9062400000     0.4938700000     9.3549200000
      5.9872200000     5.4135300000     3.7290500000
     -7.4904400000    -4.8362400000    24.3414000000
      3.3400400000    -1.9550200000    14.9765900000
     -3.3937500000    -8.7724400000    22.5214200000
     -1.8825600000     0.3897000000    16.7483900000
     -2.8811400000     2.0680100000    14.8440000000
     -1.5055500000    -9.0267800000    24.4747900000
     -6.5412400000    -6.5721300000    22.4499200000
      1.3522200000    -1.6524700000    16.8240500000
     -9.3724400000    16.8427600000    11.1894000000
      1.4580400000    19.7239800000     1.8245900000
     -5.2757500000    12.9065600000     9.3694200000
     -3.7645600000    22.0687000000     3.5963900000
     -4.7631400000    23.7470100000     1.6920000000
     -3.3875500000    12.6522200000    11.3227900000
     -8.4232400000    15.1068700000     9.2979200000
     -0.5297800000    20.0265300000     3.6720500000
    -14.0074400000     9.7767600000    24.2844000000
     -3.1769600000    12.6579800000    14.9195900000
     -9.9107500000     5.8405600000    22.4644200000
     -8.3995600000    15.0027000000    16.6913900000
     -9.3981400000    16.6810100000    14.7870000000
     -8.0225500000     5.5862200000    24.4177900000
    -13.0582400000     8.0408700000    22.3929200000
     -5.1647800000    12.9605300000    16.7670500000
     13.1445600000     1.6727600000    11.3364000000
     23.9750400000     4.5539800000     1.9715900000
     17.2412500000    -2.2634400000     9.5164200000
     18.7524400000     6.8987000000     3.7433900000
     17.7538600000     8.5770100000     1.8390000000
     19.1294500000    -2.5177800000    11.4697900000
     14.0937600000    -0.0631300000     9.4449200000
     21.9872200000     4.8565300000     3.8190500000
      8.5095600000    -5.3932400000    24.4314000000
     19.3400400000    -2.5120200000    15.0665900000
     12.6062500000    -9.3294400000    22.6114200000
     14.1174400000    -0.1673000000    16.8383900000
     13.1188600000     1.5110100000    14.9340000000
     14.4944500000    -9.5837800000    24.5647900000
      9.4587600000    -7.1291300000    22.5399200000
     17.3522200000    -2.2094700000    16.9140500000
      6.6275600000    16.2857600000    11.2794000000
     17.4580400000    19.1669800000     1.9145900000
     10.7242500000    12.3495600000     9.4594200000
     12.2354400000    21.5117000000     3.6863900000
     11.2368600000    23.1900100000     1.7820000000
     12.6124500000    12.0952200000    11.4127900000
      7.5767600000    14.5498700000     9.3879200000
     15.4702200000    19.4695300000     3.7620500000
      1.9925600000     9.2197600000    24.3744000000
     12.8230400000    12.1009800000    15.0095900000
      6.0892500000     5.2835600000    22.5544200000
      7.6004400000    14.4457000000    16.7813900000
      6.6018600000    16.1240100000    14.8770000000
      7.9774500000     5.0292200000    24.5077900000
      2.9417600000     7.4838700000    22.4829200000
     10.8352200000    12.4035300000    16.8570500000
     -2.3535600000     6.1268500000    11.0269500000
      8.7838200000     1.2049200000     2.2022700000
     -6.8153400000     1.4731400000    10.8639500000
     11.3571900000     7.1152700000     2.0822400000
      4.1050600000    -5.9953200000    10.9938600000
     -2.3046600000     8.5441100000     2.0710500000
     -2.3866800000     0.4312000000    12.9709100000
      6.0995100000     4.8682800000     0.1816500000
      3.6393600000    -2.6278900000     5.8686900000
      1.0290000000     9.2927200000     7.2723500000
     -5.9788600000     3.8825000000     8.9990100000
     10.7297900000     3.0266500000     4.1875900000
     -3.6777500000     2.4350600000     5.6651700000
     -1.3462100000    10.9618700000     4.1022400000
      2.1461100000    12.2368400000     2.6044700000
      8.6259900000    -0.8139200000     3.4047600000
      4.8450600000     7.1358300000     2.3147600000
      0.1605500000     0.1419600000    10.7200400000
      7.3641900000    -0.0259300000     9.7694500000
      5.8830700000    -0.4949900000    10.5167800000
      7.9383100000     4.4077100000     8.6705500000
      7.3686000000     4.7662900000     7.0520000000
      6.8753800000    -4.9807600000     9.5794200000
      5.5962300000    -3.8801800000    10.0368100000
      3.7000564642     1.4619734231     8.5200668318
     -6.6048295003    10.6148581164     6.1097960495
      4.4541510647    10.2150305197     5.5805964566
      4.6976148058     3.0051317636     6.8038684308
      0.0427836211     3.7280641306     8.4311723226
     12.1307267501    -2.6504686176     7.0131775176
      1.3734280828     1.8302797554     9.2949473977
      1.0406158882     5.2680598596     6.7089982298
      5.7894725706     8.4448749081     4.4642951652
      8.2452614591     8.3509590282     4.7499115987
      0.1566290793     5.3685651513    13.0522213087
      1.5188482488     3.9134422846    11.1316500268
      4.1341849076     3.5168741619    11.1645765130
      4.7722822979    12.4800687504     2.4341845452
      4.8597543964     3.1908722527    12.7454791062
      4.4905759504    10.7815725236     3.0462404444
      5.1315234500     2.0574807847    11.3983536528
      2.7256516820     1.3885821263    11.4160225447
      6.0358701629    11.5752040434     3.2506171418
      6.9671673094     9.3391582463     1.8668420690
      3.4040977528     1.1456430197    13.0268416932
      4.9730187074     1.1574055549     2.5721817499
      3.9809024528     1.9662767528     1.3398352448
      1.6254692149     2.5894537759     1.9543499114
      4.6180236317    -0.4361691495     0.6969575625
      3.7816374411     0.3247797036     4.7736242485
     -0.4242985575     3.1631628001     4.9097580561
     -0.6101967345     2.9442674833     3.1535556733
      3.6622140128    -1.0352354615     2.0849638323
      1.3392576195     1.0747038715     5.9119986321
      2.8924077023    -0.1907704927     0.7287003826
     -0.9767523493     1.5798358567     4.2123982588
     -6.9885600000    -0.9391500000    24.1219500000
      4.1488200000    -5.8610800000    15.2972700000
    -11.4503400000    -5.5928600000    23.9589500000
      6.7221900000     0.0492700000    15.1772400000
     -0.5299400000   -13.0613200000    24.0888600000
     -6.9396600000     1.4781100000    15.1660500000
     -7.0216800000    -6.6348000000    26.0659100000
      1.4645100000    -2.1977200000    13.2766500000
     -0.9956400000    -9.6938900000    18.9636900000
     -3.6060000000     2.2267200000    20.3673500000
    -10.6138600000    -3.1835000000    22.0940100000
      6.0947900000    -4.0393500000    17.2825900000
     -8.3127500000    -4.6309400000    18.7601700000
     -5.9812100000     3.8958700000    17.1972400000
     -2.4888900000     5.1708400000    15.6994700000
      3.9909900000    -7.8799200000    16.4997600000
      0.2100600000     0.0698300000    15.4097600000
     -4.4744500000    -6.9240400000    23.8150400000
      2.7291900000    -7.0919300000    22.8644500000
      1.2480700000    -7.5609900000    23.6117800000
      3.3033100000    -2.6582900000    21.7655500000
      2.7336000000    -2.2997100000    20.1470000000
      2.2403800000   -12.0467600000    22.6744200000
      0.9612300000   -10.9461800000    23.1318100000
     -0.9349435358    -5.6040265769    21.6150668318
    -11.2398295003     3.5488581164    19.2047960495
     -0.1808489353     3.1490305197    18.6755964566
      0.0626148058    -4.0608682364    19.8988684308
     -4.5922163789    -3.3379358694    21.5261723226
      7.4957267501    -9.7164686176    20.1081775176
     -3.2615719172    -5.2357202446    22.3899473977
     -3.5943841118    -1.7979401404    19.8039982298
      1.1544725706     1.3788749081    17.5592951652
      3.6102614591     1.2849590282    17.8449115987
     -4.4783709207    -1.6974348487    26.1472213087
     -3.1161517512    -3.1525577154    24.2266500268
     -0.5008150924    -3.5491258381    24.2595765130
      0.1372822979     5.4140687504    15.5291845452
      0.2247543964    -3.8751277473    25.8404791062
     -0.1444240496     3.7155725236    16.1412404444
      0.4965234500    -5.0085192153    24.4933536528
     -1.9093483180    -5.6774178737    24.5110225447
      1.4008701629     4.5092040434    16.3456171418
      2.3321673094     2.2731582463    14.9618420690
     -1.2309022472    -5.9203569803    26.1218416932
      0.3380187074    -5.9085944451    15.6671817499
     -0.6540975472    -5.0997232472    14.4348352448
     -3.0095307851    -4.4765462241    15.0493499114
     -0.0169763683    -7.5021691495    13.7919575625
     -0.8533625589    -6.7412202964    17.8686242485
     -5.0592985575    -3.9028371999    18.0047580561
     -5.2451967345    -4.1217325167    16.2485556733
     -0.9727859872    -8.1012354615    15.1799638323
     -3.2957423805    -5.9912961285    19.0069986321
     -1.7425922977    -7.2567704927    13.8237003826
     -5.6117523493    -5.4861641433    17.3073982588
     -8.8705600000    20.7398500000    10.9699500000
      2.2668200000    15.8179200000     2.1452700000
    -13.3323400000    16.0861400000    10.8069500000
      4.8401900000    21.7282700000     2.0252400000
     -2.4119400000     8.6176800000    10.9368600000
     -8.8216600000    23.1571100000     2.0140500000
     -8.9036800000    15.0442000000    12.9139100000
     -0.4174900000    19.4812800000     0.1246500000
     -2.8776400000    11.9851100000     5.8116900000
     -5.4880000000    23.9057200000     7.2153500000
    -12.4958600000    18.4955000000     8.9420100000
      4.2127900000    17.6396500000     4.1305900000
    -10.1947500000    17.0480600000     5.6081700000
     -7.8632100000    25.5748700000     4.0452400000
     -4.3708900000    26.8498400000     2.5474700000
      2.1089900000    13.7990800000     3.3477600000
     -1.6719400000    21.7488300000     2.2577600000
     -6.3564500000    14.7549600000    10.6630400000
      0.8471900000    14.5870700000     9.7124500000
     -0.6339300000    14.1180100000    10.4597800000
      1.4213100000    19.0207100000     8.6135500000
      0.8516000000    19.3792900000     6.9950000000
      0.3583800000     9.6322400000     9.5224200000
     -0.9207700000    10.7328200000     9.9798100000
     -2.8169435358    16.0749734231     8.4630668318
    -13.1218295003    25.2278581164     6.0527960495
     -2.0628489353    24.8280305197     5.5235964566
     -1.8193851942    17.6181317636     6.7468684308
     -6.4742163789    18.3410641306     8.3741723226
      5.6137267501    11.9625313824     6.9561775176
     -5.1435719172    16.4432797554     9.2379473977
     -5.4763841118    19.8810598596     6.6519982298
     -0.7275274294    23.0578749081     4.4072951652
      1.7282614591    22.9639590282     4.6929115987
     -6.3603709207    19.9815651513    12.9952213087
     -4.9981517512    18.5264422846    11.0746500268
     -2.3828150924    18.1298741619    11.1075765130
     -1.7447177021    27.0930687504     2.3771845452
     -1.6572456036    17.8038722527    12.6884791062
     -2.0264240496    25.3945725236     2.9892404444
     -1.3854765500    16.6704807847    11.3413536528
     -3.7913483180    16.0015821263    11.3590225447
     -0.4811298371    26.1882040434     3.1936171418
      0.4501673094    23.9521582463     1.8098420690
     -3.1129022472    15.7586430197    12.9698416932
     -1.5439812926    15.7704055549     2.5151817499
     -2.5360975472    16.5792767528     1.2828352448
     -4.8915307851    17.2024537759     1.8973499114
     -1.8989763683    14.1768308505     0.6399575625
     -2.7353625589    14.9377797036     4.7166242485
     -6.9412985575    17.7761628001     4.8527580561
     -7.1271967345    17.5572674833     3.0965556733
     -2.8547859872    13.5777645385     2.0279638323
     -5.1777423805    15.6877038715     5.8549986321
     -3.6245922977    14.4222295073     0.6717003826
     -7.4937523493    16.1928358567     4.1553982588
    -13.5055600000    13.6738500000    24.0649500000
     -2.3681800000     8.7519200000    15.2402700000
    -17.9673400000     9.0201400000    23.9019500000
      0.2051900000    14.6622700000    15.1202400000
     -7.0469400000     1.5516800000    24.0318600000
    -13.4566600000    16.0911100000    15.1090500000
    -13.5386800000     7.9782000000    26.0089100000
     -5.0524900000    12.4152800000    13.2196500000
     -7.5126400000     4.9191100000    18.9066900000
    -10.1230000000    16.8397200000    20.3103500000
    -17.1308600000    11.4295000000    22.0370100000
     -0.4222100000    10.5736500000    17.2255900000
    -14.8297500000     9.9820600000    18.7031700000
    -12.4982100000    18.5088700000    17.1402400000
     -9.0058900000    19.7838400000    15.6424700000
     -2.5260100000     6.7330800000    16.4427600000
     -6.3069400000    14.6828300000    15.3527600000
    -10.9914500000     7.6889600000    23.7580400000
     -3.7878100000     7.5210700000    22.8074500000
     -5.2689300000     7.0520100000    23.5547800000
     -3.2136900000    11.9547100000    21.7085500000
     -3.7834000000    12.3132900000    20.0900000000
     -4.2766200000     2.5662400000    22.6174200000
     -5.5557700000     3.6668200000    23.0748100000
     -7.4519435358     9.0089734231    21.5580668318
    -17.7568295003    18.1618581164    19.1477960495
     -6.6978489353    17.7620305197    18.6185964566
     -6.4543851942    10.5521317636    19.8418684308
    -11.1092163789    11.2750641306    21.4691723226
      0.9787267501     4.8965313824    20.0511775176
     -9.7785719172     9.3772797554    22.3329473977
    -10.1113841118    12.8150598596    19.7469982298
     -5.3625274294    15.9918749081    17.5022951652
     -2.9067385409    15.8979590282    17.7879115987
    -10.9953709207    12.9155651513    26.0902213087
     -9.6331517512    11.4604422846    24.1696500268
     -7.0178150924    11.0638741619    24.2025765130
     -6.3797177021    20.0270687504    15.4721845452
     -6.2922456036    10.7378722527    25.7834791062
     -6.6614240496    18.3285725236    16.0842404444
     -6.0204765500     9.6044807847    24.4363536528
     -8.4263483180     8.9355821263    24.4540225447
     -5.1161298371    19.1222040434    16.2886171418
     -4.1848326906    16.8861582463    14.9048420690
     -7.7479022472     8.6926430197    26.0648416932
     -6.1789812926     8.7044055549    15.6101817499
     -7.1710975472     9.5132767528    14.3778352448
     -9.5265307851    10.1364537759    14.9923499114
     -6.5339763683     7.1108308505    13.7349575625
     -7.3703625589     7.8717797036    17.8116242485
    -11.5762985575    10.7101628001    17.9477580561
    -11.7621967345    10.4912674833    16.1915556733
     -7.4897859872     6.5117645385    15.1229638323
     -9.8127423805     8.6217038715    18.9499986321
     -8.2595922977     7.3562295073    13.7667003826
    -12.1287523493     9.1268358567    17.2503982588
     13.6464400000     5.5698500000    11.1169500000
     24.7838200000     0.6479200000     2.2922700000
      9.1846600000     0.9161400000    10.9539500000
     27.3571900000     6.5582700000     2.1722400000
     20.1050600000    -6.5523200000    11.0838600000
     13.6953400000     7.9871100000     2.1610500000
     13.6133200000    -0.1258000000    13.0609100000
     22.0995100000     4.3112800000     0.2716500000
     19.6393600000    -3.1848900000     5.9586900000
     17.0290000000     8.7357200000     7.3623500000
     10.0211400000     3.3255000000     9.0890100000
     26.7297900000     2.4696500000     4.2775900000
     12.3222500000     1.8780600000     5.7551700000
     14.6537900000    10.4048700000     4.1922400000
     18.1461100000    11.6798400000     2.6944700000
     24.6259900000    -1.3709200000     3.4947600000
     20.8450600000     6.5788300000     2.4047600000
     16.1605500000    -0.4150400000    10.8100400000
     23.3641900000    -0.5829300000     9.8594500000
     21.8830700000    -1.0519900000    10.6067800000
     23.9383100000     3.8507100000     8.7605500000
     23.3686000000     4.2092900000     7.1420000000
     22.8753800000    -5.5377600000     9.6694200000
     21.5962300000    -4.4371800000    10.1268100000
     19.7000564642     0.9049734231     8.6100668318
      9.3951704997    10.0578581164     6.1997960495
     20.4541510647     9.6580305197     5.6705964566
     20.6976148058     2.4481317636     6.8938684308
     16.0427836211     3.1710641306     8.5211723226
     28.1307267501    -3.2074686176     7.1031775176
     17.3734280828     1.2732797554     9.3849473977
     17.0406158882     4.7110598596     6.7989982298
     21.7894725706     7.8878749081     4.5542951652
     24.2452614591     7.7939590282     4.8399115987
     16.1566290793     4.8115651513    13.1422213087
     17.5188482488     3.3564422846    11.2216500268
     20.1341849076     2.9598741619    11.2545765130
     20.7722822979    11.9230687504     2.5241845452
     20.8597543964     2.6338722527    12.8354791062
     20.4905759504    10.2245725236     3.1362404444
     21.1315234500     1.5004807847    11.4883536528
     18.7256516820     0.8315821263    11.5060225447
     22.0358701629    11.0182040434     3.3406171418
     22.9671673094     8.7821582463     1.9568420690
     19.4040977528     0.5886430197    13.1168416932
     20.9730187074     0.6004055549     2.6621817499
     19.9809024528     1.4092767528     1.4298352448
     17.6254692149     2.0324537759     2.0443499114
     20.6180236317    -0.9931691495     0.7869575625
     19.7816374411    -0.2322202964     4.8636242485
     15.5757014425     2.6061628001     4.9997580561
     15.3898032655     2.3872674833     3.2435556733
     19.6622140128    -1.5922354615     2.1749638323
     17.3392576195     0.5177038715     6.0019986321
     18.8924077023    -0.7477704927     0.8187003826
     15.0232476507     1.0228358567     4.3023982588
      9.0114400000    -1.4961500000    24.2119500000
     20.1488200000    -6.4180800000    15.3872700000
      4.5496600000    -6.1498600000    24.0489500000
     22.7221900000    -0.5077300000    15.2672400000
     15.4700600000   -13.6183200000    24.1788600000
      9.0603400000     0.9211100000    15.2560500000
      8.9783200000    -7.1918000000    26.1559100000
     17.4645100000    -2.7547200000    13.3666500000
     15.0043600000   -10.2508900000    19.0536900000
     12.3940000000     1.6697200000    20.4573500000
      5.3861400000    -3.7405000000    22.1840100000
     22.0947900000    -4.5963500000    17.3725900000
      7.6872500000    -5.1879400000    18.8501700000
     10.0187900000     3.3388700000    17.2872400000
     13.5111100000     4.6138400000    15.7894700000
     19.9909900000    -8.4369200000    16.5897600000
     16.2100600000    -0.4871700000    15.4997600000
     11.5255500000    -7.4810400000    23.9050400000
     18.7291900000    -7.6489300000    22.9544500000
     17.2480700000    -8.1179900000    23.7017800000
     19.3033100000    -3.2152900000    21.8555500000
     18.7336000000    -2.8567100000    20.2370000000
     18.2403800000   -12.6037600000    22.7644200000
     16.9612300000   -11.5031800000    23.2218100000
     15.0650564642    -6.1610265769    21.7050668318
      4.7601704997     2.9918581164    19.2947960495
     15.8191510647     2.5920305197    18.7655964566
     16.0626148058    -4.6178682364    19.9888684308
     11.4077836211    -3.8949358694    21.6161723226
     23.4957267501   -10.2734686176    20.1981775176
     12.7384280828    -5.7927202446    22.4799473977
     12.4056158882    -2.3549401404    19.8939982298
     17.1544725706     0.8218749081    17.6492951652
     19.6102614591     0.7279590282    17.9349115987
     11.5216290793    -2.2544348487    26.2372213087
     12.8838482488    -3.7095577154    24.3166500268
     15.4991849076    -4.1061258381    24.3495765130
     16.1372822979     4.8570687504    15.6191845452
     16.2247543964    -4.4321277473    25.9304791062
     15.8555759504     3.1585725236    16.2312404444
     16.4965234500    -5.5655192153    24.5833536528
     14.0906516820    -6.2344178737    24.6010225447
     17.4008701629     3.9522040434    16.4356171418
     18.3321673094     1.7161582463    15.0518420690
     14.7690977528    -6.4773569803    26.2118416932
     16.3380187074    -6.4655944451    15.7571817499
     15.3459024528    -5.6567232472    14.5248352448
     12.9904692149    -5.0335462241    15.1393499114
     15.9830236317    -8.0591691495    13.8819575625
     15.1466374411    -7.2982202964    17.9586242485
     10.9407014425    -4.4598371999    18.0947580561
     10.7548032655    -4.6787325167    16.3385556733
     15.0272140128    -8.6582354615    15.2699638323
     12.7042576195    -6.5482961285    19.0969986321
     14.2574077023    -7.8137704927    13.9137003826
     10.3882476507    -6.0431641433    17.3973982588
      7.1294400000    20.1828500000    11.0599500000
     18.2668200000    15.2609200000     2.2352700000
      2.6676600000    15.5291400000    10.8969500000
     20.8401900000    21.1712700000     2.1152400000
     13.5880600000     8.0606800000    11.0268600000
      7.1783400000    22.6001100000     2.1040500000
      7.0963200000    14.4872000000    13.0039100000
     15.5825100000    18.9242800000     0.2146500000
     13.1223600000    11.4281100000     5.9016900000
     10.5120000000    23.3487200000     7.3053500000
      3.5041400000    17.9385000000     9.0320100000
     20.2127900000    17.0826500000     4.2205900000
      5.8052500000    16.4910600000     5.6981700000
      8.1367900000    25.0178700000     4.1352400000
     11.6291100000    26.2928400000     2.6374700000
     18.1089900000    13.2420800000     3.4377600000
     14.3280600000    21.1918300000     2.3477600000
      9.6435500000    14.1979600000    10.7530400000
     16.8471900000    14.0300700000     9.8024500000
     15.3660700000    13.5610100000    10.5497800000
     17.4213100000    18.4637100000     8.7035500000
     16.8516000000    18.8222900000     7.0850000000
     16.3583800000     9.0752400000     9.6124200000
     15.0792300000    10.1758200000    10.0698100000
     13.1830564642    15.5179734231     8.5530668318
      2.8781704997    24.6708581164     6.1427960495
     13.9371510647    24.2710305197     5.6135964566
     14.1806148058    17.0611317636     6.8368684308
      9.5257836211    17.7840641306     8.4641723226
     21.6137267501    11.4055313824     7.0461775176
     10.8564280828    15.8862797554     9.3279473977
     10.5236158882    19.3240598596     6.7419982298
     15.2724725706    22.5008749081     4.4972951652
     17.7282614591    22.4069590282     4.7829115987
      9.6396290793    19.4245651513    13.0852213087
     11.0018482488    17.9694422846    11.1646500268
     13.6171849076    17.5728741619    11.1975765130
     14.2552822979    26.5360687504     2.4671845452
     14.3427543964    17.2468722527    12.7784791062
     13.9735759504    24.8375725236     3.0792404444
     14.6145234500    16.1134807847    11.4313536528
     12.2086516820    15.4445821263    11.4490225447
     15.5188701629    25.6312040434     3.2836171418
     16.4501673094    23.3951582463     1.8998420690
     12.8870977528    15.2016430197    13.0598416932
     14.4560187074    15.2134055549     2.6051817499
     13.4639024528    16.0222767528     1.3728352448
     11.1084692149    16.6454537759     1.9873499114
     14.1010236317    13.6198308505     0.7299575625
     13.2646374411    14.3807797036     4.8066242485
      9.0587014425    17.2191628001     4.9427580561
      8.8728032655    17.0002674833     3.1865556733
     13.1452140128    13.0207645385     2.1179638323
     10.8222576195    15.1307038715     5.9449986321
     12.3754077023    13.8652295073     0.7617003826
      8.5062476507    15.6358358567     4.2453982588
      2.4944400000    13.1168500000    24.1549500000
     13.6318200000     8.1949200000    15.3302700000
     -1.9673400000     8.4631400000    23.9919500000
     16.2051900000    14.1052700000    15.2102400000
      8.9530600000     0.9946800000    24.1218600000
      2.5433400000    15.5341100000    15.1990500000
      2.4613200000     7.4212000000    26.0989100000
     10.9475100000    11.8582800000    13.3096500000
      8.4873600000     4.3621100000    18.9966900000
      5.8770000000    16.2827200000    20.4003500000
     -1.1308600000    10.8725000000    22.1270100000
     15.5777900000    10.0166500000    17.3155900000
      1.1702500000     9.4250600000    18.7931700000
      3.5017900000    17.9518700000    17.2302400000
      6.9941100000    19.2268400000    15.7324700000
     13.4739900000     6.1760800000    16.5327600000
      9.6930600000    14.1258300000    15.4427600000
      5.0085500000     7.1319600000    23.8480400000
     12.2121900000     6.9640700000    22.8974500000
     10.7310700000     6.4950100000    23.6447800000
     12.7863100000    11.3977100000    21.7985500000
     12.2166000000    11.7562900000    20.1800000000
     11.7233800000     2.0092400000    22.7074200000
     10.4442300000     3.1098200000    23.1648100000
      8.5480564642     8.4519734231    21.6480668318
     -1.7568295003    17.6048581164    19.2377960495
      9.3021510647    17.2050305197    18.7085964566
      9.5456148058     9.9951317636    19.9318684308
      4.8907836211    10.7180641306    21.5591723226
     16.9787267501     4.3395313824    20.1411775176
      6.2214280828     8.8202797554    22.4229473977
      5.8886158882    12.2580598596    19.8369982298
     10.6374725706    15.4348749081    17.5922951652
     13.0932614591    15.3409590282    17.8779115987
      5.0046290793    12.3585651513    26.1802213087
      6.3668482488    10.9034422846    24.2596500268
      8.9821849076    10.5068741619    24.2925765130
      9.6202822979    19.4700687504    15.5621845452
      9.7077543964    10.1808722527    25.8734791062
      9.3385759504    17.7715725236    16.1742404444
      9.9795234500     9.0474807847    24.5263536528
      7.5736516820     8.3785821263    24.5440225447
     10.8838701629    18.5652040434    16.3786171418
     11.8151673094    16.3291582463    14.9948420690
      8.2520977528     8.1356430197    26.1548416932
      9.8210187074     8.1474055549    15.7001817499
      8.8289024528     8.9562767528    14.4678352448
      6.4734692149     9.5794537759    15.0823499114
      9.4660236317     6.5538308505    13.8249575625
      8.6296374411     7.3147797036    17.9016242485
      4.4237014425    10.1531628001    18.0377580561
      4.2378032655     9.9342674833    16.2815556733
      8.5102140128     5.9547645385    15.2129638323
      6.1872576195     8.0647038715    19.0399986321
      7.7404077023     6.7992295073    13.8567003826
      3.8712476507     8.5698358567    17.3403982588
      8.5530700000     4.3697400000     4.7451200000
     -3.8159900000     2.4911500000     8.3993700000
      3.8217500000    -2.7171400000     8.5017000000
      0.8163200000     9.4262100000     4.6127500000
      9.4490900000     3.7654200000     5.7403100000
     -4.7478900000     3.1161600000     7.4223200000
      4.7619500000    -3.3314900000     7.5545100000
     -0.0735000000    10.0730100000     5.6125400000
      9.2003300000     3.8403400000     7.1467300000
     -4.5315000000     2.9961800000     6.0343000000
      5.8914000000    -4.0917900000     8.0075700000
     -1.1682200000    10.8459600000     5.1676100000
      0.1810000000     9.9022500000     6.9674200000
      4.5142400000    -3.1993500000     6.1705800000
     10.5827700000     3.0664400000     5.2646000000
     -5.8480500000     3.8085800000     7.9210000000
      8.7648500000     1.2839900000     0.0581800000
      2.2951100000    13.0755800000     0.0831900000
      6.6142800000    -0.0188900000    13.0271700000
     -6.7440500000     1.5235400000    13.0077900000
      3.4991600000     5.1125200000     5.6179800000
     -1.2569300000    -1.9818500000     7.5361200000
      3.9939900000    -4.3271500000    13.1299800000
      2.2023600000    11.6420600000     0.0457000000
      5.3164500000    -0.6357200000    13.0740400000
     -5.3417400000     1.9378900000    13.0322500000
      8.8042000000     0.6148800000     1.2878600000
     -2.3426400000     6.7152500000    11.9408400000
     -4.0954200000     7.8789100000     1.0761300000
     -7.3768300000     1.2937600000    11.7793000000
      7.3089400000     0.2494000000    11.7938000000
     -2.8062400000     8.3591200000     1.1252600000
      4.1467000000    -6.5224800000    11.9429100000
      8.8258900000    -0.7862300000     1.3694700000
      2.9225893854     4.2185530851     6.6501590526
      1.8126064492     2.5049545154     8.5620521147
      6.2876461583     9.1855322484     5.0887522556
     -1.9135013106    -2.9464300700     6.6206198335
      1.6082585879     4.4305122368     7.1094688909
      3.1260842118     2.2962790299     8.1194916276
      5.5354443989    10.1916531181     5.7071900073
     -7.6806751334    10.6474525772     5.9499547108
      7.6778222613     9.1372616047     5.2454379232
     12.6921575333    -3.4465946357     6.5294565083
      3.6823151349     3.1508830039     7.1671462527
      1.0572867866     3.5755338907     8.0651830155
      5.3892474700    11.5382892862     0.0543835744
      1.4466685921     3.7706291107    12.2017907405
      4.3953854257     2.7193828240    11.8720963861
      5.1812090462    11.4756833958     2.5784751490
      6.4977899022     9.9306558244     1.0917601171
      3.1678663398     1.9066220671    12.2754664060
      0.4170840582     0.3386455319     1.6733979502
      9.6010639401    -5.7941882143    11.1716044299
      4.0091235252     1.1321115492     2.0528675007
      1.9071806250     2.1716293591     2.9160683926
      2.9510722991     0.8922744676     4.3850931224
      3.7781684238    -0.2138797757     1.3675147888
      1.7589431397     1.2744136404     4.9363661352
     -0.3191550335     2.4531546711     4.0872803623
      7.6759832214    12.5849269272     2.7332140536
      9.7313782142    -6.6710281707    12.2460035014
      3.9180700000    -2.6962600000    17.8401200000
     -8.4509900000    -4.5748500000    21.4943700000
     -0.8132500000    -9.7831400000    21.5967000000
     -3.8186800000     2.3602100000    17.7077500000
      4.8140900000    -3.3005800000    18.8353100000
     -9.3828900000    -3.9498400000    20.5173200000
      0.1269500000   -10.3974900000    20.6495100000
     -4.7085000000     3.0070100000    18.7075400000
      4.5653300000    -3.2256600000    20.2417300000
     -9.1665000000    -4.0698200000    19.1293000000
      1.2564000000   -11.1577900000    21.1025700000
     -5.8032200000     3.7799600000    18.2626100000
     -4.4540000000     2.8362500000    20.0624200000
     -0.1207600000   -10.2653500000    19.2655800000
      5.9477700000    -3.9995600000    18.3596000000
    -10.4830500000    -3.2574200000    21.0160000000
      4.1298500000    -5.7820100000    13.1531800000
     -2.3398900000     6.0095800000    13.1781900000
      1.9792800000    -7.0848900000    26.1221700000
    -11.3790500000    -5.5424600000    26.1027900000
     -1.1358400000    -1.9534800000    18.7129800000
     -5.8919300000    -9.0478500000    20.6311200000
     -0.6410100000   -11.3931500000    26.2249800000
     -2.4326400000     4.5760600000    13.1407000000
      0.6814500000    -7.7017200000    26.1690400000
     -9.9767400000    -5.1281100000    26.1272500000
      4.1692000000    -6.4511200000    14.3828600000
     -6.9776400000    -0.3507500000    25.0358400000
     -8.7304200000     0.8129100000    14.1711300000
    -12.0118300000    -5.7722400000    24.8743000000
      2.6739400000    -6.8166000000    24.8888000000
     -7.4412400000     1.2931200000    14.2202600000
     -0.4883000000   -13.5884800000    25.0379100000
      4.1908900000    -7.8522300000    14.4644700000
     -1.7124106146    -2.8474469149    19.7451590526
     -2.8223935508    -4.5610454846    21.6570521147
      1.6526461583     2.1195322484    18.1837522556
     -6.5485013106   -10.0124300700    19.7156198335
     -3.0267414121    -2.6354877632    20.2044688909
     -1.5089157882    -4.7697209701    21.2144916276
      0.9004443989     3.1256531181    18.8021900073
    -12.3156751334     3.5814525772    19.0449547108
      3.0428222613     2.0712616047    18.3404379232
      8.0571575333   -10.5125946357    19.6244565083
     -0.9526848651    -3.9151169961    20.2621462527
     -3.5777132134    -3.4904661093    21.1601830155
      0.7542474700     4.4722892862    13.1493835744
     -3.1883314079    -3.2953708893    25.2967907405
     -0.2396145743    -4.3466171760    24.9670963861
      0.5462090462     4.4096833958    15.6734751490
      1.8627899022     2.8646558244    14.1867601171
     -1.4671336602    -5.1593779329    25.3704664060
     -4.2179159418    -6.7273544681    14.7683979502
      4.9660639401   -12.8601882143    24.2666044299
     -0.6258764748    -5.9338884508    15.1478675007
     -2.7278193750    -4.8943706409    16.0110683926
     -1.6839277009    -6.1737255324    17.4800931224
     -0.8568315762    -7.2798797757    14.4625147888
     -2.8760568603    -5.7915863596    18.0313661352
     -4.9541550335    -4.6128453289    17.1822803623
      3.0409832214     5.5189269272    15.8282140536
      5.0963782142   -13.7370281707    25.3410035014
      2.0360700000    18.9827400000     4.6881200000
    -10.3329900000    17.1041500000     8.3423700000
     -2.6952500000    11.8958600000     8.4447000000
     -5.7006800000    24.0392100000     4.5557500000
      2.9320900000    18.3784200000     5.6833100000
    -11.2648900000    17.7291600000     7.3653200000
     -1.7550500000    11.2815100000     7.4975100000
     -6.5905000000    24.6860100000     5.5555400000
      2.6833300000    18.4533400000     7.0897300000
    -11.0485000000    17.6091800000     5.9773000000
     -0.6256000000    10.5212100000     7.9505700000
     -7.6852200000    25.4589600000     5.1106100000
     -6.3360000000    24.5152500000     6.9104200000
     -2.0027600000    11.4136500000     6.1135800000
      4.0657700000    17.6794400000     5.2076000000
    -12.3650500000    18.4215800000     7.8640000000
      2.2478500000    15.8969900000     0.0011800000
     -4.2218900000    27.6885800000     0.0261900000
      0.0972800000    14.5941100000    12.9701700000
    -13.2610500000    16.1365400000    12.9507900000
     -3.0178400000    19.7255200000     5.5609800000
     -7.7739300000    12.6311500000     7.4791200000
     -2.5230100000    10.2858500000    13.0729800000
     -4.3146400000    26.2550600000    -0.0113000000
     -1.2005500000    13.9772800000    13.0170400000
    -11.8587400000    16.5508900000    12.9752500000
      2.2872000000    15.2278800000     1.2308600000
     -8.8596400000    21.3282500000    11.8838400000
    -10.6124200000    22.4919100000     1.0191300000
    -13.8938300000    15.9067600000    11.7223000000
      0.7919400000    14.8624000000    11.7368000000
     -9.3232400000    22.9721200000     1.0682600000
     -2.3703000000     8.0905200000    11.8859100000
      2.3088900000    13.8267700000     1.3124700000
     -3.5944106146    18.8315530851     6.5931590526
     -4.7043935508    17.1179545154     8.5050521147
     -0.2293538417    23.7985322484     5.0317522556
     -8.4305013106    11.6665699300     6.5636198335
     -4.9087414121    19.0435122368     7.0524688909
     -3.3909157882    16.9092790299     8.0624916276
     -0.9815556011    24.8046531181     5.6501900073
    -14.1976751334    25.2604525772     5.8929547108
      1.1608222613    23.7502616047     5.1884379232
      6.1751575333    11.1664053643     6.4724565083
     -2.8346848651    17.7638830039     7.1101462527
     -5.4597132134    18.1885338907     8.0081830155
     -1.1277525300    26.1512892862    -0.0026164256
     -5.0703314079    18.3836291107    12.1447907405
     -2.1216145743    17.3323828240    11.8150963861
     -1.3357909538    26.0886833958     2.5214751490
     -0.0192100978    24.5436558244     1.0347601171
     -3.3491336602    16.5196220671    12.2184664060
     -6.0999159418    14.9516455319     1.6163979502
      3.0840639401     8.8188117857    11.1146044299
     -2.5078764748    15.7451115492     1.9958675007
     -4.6098193750    16.7846293591     2.8590683926
     -3.5659277009    15.5052744676     4.3280931224
     -2.7388315762    14.3991202243     1.3105147888
     -4.7580568603    15.8874136404     4.8793661352
     -6.8361550335    17.0661546711     4.0302803623
      1.1589832214    27.1979269272     2.6762140536
      3.2143782142     7.9419718293    12.1890035014
     -2.5989300000    11.9167400000    17.7831200000
    -14.9679900000    10.0381500000    21.4373700000
     -7.3302500000     4.8298600000    21.5397000000
    -10.3356800000    16.9732100000    17.6507500000
     -1.7029100000    11.3124200000    18.7783100000
    -15.8998900000    10.6631600000    20.4603200000
     -6.3900500000     4.2155100000    20.5925100000
    -11.2255000000    17.6200100000    18.6505400000
     -1.9516700000    11.3873400000    20.1847300000
    -15.6835000000    10.5431800000    19.0723000000
     -5.2606000000     3.4552100000    21.0455700000
    -12.3202200000    18.3929600000    18.2056100000
    -10.9710000000    17.4492500000    20.0054200000
     -6.6377600000     4.3476500000    19.2085800000
     -0.5692300000    10.6134400000    18.3026000000
    -17.0000500000    11.3555800000    20.9590000000
     -2.3871500000     8.8309900000    13.0961800000
     -8.8568900000    20.6225800000    13.1211900000
     -4.5377200000     7.5281100000    26.0651700000
    -17.8960500000     9.0705400000    26.0457900000
     -7.6528400000    12.6595200000    18.6559800000
    -12.4089300000     5.5651500000    20.5741200000
     -7.1580100000     3.2198500000    26.1679800000
     -8.9496400000    19.1890600000    13.0837000000
     -5.8355500000     6.9112800000    26.1120400000
    -16.4937400000     9.4848900000    26.0702500000
     -2.3478000000     8.1618800000    14.3258600000
    -13.4946400000    14.2622500000    24.9788400000
    -15.2474200000    15.4259100000    14.1141300000
    -18.5288300000     8.8407600000    24.8173000000
     -3.8430600000     7.7964000000    24.8318000000
    -13.9582400000    15.9061200000    14.1632600000
     -7.0053000000     1.0245200000    24.9809100000
     -2.3261100000     6.7607700000    14.4074700000
     -8.2294106146    11.7655530851    19.6881590526
     -9.3393935508    10.0519545154    21.6000521147
     -4.8643538417    16.7325322484    18.1267522556
    -13.0655013106     4.6005699300    19.6586198335
     -9.5437414121    11.9775122368    20.1474688909
     -8.0259157882     9.8432790299    21.1574916276
     -5.6165556011    17.7386531181    18.7451900073
    -18.8326751334    18.1944525772    18.9879547108
     -3.4741777387    16.6842616047    18.2834379232
      1.5401575333     4.1004053643    19.5674565083
     -7.4696848651    10.6978830039    20.2051462527
    -10.0947132134    11.1225338907    21.1031830155
     -5.7627525300    19.0852892862    13.0923835744
     -9.7053314079    11.3176291107    25.2397907405
     -6.7566145743    10.2663828240    24.9100963861
     -5.9707909538    19.0226833958    15.6164751490
     -4.6542100978    17.4776558244    14.1297601171
     -7.9841336602     9.4536220671    25.3134664060
    -10.7349159418     7.8856455319    14.7113979502
     -1.5509360599     1.7528117857    24.2096044299
     -7.1428764748     8.6791115492    15.0908675007
     -9.2448193750     9.7186293591    15.9540683926
     -8.2009277009     8.4392744676    17.4230931224
     -7.3738315762     7.3331202243    14.4055147888
     -9.3930568603     8.8214136404    17.9743661352
    -11.4711550335    10.0001546711    17.1252803623
     -3.4760167786    20.1319269272    15.7712140536
     -1.4206217858     0.8759718293    25.2840035014
     24.5530700000     3.8127400000     4.8351200000
     12.1840100000     1.9341500000     8.4893700000
     19.8217500000    -3.2741400000     8.5917000000
     16.8163200000     8.8692100000     4.7027500000
     25.4490900000     3.2084200000     5.8303100000
     11.2521100000     2.5591600000     7.5123200000
     20.7619500000    -3.8884900000     7.6445100000
     15.9265000000     9.5160100000     5.7025400000
     25.2003300000     3.2833400000     7.2367300000
     11.4685000000     2.4391800000     6.1243000000
     21.8914000000    -4.6487900000     8.0975700000
     14.8317800000    10.2889600000     5.2576100000
     16.1810000000     9.3452500000     7.0574200000
     20.5142400000    -3.7563500000     6.2605800000
     26.5827700000     2.5094400000     5.3546000000
     10.1519500000     3.2515800000     8.0110000000
     24.7648500000     0.7269900000     0.1481800000
     18.2951100000    12.5185800000     0.1731900000
     22.6142800000    -0.5758900000    13.1171700000
      9.2559500000     0.9665400000    13.0977900000
     19.4991600000     4.5555200000     5.7079800000
     14.7430700000    -2.5388500000     7.6261200000
     19.9939900000    -4.8841500000    13.2199800000
     18.2023600000    11.0850600000     0.1357000000
     21.3164500000    -1.1927200000    13.1640400000
     10.6582600000     1.3808900000    13.1222500000
     24.8042000000     0.0578800000     1.3778600000
     13.6573600000     6.1582500000    12.0308400000
     11.9045800000     7.3219100000     1.1661300000
      8.6231700000     0.7367600000    11.8693000000
     23.3089400000    -0.3076000000    11.8838000000
     13.1937600000     7.8021200000     1.2152600000
     20.1467000000    -7.0794800000    12.0329100000
     24.8258900000    -1.3432300000     1.4594700000
     18.9225893854     3.6615530851     6.7401590526
     17.8126064492     1.9479545154     8.6520521147
     22.2876461583     8.6285322484     5.1787522556
     14.0864986894    -3.5034300700     6.7106198335
     17.6082585879     3.8735122368     7.1994688909
     19.1260842118     1.7392790299     8.2094916276
     21.5354443989     9.6346531181     5.7971900073
      8.3193248666    10.0904525772     6.0399547108
     23.6778222613     8.5802616047     5.3354379232
     28.6921575333    -4.0035946357     6.6194565083
     19.6823151349     2.5938830039     7.2571462527
     17.0572867866     3.0185338907     8.1551830155
     21.3892474700    10.9812892862     0.1443835744
     17.4466685921     3.2136291107    12.2917907405
     20.3953854257     2.1623828240    11.9620963861
     21.1812090462    10.9186833958     2.6684751490
     22.4977899022     9.3736558244     1.1817601171
     19.1678663398     1.3496220671    12.3654664060
     16.4170840582    -0.2183544681     1.7633979502
     25.6010639401    -6.3511882143    11.2616044299
     20.0091235252     0.5751115492     2.1428675007
     17.9071806250     1.6146293591     3.0060683926
     18.9510722991     0.3352744676     4.4750931224
     19.7781684238    -0.7708797757     1.4575147888
     17.7589431397     0.7174136404     5.0263661352
     15.6808449665     1.8961546711     4.1772803623
     23.6759832214    12.0279269272     2.8232140536
     25.7313782142    -7.2280281707    12.3360035014
     19.9180700000    -3.2532600000    17.9301200000
      7.5490100000    -5.1318500000    21.5843700000
     15.1867500000   -10.3401400000    21.6867000000
     12.1813200000     1.8032100000    17.7977500000
     20.8140900000    -3.8575800000    18.9253100000
      6.6171100000    -4.5068400000    20.6073200000
     16.1269500000   -10.9544900000    20.7395100000
     11.2915000000     2.4500100000    18.7975400000
     20.5653300000    -3.7826600000    20.3317300000
      6.8335000000    -4.6268200000    19.2193000000
     17.2564000000   -11.7147900000    21.1925700000
     10.1967800000     3.2229600000    18.3526100000
     11.5460000000     2.2792500000    20.1524200000
     15.8792400000   -10.8223500000    19.3555800000
     21.9477700000    -4.5565600000    18.4496000000
      5.5169500000    -3.8144200000    21.1060000000
     20.1298500000    -6.3390100000    13.2431800000
     13.6601100000     5.4525800000    13.2681900000
     17.9792800000    -7.6418900000    26.2121700000
      4.6209500000    -6.0994600000    26.1927900000
     14.8641600000    -2.5104800000    18.8029800000
     10.1080700000    -9.6048500000    20.7211200000
     15.3589900000   -11.9501500000    26.3149800000
     13.5673600000     4.0190600000    13.2307000000
     16.6814500000    -8.2587200000    26.2590400000
      6.0232600000    -5.6851100000    26.2172500000
     20.1692000000    -7.0081200000    14.4728600000
      9.0223600000    -0.9077500000    25.1258400000
      7.2695800000     0.2559100000    14.2611300000
      3.9881700000    -6.3292400000    24.9643000000
     18.6739400000    -7.3736000000    24.9788000000
      8.5587600000     0.7361200000    14.3102600000
     15.5117000000   -14.1454800000    25.1279100000
     20.1908900000    -8.4092300000    14.5544700000
     14.2875893854    -3.4044469149    19.8351590526
     13.1776064492    -5.1180454846    21.7470521147
     17.6526461583     1.5625322484    18.2737522556
      9.4514986894   -10.5694300700    19.8056198335
     12.9732585879    -3.1924877632    20.2944688909
     14.4910842118    -5.3267209701    21.3044916276
     16.9004443989     2.5686531181    18.8921900073
      3.6843248666     3.0244525772    19.1349547108
     19.0428222613     1.5142616047    18.4304379232
     24.0571575333   -11.0695946357    19.7144565083
     15.0473151349    -4.4721169961    20.3521462527
     12.4222867866    -4.0474661093    21.2501830155
     16.7542474700     3.9152892862    13.2393835744
     12.8116685921    -3.8523708893    25.3867907405
     15.7603854257    -4.9036171760    25.0570963861
     16.5462090462     3.8526833958    15.7634751490
     17.8627899022     2.3076558244    14.2767601171
     14.5328663398    -5.7163779329    25.4604664060
     11.7820840582    -7.2843544681    14.8583979502
     20.9660639401   -13.4171882143    24.3566044299
     15.3741235252    -6.4908884508    15.2378675007
     13.2721806250    -5.4513706409    16.1010683926
     14.3160722991    -6.7307255324    17.5700931224
     15.1431684238    -7.8368797757    14.5525147888
     13.1239431397    -6.3485863596    18.1213661352
     11.0458449665    -5.1698453289    17.2722803623
     19.0409832214     4.9619269272    15.9182140536
     21.0963782142   -14.2940281707    25.4310035014
     18.0360700000    18.4257400000     4.7781200000
      5.6670100000    16.5471500000     8.4323700000
     13.3047500000    11.3388600000     8.5347000000
     10.2993200000    23.4822100000     4.6457500000
     18.9320900000    17.8214200000     5.7733100000
      4.7351100000    17.1721600000     7.4553200000
     14.2449500000    10.7245100000     7.5875100000
      9.4095000000    24.1290100000     5.6455400000
     18.6833300000    17.8963400000     7.1797300000
      4.9515000000    17.0521800000     6.0673000000
     15.3744000000     9.9642100000     8.0405700000
      8.3147800000    24.9019600000     5.2006100000
      9.6640000000    23.9582500000     7.0004200000
     13.9972400000    10.8566500000     6.2035800000
     20.0657700000    17.1224400000     5.2976000000
      3.6349500000    17.8645800000     7.9540000000
     18.2478500000    15.3399900000     0.0911800000
     11.7781100000    27.1315800000     0.1161900000
     16.0972800000    14.0371100000    13.0601700000
      2.7389500000    15.5795400000    13.0407900000
     12.9821600000    19.1685200000     5.6509800000
      8.2260700000    12.0741500000     7.5691200000
     13.4769900000     9.7288500000    13.1629800000
     11.6853600000    25.6980600000     0.0787000000
     14.7994500000    13.4202800000    13.1070400000
      4.1412600000    15.9938900000    13.0652500000
     18.2872000000    14.6708800000     1.3208600000
      7.1403600000    20.7712500000    11.9738400000
      5.3875800000    21.9349100000     1.1091300000
      2.1061700000    15.3497600000    11.8123000000
     16.7919400000    14.3054000000    11.8268000000
      6.6767600000    22.4151200000     1.1582600000
     13.6297000000     7.5335200000    11.9759100000
     18.3088900000    13.2697700000     1.4024700000
     12.4055893854    18.2745530851     6.6831590526
     11.2956064492    16.5609545154     8.5950521147
     15.7706461583    23.2415322484     5.1217522556
      7.5694986894    11.1095699300     6.6536198335
     11.0912585879    18.4865122368     7.1424688909
     12.6090842118    16.3522790299     8.1524916276
     15.0184443989    24.2476531181     5.7401900073
      1.8023248666    24.7034525772     5.9829547108
     17.1608222613    23.1932616047     5.2784379232
     22.1751575333    10.6094053643     6.5624565083
     13.1653151349    17.2068830039     7.2001462527
     10.5402867866    17.6315338907     8.0981830155
     14.8722474700    25.5942892862     0.0873835744
     10.9296685921    17.8266291107    12.2347907405
     13.8783854257    16.7753828240    11.9050963861
     14.6642090462    25.5316833958     2.6114751490
     15.9807899022    23.9866558244     1.1247601171
     12.6508663398    15.9626220671    12.3084664060
      9.9000840582    14.3946455319     1.7063979502
     19.0840639401     8.2618117857    11.2046044299
     13.4921235252    15.1881115492     2.0858675007
     11.3901806250    16.2276293591     2.9490683926
     12.4340722991    14.9482744676     4.4180931224
     13.2611684238    13.8421202243     1.4005147888
     11.2419431397    15.3304136404     4.9693661352
      9.1638449665    16.5091546711     4.1202803623
     17.1589832214    26.6409269272     2.7662140536
     19.2143782142     7.3849718293    12.2790035014
     13.4010700000    11.3597400000    17.8731200000
      1.0320100000     9.4811500000    21.5273700000
      8.6697500000     4.2728600000    21.6297000000
      5.6643200000    16.4162100000    17.7407500000
     14.2970900000    10.7554200000    18.8683100000
      0.1001100000    10.1061600000    20.5503200000
      9.6099500000     3.6585100000    20.6825100000
      4.7745000000    17.0630100000    18.7405400000
     14.0483300000    10.8303400000    20.2747300000
      0.3165000000     9.9861800000    19.1623000000
     10.7394000000     2.8982100000    21.1355700000
      3.6797800000    17.8359600000    18.2956100000
      5.0290000000    16.8922500000    20.0954200000
      9.3622400000     3.7906500000    19.2985800000
     15.4307700000    10.0564400000    18.3926000000
     -1.0000500000    10.7985800000    21.0490000000
     13.6128500000     8.2739900000    13.1861800000
      7.1431100000    20.0655800000    13.2111900000
     11.4622800000     6.9711100000    26.1551700000
     -1.8960500000     8.5135400000    26.1357900000
      8.3471600000    12.1025200000    18.7459800000
      3.5910700000     5.0081500000    20.6641200000
      8.8419900000     2.6628500000    26.2579800000
      7.0503600000    18.6320600000    13.1737000000
     10.1644500000     6.3542800000    26.2020400000
     -0.4937400000     8.9278900000    26.1602500000
     13.6522000000     7.6048800000    14.4158600000
      2.5053600000    13.7052500000    25.0688400000
      0.7525800000    14.8689100000    14.2041300000
     -2.5288300000     8.2837600000    24.9073000000
     12.1569400000     7.2394000000    24.9218000000
      2.0417600000    15.3491200000    14.2532600000
      8.9947000000     0.4675200000    25.0709100000
     13.6738900000     6.2037700000    14.4974700000
      7.7705893854    11.2085530851    19.7781590526
      6.6606064492     9.4949545154    21.6900521147
     11.1356461583    16.1755322484    18.2167522556
      2.9344986894     4.0435699300    19.7486198335
      6.4562585879    11.4205122368    20.2374688909
      7.9740842118     9.2862790299    21.2474916276
     10.3834443989    17.1816531181    18.8351900073
     -2.8326751334    17.6374525772    19.0779547108
     12.5258222613    16.1272616047    18.3734379232
     17.5401575333     3.5434053643    19.6574565083
      8.5303151349    10.1408830039    20.2951462527
      5.9052867866    10.5655338907    21.1931830155
     10.2372474700    18.5282892862    13.1823835744
      6.2946685921    10.7606291107    25.3297907405
      9.2433854257     9.7093828240    25.0000963861
     10.0292090462    18.4656833958    15.7064751490
     11.3457899022    16.9206558244    14.2197601171
      8.0158663398     8.8966220671    25.4034664060
      5.2650840582     7.3286455319    14.8013979502
     14.4490639401     1.1958117857    24.2996044299
      8.8571235252     8.1221115492    15.1808675007
      6.7551806250     9.1616293591    16.0440683926
      7.7990722991     7.8822744676    17.5130931224
      8.6261684238     6.7761202243    14.4955147888
      6.6069431397     8.2644136404    18.0643661352
      4.5288449665     9.4431546711    17.2152803623
     12.5239832214    19.5749269272    15.8612140536
     14.5793782142     0.3189718293    25.3740035014
      8.8809500000    -1.3850600000     2.6076300000
      6.7299000000     0.0665500000    10.5548300000
      8.1194500000     4.4865800000     7.6780200000
      6.2224100000    -4.2500400000     9.3249700000
      5.6350970500    10.9455803949     1.2820200896
      2.1361231088     2.7743524960    12.8703311876
     13.6451316317    -0.2233978102     0.2613993583
      2.9974360881     1.3987710911     3.0974431701
      1.0898389853     2.0310153167     3.9876549692
     -0.5401355923     0.5374596455     1.4926247426
      4.2459500000    -8.4510600000    15.7026300000
      2.0949000000    -6.9994500000    23.6498300000
      3.4844500000    -2.5794200000    20.7730200000
      1.5874100000   -11.3160400000    22.4199700000
      1.0000970500     3.8795803949    14.3770200896
     -2.4988768912    -4.2916475040    25.9653311876
      9.0101316317    -7.2893978102    13.3563993583
     -1.6375639119    -5.6672289089    16.1924431701
     -3.5451610147    -5.0349846833    17.0826549692
     -5.1751355923    -6.5285403545    14.5876247426
      2.3639500000    13.2279400000     2.5506300000
      0.2129000000    14.6795500000    10.4978300000
      1.6024500000    19.0995800000     7.6210200000
     -0.2945900000    10.3629600000     9.2679700000
     -0.8819029500    25.5585803949     1.2250200896
     -4.3808768912    17.3873524960    12.8133311876
      7.1281316317    14.3896021898     0.2043993583
     -3.5195639119    16.0117710911     3.0404431701
     -5.4271610147    16.6440153167     3.9306549692
     -7.0571355923    15.1504596455     1.4356247426
     -2.2710500000     6.1619400000    15.6456300000
     -4.4221000000     7.6135500000    23.5928300000
     -3.0325500000    12.0335800000    20.7160200000
     -4.9295900000     3.2969600000    22.3629700000
     -5.5169029500    18.4925803949    14.3200200896
     -9.0158768912    10.3213524960    25.9083311876
      2.4931316317     7.3236021898    13.2993993583
     -8.1545639119     8.9457710911    16.1354431701
    -10.0621610147     9.5780153167    17.0256549692
    -11.6921355923     8.0844596455    14.5306247426
     24.8809500000    -1.9420600000     2.6976300000
     22.7299000000    -0.4904500000    10.6448300000
     24.1194500000     3.9295800000     7.7680200000
     22.2224100000    -4.8070400000     9.4149700000
     21.6350970500    10.3885803949     1.3720200896
     18.1361231088     2.2173524960    12.9603311876
     29.6451316317    -0.7803978102     0.3513993583
     18.9974360881     0.8417710911     3.1874431701
     17.0898389853     1.4740153167     4.0776549692
     15.4598644077    -0.0195403545     1.5826247426
     20.2459500000    -9.0080600000    15.7926300000
     18.0949000000    -7.5564500000    23.7398300000
     19.4844500000    -3.1364200000    20.8630200000
     17.5874100000   -11.8730400000    22.5099700000
     17.0000970500     3.3225803949    14.4670200896
     13.5011231088    -4.8486475040    26.0553311876
     25.0101316317    -7.8463978102    13.4463993583
     14.3624360881    -6.2242289089    16.2824431701
     12.4548389853    -5.5919846833    17.1726549692
     10.8248644077    -7.0855403545    14.6776247426
     18.3639500000    12.6709400000     2.6406300000
     16.2129000000    14.1225500000    10.5878300000
     17.6024500000    18.5425800000     7.7110200000
     15.7054100000     9.8059600000     9.3579700000
     15.1180970500    25.0015803949     1.3150200896
     11.6191231088    16.8303524960    12.9033311876
     23.1281316317    13.8326021898     0.2943993583
     12.4804360881    15.4547710911     3.1304431701
     10.5728389853    16.0870153167     4.0206549692
      8.9428644077    14.5934596455     1.5256247426
     13.7289500000     5.6049400000    15.7356300000
     11.5779000000     7.0565500000    23.6828300000
     12.9674500000    11.4765800000    20.8060200000
     11.0704100000     2.7399600000    22.4529700000
     10.4830970500    17.9355803949    14.4100200896
      6.9841231088     9.7643524960    25.9983311876
     18.4931316317     6.7666021898    13.3893993583
      7.8454360881     8.3887710911    16.2254431701
      5.9378389853     9.0210153167    17.1156549692
      4.3078644077     7.5274596455    14.6206247426
      7.3767500000     4.7748300000     5.1109100000
     -3.0470000000     1.5402800000     8.0010800000
      4.2032100000    -2.5926600000     9.7228000000
      0.7504500000     9.8558800000     3.4131500000
      1.5867800000     8.4689900000     4.9992000000
      2.6513300000    -2.3487000000     8.0961800000
      8.9649500000     4.4504900000     3.5333700000
     -3.8580000000     2.9274000000     9.5990800000
      6.2924400000     4.1956200000     2.5343600000
     -1.3537800000     2.0542300000    10.0994400000
      7.2312300000     6.4829100000     2.9843400000
     -3.1059600000     0.3295500000    10.5921100000
      1.5005500000    -2.8784000000    10.6868300000
      3.2689900000     9.0170100000     2.9149100000
      2.4545000000    -0.6169100000    10.2226600000
      1.5627600000     7.2599000000     2.3974800000
      4.7202800000     4.9326500000     5.2637300000
     -1.9146000000    -0.9469100000     7.9143400000
      3.8717700000    -3.7326400000    11.9888900000
      2.1192500000    10.9406300000     1.1408900000
      4.6739200000    -0.9444600000    11.9837600000
     -0.1166800000     9.1049000000     1.0808200000
     -0.0951100000    -2.2764000000     7.9939300000
      2.7573200000     6.0334100000     5.1246400000
      9.4121100000     6.1301000000     1.1270200000
     -4.7422200000     2.1697100000    11.9148400000
      8.6165500000     3.3757800000     1.1564300000
     -2.4740300000     3.9520500000    11.9961100000
      4.4842300000     6.5870700000     3.0354300000
     -0.2177100000    -0.4167400000    10.0164500000
      6.9383400000     5.3619500000     0.1026300000
     -2.2643100000     1.3980000000    13.0308900000
     13.7888303843    -0.6093851705     2.7441190684
      8.3241346166    12.1385000967     1.1541468682
      1.3263649520     6.8520744535    11.0408942235
      3.8270653562     5.9391626146    11.2509867805
      0.1571792364     2.7429543809     0.3578531423
      1.0175052312    -1.3575750995     3.0555091861
     -3.6502222342    -6.3175303688    12.2134695169
      9.7192206229    12.0942869019     0.7859720910
      2.7417500000    -2.2911700000    18.2059100000
     -7.6820000000    -5.5257200000    21.0960800000
     -0.4317900000    -9.6586600000    22.8178000000
     -3.8845500000     2.7898800000    16.5081500000
     -3.0482200000     1.4029900000    18.0942000000
     -1.9836700000    -9.4147000000    21.1911800000
      4.3299500000    -2.6155100000    16.6283700000
     -8.4930000000    -4.1386000000    22.6940800000
      1.6574400000    -2.8703800000    15.6293600000
     -5.9887800000    -5.0117700000    23.1944400000
      2.5962300000    -0.5830900000    16.0793400000
     -7.7409600000    -6.7364500000    23.6871100000
     -3.1344500000    -9.9444000000    23.7818300000
     -1.3660100000     1.9510100000    16.0099100000
     -2.1805000000    -7.6829100000    23.3176600000
     -3.0722400000     0.1939000000    15.4924800000
      0.0852800000    -2.1333500000    18.3587300000
     -6.5496000000    -8.0129100000    21.0093400000
     -0.7632300000   -10.7986400000    25.0838900000
     -2.5157500000     3.8746300000    14.2358900000
      0.0389200000    -8.0104600000    25.0787600000
     -4.7516800000     2.0389000000    14.1758200000
     -4.7301100000    -9.3424000000    21.0889300000
     -1.8776800000    -1.0325900000    18.2196400000
      4.7771100000    -0.9359000000    14.2220200000
     -9.3772200000    -4.8962900000    25.0098400000
      3.9815500000    -3.6902200000    14.2514300000
     -7.1090300000    -3.1139500000    25.0911100000
     -0.1507700000    -0.4789300000    16.1304300000
     -4.8527100000    -7.4827400000    23.1114500000
      2.3033400000    -1.7040500000    13.1976300000
     -6.8993100000    -5.6680000000    26.1258900000
      9.1538303843    -7.6753851705    15.8391190684
      3.6891346166     5.0725000967    14.2491468682
     -3.3086350480    -0.2139255465    24.1358942235
     -0.8079346438    -1.1268373854    24.3459867805
     -4.4778207636    -4.3230456191    13.4528531423
     -3.6174947688    -8.4235750995    16.1505091861
     -8.2852222342   -13.3835303688    25.3084695169
      5.0842206229     5.0282869019    13.8809720910
      0.8597500000    19.3878300000     5.0539100000
     -9.5640000000    16.1532800000     7.9440800000
     -2.3137900000    12.0203400000     9.6658000000
     -5.7665500000    24.4688800000     3.3561500000
     -4.9302200000    23.0819900000     4.9422000000
     -3.8656700000    12.2643000000     8.0391800000
      2.4479500000    19.0634900000     3.4763700000
    -10.3750000000    17.5404000000     9.5420800000
     -0.2245600000    18.8086200000     2.4773600000
     -7.8707800000    16.6672300000    10.0424400000
      0.7142300000    21.0959100000     2.9273400000
     -9.6229600000    14.9425500000    10.5351100000
     -5.0164500000    11.7346000000    10.6298300000
     -3.2480100000    23.6300100000     2.8579100000
     -4.0625000000    13.9960900000    10.1656600000
     -4.9542400000    21.8729000000     2.3404800000
     -1.7967200000    19.5456500000     5.2067300000
     -8.4316000000    13.6660900000     7.8573400000
     -2.6452300000    10.8803600000    11.9318900000
     -4.3977500000    25.5536300000     1.0838900000
     -1.8430800000    13.6685400000    11.9267600000
     -6.6336800000    23.7179000000     1.0238200000
     -6.6121100000    12.3366000000     7.9369300000
     -3.7596800000    20.6464100000     5.0676400000
      2.8951100000    20.7431000000     1.0700200000
    -11.2592200000    16.7827100000    11.8578400000
      2.0995500000    17.9887800000     1.0994300000
     -8.9910300000    18.5650500000    11.9391100000
     -2.0327700000    21.2000700000     2.9784300000
     -6.7347100000    14.1962600000     9.9594500000
      0.4213400000    19.9749500000     0.0456300000
     -8.7813100000    16.0110000000    12.9738900000
      7.2718303843    14.0036148295     2.6871190684
      1.8071346166    26.7515000967     1.0971468682
     -5.1906350480    21.4650744535    10.9838942235
     -2.6899346438    20.5521626146    11.1939867805
     -6.3598207636    17.3559543809     0.3008531423
     -5.4994947688    13.2554249005     2.9985091861
    -10.1672222342     8.2954696312    12.1564695169
      3.2022206229    26.7072869019     0.7289720910
     -3.7752500000    12.3218300000    18.1489100000
    -14.1990000000     9.0872800000    21.0390800000
     -6.9487900000     4.9543400000    22.7608000000
    -10.4015500000    17.4028800000    16.4511500000
     -9.5652200000    16.0159900000    18.0372000000
     -8.5006700000     5.1983000000    21.1341800000
     -2.1870500000    11.9974900000    16.5713700000
    -15.0100000000    10.4744000000    22.6370800000
     -4.8595600000    11.7426200000    15.5723600000
    -12.5057800000     9.6012300000    23.1374400000
     -3.9207700000    14.0299100000    16.0223400000
    -14.2579600000     7.8765500000    23.6301100000
     -9.6514500000     4.6686000000    23.7248300000
     -7.8830100000    16.5640100000    15.9529100000
     -8.6975000000     6.9300900000    23.2606600000
     -9.5892400000    14.8069000000    15.4354800000
     -6.4317200000    12.4796500000    18.3017300000
    -13.0666000000     6.6000900000    20.9523400000
     -7.2802300000     3.8143600000    25.0268900000
     -9.0327500000    18.4876300000    14.1788900000
     -6.4780800000     6.6025400000    25.0217600000
    -11.2686800000    16.6519000000    14.1188200000
    -11.2471100000     5.2706000000    21.0319300000
     -8.3946800000    13.5804100000    18.1626400000
     -1.7398900000    13.6771000000    14.1650200000
    -15.8942200000     9.7167100000    24.9528400000
     -2.5354500000    10.9227800000    14.1944300000
    -13.6260300000    11.4990500000    25.0341100000
     -6.6677700000    14.1340700000    16.0734300000
    -11.3697100000     7.1302600000    23.0544500000
     -4.2136600000    12.9089500000    13.1406300000
    -13.4163100000     8.9450000000    26.0688900000
      2.6368303843     6.9376148295    15.7821190684
     -2.8278653834    19.6855000967    14.1921468682
     -9.8256350480    14.3990744535    24.0788942235
     -7.3249346438    13.4861626146    24.2889867805
    -10.9948207636    10.2899543809    13.3958531423
    -10.1344947688     6.1894249005    16.0935091861
    -14.8022222342     1.2294696312    25.2514695169
     -1.4327793771    19.6412869019    13.8239720910
     23.3767500000     4.2178300000     5.2009100000
     12.9530000000     0.9832800000     8.0910800000
     20.2032100000    -3.1496600000     9.8128000000
     16.7504500000     9.2988800000     3.5031500000
     17.5867800000     7.9119900000     5.0892000000
     18.6513300000    -2.9057000000     8.1861800000
     24.9649500000     3.8934900000     3.6233700000
     12.1420000000     2.3704000000     9.6890800000
     22.2924400000     3.6386200000     2.6243600000
     14.6462200000     1.4972300000    10.1894400000
     23.2312300000     5.9259100000     3.0743400000
     12.8940400000    -0.2274500000    10.6821100000
     17.5005500000    -3.4354000000    10.7768300000
     19.2689900000     8.4600100000     3.0049100000
     18.4545000000    -1.1739100000    10.3126600000
     17.5627600000     6.7029000000     2.4874800000
     20.7202800000     4.3756500000     5.3537300000
     14.0854000000    -1.5039100000     8.0043400000
     19.8717700000    -4.2896400000    12.0788900000
     18.1192500000    10.3836300000     1.2308900000
     20.6739200000    -1.5014600000    12.0737600000
     15.8833200000     8.5479000000     1.1708200000
     15.9048900000    -2.8334000000     8.0839300000
     18.7573200000     5.4764100000     5.2146400000
     25.4121100000     5.5731000000     1.2170200000
     11.2577800000     1.6127100000    12.0048400000
     24.6165500000     2.8187800000     1.2464300000
     13.5259700000     3.3950500000    12.0861100000
     20.4842300000     6.0300700000     3.1254300000
     15.7822900000    -0.9737400000    10.1064500000
     22.9383400000     4.8049500000     0.1926300000
     13.7356900000     0.8410000000    13.1208900000
     29.7888303843    -1.1663851705     2.8341190684
     24.3241346166    11.5815000967     1.2441468682
     17.3263649520     6.2950744535    11.1308942235
     19.8270653562     5.3821626146    11.3409867805
     16.1571792364     2.1859543809     0.4478531423
     17.0175052312    -1.9145750995     3.1455091861
     12.3497777658    -6.8745303688    12.3034695169
     25.7192206229    11.5372869019     0.8759720910
     18.7417500000    -2.8481700000    18.2959100000
      8.3180000000    -6.0827200000    21.1860800000
     15.5682100000   -10.2156600000    22.9078000000
     12.1154500000     2.2328800000    16.5981500000
     12.9517800000     0.8459900000    18.1842000000
     14.0163300000    -9.9717000000    21.2811800000
     20.3299500000    -3.1725100000    16.7183700000
      7.5070000000    -4.6956000000    22.7840800000
     17.6574400000    -3.4273800000    15.7193600000
     10.0112200000    -5.5687700000    23.2844400000
     18.5962300000    -1.1400900000    16.1693400000
      8.2590400000    -7.2934500000    23.7771100000
     12.8655500000   -10.5014000000    23.8718300000
     14.6339900000     1.3940100000    16.0999100000
     13.8195000000    -8.2399100000    23.4076600000
     12.9277600000    -0.3631000000    15.5824800000
     16.0852800000    -2.6903500000    18.4487300000
      9.4504000000    -8.5699100000    21.0993400000
     15.2367700000   -11.3556400000    25.1738900000
     13.4842500000     3.3176300000    14.3258900000
     16.0389200000    -8.5674600000    25.1687600000
     11.2483200000     1.4819000000    14.2658200000
     11.2698900000    -9.8994000000    21.1789300000
     14.1223200000    -1.5895900000    18.3096400000
     20.7771100000    -1.4929000000    14.3120200000
      6.6227800000    -5.4532900000    25.0998400000
     19.9815500000    -4.2472200000    14.3414300000
      8.8909700000    -3.6709500000    25.1811100000
     15.8492300000    -1.0359300000    16.2204300000
     11.1472900000    -8.0397400000    23.2014500000
     18.3033400000    -2.2610500000    13.2876300000
      9.1006900000    -6.2250000000    26.2158900000
     25.1538303843    -8.2323851705    15.9291190684
     19.6891346166     4.5155000967    14.3391468682
     12.6913649520    -0.7709255465    24.2258942235
     15.1920653562    -1.6838373854    24.4359867805
     11.5221792364    -4.8800456191    13.5428531423
     12.3825052312    -8.9805750995    16.2405091861
      7.7147777658   -13.9405303688    25.3984695169
     21.0842206229     4.4712869019    13.9709720910
     16.8597500000    18.8308300000     5.1439100000
      6.4360000000    15.5962800000     8.0340800000
     13.6862100000    11.4633400000     9.7558000000
     10.2334500000    23.9118800000     3.4461500000
     11.0697800000    22.5249900000     5.0322000000
     12.1343300000    11.7073000000     8.1291800000
     18.4479500000    18.5064900000     3.5663700000
      5.6250000000    16.9834000000     9.6320800000
     15.7754400000    18.2516200000     2.5673600000
      8.1292200000    16.1102300000    10.1324400000
     16.7142300000    20.5389100000     3.0173400000
      6.3770400000    14.3855500000    10.6251100000
     10.9835500000    11.1776000000    10.7198300000
     12.7519900000    23.0730100000     2.9479100000
     11.9375000000    13.4390900000    10.2556600000
     11.0457600000    21.3159000000     2.4304800000
     14.2032800000    18.9886500000     5.2967300000
      7.5684000000    13.1090900000     7.9473400000
     13.3547700000    10.3233600000    12.0218900000
     11.6022500000    24.9966300000     1.1738900000
     14.1569200000    13.1115400000    12.0167600000
      9.3663200000    23.1609000000     1.1138200000
      9.3878900000    11.7796000000     8.0269300000
     12.2403200000    20.0894100000     5.1576400000
     18.8951100000    20.1861000000     1.1600200000
      4.7407800000    16.2257100000    11.9478400000
     18.0995500000    17.4317800000     1.1894300000
      7.0089700000    18.0080500000    12.0291100000
     13.9672300000    20.6430700000     3.0684300000
      9.2652900000    13.6392600000    10.0494500000
     16.4213400000    19.4179500000     0.1356300000
      7.2186900000    15.4540000000    13.0638900000
     23.2718303843    13.4466148295     2.7771190684
     17.8071346166    26.1945000967     1.1871468682
     10.8093649520    20.9080744535    11.0738942235
     13.3100653562    19.9951626146    11.2839867805
      9.6401792364    16.7989543809     0.3908531423
     10.5005052312    12.6984249005     3.0885091861
      5.8327777658     7.7384696312    12.2464695169
     19.2022206229    26.1502869019     0.8189720910
     12.2247500000    11.7648300000    18.2389100000
      1.8010000000     8.5302800000    21.1290800000
      9.0512100000     4.3973400000    22.8508000000
      5.5984500000    16.8458800000    16.5411500000
      6.4347800000    15.4589900000    18.1272000000
      7.4993300000     4.6413000000    21.2241800000
     13.8129500000    11.4404900000    16.6613700000
      0.9900000000     9.9174000000    22.7270800000
     11.1404400000    11.1856200000    15.6623600000
      3.4942200000     9.0442300000    23.2274400000
     12.0792300000    13.4729100000    16.1123400000
      1.7420400000     7.3195500000    23.7201100000
      6.3485500000     4.1116000000    23.8148300000
      8.1169900000    16.0070100000    16.0429100000
      7.3025000000     6.3730900000    23.3506600000
      6.4107600000    14.2499000000    15.5254800000
      9.5682800000    11.9226500000    18.3917300000
      2.9334000000     6.0430900000    21.0423400000
      8.7197700000     3.2573600000    25.1168900000
      6.9672500000    17.9306300000    14.2688900000
      9.5219200000     6.0455400000    25.1117600000
      4.7313200000    16.0949000000    14.2088200000
      4.7528900000     4.7136000000    21.1219300000
      7.6053200000    13.0234100000    18.2526400000
     14.2601100000    13.1201000000    14.2550200000
      0.1057800000     9.1597100000    25.0428400000
     13.4645500000    10.3657800000    14.2844300000
      2.3739700000    10.9420500000    25.1241100000
      9.3322300000    13.5770700000    16.1634300000
      4.6302900000     6.5732600000    23.1444500000
     11.7863400000    12.3519500000    13.2306300000
      2.5836900000     8.3880000000    26.1588900000
     18.6368303843     6.3806148295    15.8721190684
     13.1721346166    19.1285000967    14.2821468682
      6.1743649520    13.8420744535    24.1688942235
      8.6750653562    12.9291626146    24.3789867805
      5.0051792364     9.7329543809    13.4858531423
      5.8655052312     5.6324249005    16.1835091861
      1.1977777658     0.6724696312    25.3414695169
     14.5672206229    19.0842869019    13.9139720910
      0.1545469110     1.7999685968     1.9017841583
     10.7381335520    -5.1506276843    11.8093826428
      1.1080164337     0.2529370515     0.5206971236
      0.6163929916    -0.1606344373     3.0251929340
      8.6636551498    -4.9088681154    11.1628059023
      3.3580390539     8.6989769366     9.5106908304
     13.9678073979    -1.5582602705     4.0815005752
      8.5693895114    -6.0277110116    12.8586463404
      6.6298799227    12.8545970021     1.7881839421
      7.6338523897    11.2255978206     3.0012723997
     10.2166871680    -6.2777736514    10.8670643355
      3.0566650184     6.2655046284    12.1998310188
     -4.4804530890    -5.2660314032    14.9967841583
      6.1031335520   -12.2166276843    24.9043826428
     -3.5269835663    -6.8130629485    13.6156971236
     -4.0186070084    -7.2266344373    16.1201929340
      4.0286551498   -11.9748681154    24.2578059023
     -1.2769609461     1.6329769366    22.6056908304
      9.3328073979    -8.6242602705    17.1765005752
      3.9343895114   -13.0937110116    25.9536463404
      1.9948799227     5.7885970021    14.8831839421
      2.9988523897     4.1595978206    16.0962723997
      5.5816871680   -13.3437736514    23.9620643355
     -1.5783349816    -0.8004953716    25.2948310188
     -6.3624530890    16.4129685968     1.8447841583
      4.2211335520     9.4623723157    11.7523826428
     -5.4089835663    14.8659370515     0.4636971236
     -5.9006070084    14.4523655627     2.9681929340
      2.1466551498     9.7041318846    11.1058059023
     -3.1589609461    23.3119769366     9.4536908304
      7.4508073979    13.0547397295     4.0245005752
      2.0523895114     8.5852889884    12.8016463404
      0.1128799227    27.4675970021     1.7311839421
      1.1168523897    25.8385978206     2.9442723997
      3.6996871680     8.3352263486    10.8100643355
     -3.4603349816    20.8785046284    12.1428310188
    -10.9974530890     9.3469685968    14.9397841583
     -0.4138664480     2.3963723157    24.8473826428
    -10.0439835663     7.7999370515    13.5586971236
    -10.5356070084     7.3863655627    16.0631929340
     -2.4883448502     2.6381318846    24.2008059023
     -7.7939609461    16.2459769366    22.5486908304
      2.8158073979     5.9887397295    17.1195005752
     -2.5826104886     1.5192889884    25.8966463404
     -4.5221200773    20.4015970021    14.8261839421
     -3.5181476103    18.7725978206    16.0392723997
     -0.9353128320     1.2692263486    23.9050643355
     -8.0953349816    13.8125046284    25.2378310188
     16.1545469110     1.2429685968     1.9917841583
     26.7381335520    -5.7076276843    11.8993826428
     17.1080164337    -0.3040629485     0.6106971236
     16.6163929916    -0.7176344373     3.1151929340
     24.6636551498    -5.4658681154    11.2528059023
     19.3580390539     8.1419769366     9.6006908304
     29.9678073979    -2.1152602705     4.1715005752
     24.5693895114    -6.5847110116    12.9486463404
     22.6298799227    12.2975970021     1.8781839421
     23.6338523897    10.6685978206     3.0912723997
     26.2166871680    -6.8347736514    10.9570643355
     19.0566650184     5.7085046284    12.2898310188
     11.5195469110    -5.8230314032    15.0867841583
     22.1031335520   -12.7736276843    24.9943826428
     12.4730164337    -7.3700629485    13.7056971236
     11.9813929916    -7.7836344373    16.2101929340
     20.0286551498   -12.5318681154    24.3478059023
     14.7230390539     1.0759769366    22.6956908304
     25.3328073979    -9.1812602705    17.2665005752
     19.9343895114   -13.6507110116    26.0436463404
     17.9948799227     5.2315970021    14.9731839421
     18.9988523897     3.6025978206    16.1862723997
     21.5816871680   -13.9007736514    24.0520643355
     14.4216650184    -1.3574953716    25.3848310188
      9.6375469110    15.8559685968     1.9347841583
     20.2211335520     8.9053723157    11.8423826428
     10.5910164337    14.3089370515     0.5536971236
     10.0993929916    13.8953655627     3.0581929340
     18.1466551498     9.1471318846    11.1958059023
     12.8410390539    22.7549769366     9.5436908304
     23.4508073979    12.4977397295     4.1145005752
     18.0523895114     8.0282889884    12.8916463404
     16.1128799227    26.9105970021     1.8211839421
     17.1168523897    25.2815978206     3.0342723997
     19.6996871680     7.7782263486    10.9000643355
     12.5396650184    20.3215046284    12.2328310188
      5.0025469110     8.7899685968    15.0297841583
     15.5861335520     1.8393723157    24.9373826428
      5.9560164337     7.2429370515    13.6486971236
      5.4643929916     6.8293655627    16.1531929340
     13.5116551498     2.0811318846    24.2908059023
      8.2060390539    15.6889769366    22.6386908304
     18.8158073979     5.4317397295    17.2095005752
     13.4173895114     0.9622889884    25.9866463404
     11.4778799227    19.8445970021    14.9161839421
     12.4818523897    18.2155978206    16.1292723997
     15.0646871680     0.7122263486    23.9950643355
      7.9046650184    13.2555046284    25.3278310188
     14.4021701025    -1.0288619687     1.4540051628
      2.6181057618     7.0136919437    11.6222588852
     -0.0196276031     1.2895449129     0.1045580630
     -6.5611444636    13.5148735748     1.8882915714
      9.7671701025    -8.0948619687    14.5490051628
     -2.0168942382    -0.0523080563    24.7172588852
     -4.6546276031    -5.7764550871    13.1995580630
    -11.1961444636     6.4488735748    14.9832915714
      7.8851701025    13.5841380313     1.3970051628
     -3.8988942382    21.6266919437    11.5652588852
     -6.5366276031    15.9025449129     0.0475580630
    -13.0781444636    28.1278735748     1.8312915714
      3.2501701025     6.5181380313    14.4920051628
     -8.5338942382    14.5606919437    24.6602588852
    -11.1716276031     8.8365449129    13.1425580630
    -17.7131444636    21.0618735748    14.9262915714
     30.4021701025    -1.5858619687     1.5440051628
     18.6181057618     6.4566919437    11.7122588852
     15.9803723969     0.7325449129     0.1945580630
      9.4388555364    12.9578735748     1.9782915714
     25.7671701025    -8.6518619687    14.6390051628
     13.9831057618    -0.6093080563    24.8072588852
     11.3453723969    -6.3334550871    13.2895580630
      4.8038555364     5.8918735748    15.0732915714
     23.8851701025    13.0271380313     1.4870051628
     12.1011057618    21.0696919437    11.6552588852
      9.4633723969    15.3455449129     0.1375580630
      2.9218555364    27.5708735748     1.9212915714
     19.2501701025     5.9611380313    14.5820051628
      7.4661057618    14.0036919437    24.7502588852
      4.8283723969     8.2795449129    13.2325580630
     -1.7131444636    20.5048735748    15.0162915714
