192
frame0007 prim | 192 atoms
Ti      -2.8554400000     2.2297600000    11.2464000000
Ti       7.9750400000     5.1109800000     1.8815900000
Ti       1.2412500000    -1.7064400000     9.4264200000
Ti       2.7524400000     7.4557000000     3.6533900000
Ti       1.7538600000     9.1340100000     1.7490000000
Ti       3.1294500000    -1.9607800000    11.3797900000
Ti      -1.9062400000     0.4938700000     9.3549200000
Ti       5.9872200000     5.4135300000     3.7290500000
H       -2.3535600000     6.1268500000    11.0269500000
H        8.7838200000     1.2049200000     2.2022700000
H       -6.8153400000     1.4731400000    10.8639500000
H       11.3571900000     7.1152700000     2.0822400000
H        4.1050600000    -5.9953200000    10.9938600000
H       -2.3046600000     8.5441100000     2.0710500000
H        2.2483200000     7.4972000000    -0.1240900000
H        6.0995100000     4.8682800000     0.1816500000
H        3.6393600000    -2.6278900000     5.8686900000
H        1.0290000000     9.2927200000     7.2723500000
H       -5.9788600000     3.8825000000     8.9990100000
H       10.7297900000     3.0266500000     4.1875900000
H       -3.6777500000     2.4350600000     5.6651700000
H       -1.3462100000    10.9618700000     4.1022400000
H        2.1461100000    12.2368400000     2.6044700000
H        8.6259900000    -0.8139200000     3.4047600000
H        4.8450600000     7.1358300000     2.3147600000
H        0.1605500000     0.1419600000    10.7200400000
H        7.3641900000    -0.0259300000     9.7694500000
H        5.8830700000    -0.4949900000    10.5167800000
H        7.9383100000     4.4077100000     8.6705500000
H        7.3686000000     4.7662900000     7.0520000000
H        6.8753800000    -4.9807600000     9.5794200000
H        5.5962300000    -3.8801800000    10.0368100000
C        8.5530700000     4.3697400000     4.7451200000
C       -3.8159900000     2.4911500000     8.3993700000
C        3.8217500000    -2.7171400000     8.5017000000
C        0.8163200000     9.4262100000     4.6127500000
C        9.4490900000     3.7654200000     5.7403100000
C       -4.7478900000     3.1161600000     7.4223200000
C        4.7619500000    -3.3314900000     7.5545100000
C       -0.0735000000    10.0730100000     5.6125400000
C        9.2003300000     3.8403400000     7.1467300000
C       -4.5315000000     2.9961800000     6.0343000000
C        5.8914000000    -4.0917900000     8.0075700000
C       -1.1682200000    10.8459600000     5.1676100000
C        0.1810000000     9.9022500000     6.9674200000
C        4.5142400000    -3.1993500000     6.1705800000
C       10.5827700000     3.0664400000     5.2646000000
C       -5.8480500000     3.8085800000     7.9210000000
C        8.7648500000     1.2839900000     0.0581800000
C        2.2951100000    13.0755800000     0.0831900000
C       11.2492800000     7.0471100000    -0.0678300000
C       -2.1090500000     8.5895400000    -0.0872100000
C        3.4991600000     5.1125200000     5.6179800000
C       -1.2569300000    -1.9818500000     7.5361200000
C        8.6289900000     2.7388500000     0.0349800000
C        2.2023600000    11.6420600000     0.0457000000
C        9.9514500000     6.4302800000    -0.0209600000
C       -0.7067400000     9.0038900000    -0.0627500000
C        8.8042000000     0.6148800000     1.2878600000
C       -2.3426400000     6.7152500000    11.9408400000
C       11.9045800000     7.3219100000     1.1661300000
C       -7.3768300000     1.2937600000    11.7793000000
C        7.3089400000     0.2494000000    11.7938000000
C       -2.8062400000     8.3591200000     1.1252600000
C        4.1467000000    -6.5224800000    11.9429100000
C        2.3088900000    13.8267700000     1.3124700000
N        2.3639500000    13.2279400000     2.5506300000
N        6.7299000000     0.0665500000    10.5548300000
N        8.1194500000     4.4865800000     7.6780200000
N        6.2224100000    -4.2500400000     9.3249700000
O        7.3767500000     4.7748300000     5.1109100000
O       -3.0470000000     1.5402800000     8.0010800000
O        4.2032100000    -2.5926600000     9.7228000000
O        0.7504500000     9.8558800000     3.4131500000
O        1.5867800000     8.4689900000     4.9992000000
O        2.6513300000    -2.3487000000     8.0961800000
O        8.9649500000     4.4504900000     3.5333700000
O       -3.8580000000     2.9274000000     9.5990800000
O        6.2924400000     4.1956200000     2.5343600000
O       -1.3537800000     2.0542300000    10.0994400000
O        7.2312300000     6.4829100000     2.9843400000
O       -3.1059600000     0.3295500000    10.5921100000
O        1.5005500000    -2.8784000000    10.6868300000
O        3.2689900000     9.0170100000     2.9149100000
O        2.4545000000    -0.6169100000    10.2226600000
O        1.5627600000     7.2599000000     2.3974800000
O        4.7202800000     4.9326500000     5.2637300000
O       -1.9146000000    -0.9469100000     7.9143400000
O        3.8717700000    -3.7326400000    11.9888900000
O        2.1192500000    10.9406300000     1.1408900000
O        4.6739200000    -0.9444600000    11.9837600000
O       -0.1166800000     9.1049000000     1.0808200000
O       -0.0951100000    -2.2764000000     7.9939300000
O        2.7573200000     6.0334100000     5.1246400000
O        9.4121100000     6.1301000000     1.1270200000
O       -4.7422200000     2.1697100000    11.9148400000
O        8.6165500000     3.3757800000     1.1564300000
O       -2.4740300000     3.9520500000    11.9961100000
O        4.4842300000     6.5870700000     3.0354300000
O       -0.2177100000    -0.4167400000    10.0164500000
O        6.9383400000     5.3619500000     0.1026300000
O        2.3706900000     8.4640000000    -0.0641100000
H        3.7010842824     1.4627501848     8.5225957060
H       -0.0858786893    -3.9972986949     6.1630211001
H        4.4544029206    10.2140297674     5.5891703284
H        4.6968922905     3.0057273992     6.8063255197
H        0.0417708933     3.7260045440     8.4287587768
H       -3.8714539066    -2.0968968278     6.9243833155
H        1.3738193405     1.8296878906     9.2933927417
H        1.0422287659     5.2704547717     6.7117100310
H        5.7909707186     8.4457197032     4.4681057678
H       -7.7525330771     8.9091846235     4.6640781898
C        2.9223347482     4.2184372681     6.6535260794
C        1.8137383561     2.5057730004     8.5617086378
C        6.2886908929     9.1819719907     5.0985637331
C       -1.9138529381    -2.9520630050     6.6282213429
C        1.6085711573     4.4310721055     7.1097706418
C        3.1274835734     2.2976692026     8.1230877252
C        5.5359304105    10.1900982645     5.7119643756
C       -1.1638491922    -3.9734062938     6.0194507459
C        7.6771356041     9.1291242726     5.2604621389
C       -3.3074035485    -2.8931233723     6.4448187862
C        3.6823642995     3.1530435749     7.1701874131
C        1.0565041680     3.5737222198     8.0634292950
N       -5.6961107730    18.3364811276    14.3085869008
N       -4.3965412454    17.3676458425    12.8175034390
C       -5.8738139434    18.9909140719    13.0867306270
C       -5.0962923327    18.3584838819    12.1517991326
C       -2.1192473959    17.3232554921    11.8145196294
C       -6.1742874656    18.8563095648    15.6248989621
C       -4.7444274973    17.3962849912    14.1244038264
C       -3.3485820921    16.5161156010    12.2197282170
H       -6.4076532378    19.9319782663    12.9984267989
H       -4.9872296597    18.5300459312    11.0855273503
H       -2.3776392429    18.1195347858    11.1038054266
H       -6.5575717857    19.8740981959    15.4781847217
H       -1.6459366952    17.7986822514    12.6812488189
H       -6.8928075837    18.1934346837    16.0683311565
H       -1.3908683559    16.6591883732    11.3314961634
H       -3.7938717701    15.9956268607    11.3622810204
H       -5.3383351596    18.9432074618    16.3201311157
H       -4.2254463834    16.8503860851    14.9024474765
H       -3.1148920987    15.7553146703    12.9713664893
N       -4.2201900020    21.7632361230    13.2344385795
C       -1.3117434416    22.0160943043    14.7931043072
C       -3.3204203856    23.4269297262    10.9100067746
O       -3.8693066874    21.6166041500    15.7144351747
O       -2.7082685560    19.3513631544    14.2971096957
O       -5.2378087856    21.3479845918    10.9314653261
O       -2.6925881838    20.6209764927    10.5044242400
F       -1.6529917407    23.5151583876    15.1634738635
F       -2.5296096689    24.6983296922    11.6695748247
F        0.0132521615    22.5705460888    13.9530141801
F       -1.7288430744    21.5467984405    16.6356786562
F       -4.4358617368    24.2475548113    10.6635340539
F       -3.7195242943    22.9816535011     9.0696782058
S       -3.3520631381    20.9107111792    14.4036308521
S       -3.9311411933    21.5368845665    11.4685812585
N        3.0577414936     1.4470808484     3.1605468265
N        1.1938331669     2.1766722895     4.0981205942
C        4.0476104471     1.1334076782     2.0902887051
C        2.0106653984     2.2934624774     3.0150822865
C        2.9746390584     0.8690684922     4.4205644738
C        3.8627125529    -0.2234168125     1.3937047903
C        1.8091925448     1.3054105867     4.9874097493
C       -0.2475854148     2.5641254611     4.2174921371
H        5.0333185974     1.1821815473     2.5637462806
H        3.9885460334     1.9597991609     1.3676279841
H        1.7909634245     2.7727680086     2.0707783104
H        4.7229448295    -0.4289305698     0.7476581827
H        3.7703788457     0.2475833645     4.8022311795
H       -0.4162643570     3.2121419319     5.0694754558
H       -0.5932131305     3.0711311791     3.3147615766
H        3.6953023950    -1.0448663671     2.0974420413
H        1.3416055479     1.0623661288     5.9302343067
H        3.0109904962    -0.2545970485     0.7257318686
H       -0.8456334986     1.6303917365     4.2571396610
N       -0.6390036373     0.5317983685     1.2388907321
C       -1.7097551789    -1.4528923142     3.0267634875
C       -1.6552476477     1.0139013872    -0.8832007507
O        0.5983585377     2.9618737957     0.3085173146
O        1.4582020207    -1.5628973377     2.6701953060
O        0.8737969699     0.6800194560    -1.0406330698
O        0.5684921830    -1.6519070465     0.2531901656
F       -2.1246517020    -1.0228172242     4.2771157193
F       -3.0082706235     1.7088449291    -0.2588995586
F       -2.9435910491    -1.5557325613     1.8785349694
F       -1.7686743628    -2.8563583886     3.3177258280
F       -0.9159010351     1.4066612727    -2.4442087966
F       -1.7044436436    -0.9196009925    -1.0517812839
S        0.1501732498     1.5677440715    -0.0314806479
S        0.1942619730    -1.1998444615     1.7983398008
