frame0013
1.0
     32.0000000000    -1.1140000000     0.1800000000
    -13.0340000000    29.2260000000    -0.1140000000
     -9.2700000000   -14.1320000000    26.1900000000
  Ti  H  C  N  O  F  S
  64  448  496  80  320  96  32
Cartesian
     -2.8554400000     2.2297600000    11.2464000000
      7.9750400000     5.1109800000     1.8815900000
      1.2412500000    -1.7064400000     9.4264200000
      2.7524400000     7.4557000000     3.6533900000
      1.7538600000     9.1340100000     1.7490000000
      3.1294500000    -1.9607800000    11.3797900000
     -1.9062400000     0.4938700000     9.3549200000
      5.9872200000     5.4135300000     3.7290500000
     -7.4904400000    -4.8362400000    24.3414000000
      3.3400400000    -1.9550200000    14.9765900000
     -3.3937500000    -8.7724400000    22.5214200000
     -1.8825600000     0.3897000000    16.7483900000
     -2.8811400000     2.0680100000    14.8440000000
     -1.5055500000    -9.0267800000    24.4747900000
     -6.5412400000    -6.5721300000    22.4499200000
      1.3522200000    -1.6524700000    16.8240500000
     -9.3724400000    16.8427600000    11.1894000000
      1.4580400000    19.7239800000     1.8245900000
     -5.2757500000    12.9065600000     9.3694200000
     -3.7645600000    22.0687000000     3.5963900000
     -4.7631400000    23.7470100000     1.6920000000
     -3.3875500000    12.6522200000    11.3227900000
     -8.4232400000    15.1068700000     9.2979200000
     -0.5297800000    20.0265300000     3.6720500000
    -14.0074400000     9.7767600000    24.2844000000
     -3.1769600000    12.6579800000    14.9195900000
     -9.9107500000     5.8405600000    22.4644200000
     -8.3995600000    15.0027000000    16.6913900000
     -9.3981400000    16.6810100000    14.7870000000
     -8.0225500000     5.5862200000    24.4177900000
    -13.0582400000     8.0408700000    22.3929200000
     -5.1647800000    12.9605300000    16.7670500000
     13.1445600000     1.6727600000    11.3364000000
     23.9750400000     4.5539800000     1.9715900000
     17.2412500000    -2.2634400000     9.5164200000
     18.7524400000     6.8987000000     3.7433900000
     17.7538600000     8.5770100000     1.8390000000
     19.1294500000    -2.5177800000    11.4697900000
     14.0937600000    -0.0631300000     9.4449200000
     21.9872200000     4.8565300000     3.8190500000
      8.5095600000    -5.3932400000    24.4314000000
     19.3400400000    -2.5120200000    15.0665900000
     12.6062500000    -9.3294400000    22.6114200000
     14.1174400000    -0.1673000000    16.8383900000
     13.1188600000     1.5110100000    14.9340000000
     14.4944500000    -9.5837800000    24.5647900000
      9.4587600000    -7.1291300000    22.5399200000
     17.3522200000    -2.2094700000    16.9140500000
      6.6275600000    16.2857600000    11.2794000000
     17.4580400000    19.1669800000     1.9145900000
     10.7242500000    12.3495600000     9.4594200000
     12.2354400000    21.5117000000     3.6863900000
     11.2368600000    23.1900100000     1.7820000000
     12.6124500000    12.0952200000    11.4127900000
      7.5767600000    14.5498700000     9.3879200000
     15.4702200000    19.4695300000     3.7620500000
      1.9925600000     9.2197600000    24.3744000000
     12.8230400000    12.1009800000    15.0095900000
      6.0892500000     5.2835600000    22.5544200000
      7.6004400000    14.4457000000    16.7813900000
      6.6018600000    16.1240100000    14.8770000000
      7.9774500000     5.0292200000    24.5077900000
      2.9417600000     7.4838700000    22.4829200000
     10.8352200000    12.4035300000    16.8570500000
     -2.3535600000     6.1268500000    11.0269500000
      8.7838200000     1.2049200000     2.2022700000
     -6.8153400000     1.4731400000    10.8639500000
     11.3571900000     7.1152700000     2.0822400000
      4.1050600000    -5.9953200000    10.9938600000
     -2.3046600000     8.5441100000     2.0710500000
     -2.3866800000     0.4312000000    12.9709100000
      6.0995100000     4.8682800000     0.1816500000
      3.6393600000    -2.6278900000     5.8686900000
      1.0290000000     9.2927200000     7.2723500000
     -5.9788600000     3.8825000000     8.9990100000
     10.7297900000     3.0266500000     4.1875900000
     -3.6777500000     2.4350600000     5.6651700000
     -1.3462100000    10.9618700000     4.1022400000
      2.1461100000    12.2368400000     2.6044700000
      8.6259900000    -0.8139200000     3.4047600000
      4.8450600000     7.1358300000     2.3147600000
      0.1605500000     0.1419600000    10.7200400000
      7.3641900000    -0.0259300000     9.7694500000
      5.8830700000    -0.4949900000    10.5167800000
      7.9383100000     4.4077100000     8.6705500000
      7.3686000000     4.7662900000     7.0520000000
      6.8753800000    -4.9807600000     9.5794200000
      5.5962300000    -3.8801800000    10.0368100000
      3.7107271674     1.4774831258     8.5339575185
     -6.6075638393    10.5879302778     6.1545995417
      4.4540356141    10.1954229646     5.6184137361
      4.7037542998     3.0150377952     6.8155447410
      0.0479383346     3.7348483398     8.4302256105
     12.1277572856    -2.6649736278     7.0348155784
      1.3767403081     1.8351883257     9.2944025138
      1.0608862144     5.2971407106     6.7421620813
      5.7936812946     8.4261623674     4.5033738147
      8.2495212430     8.3251797951     4.8017645517
     -0.1607923267     5.0222830044    13.0722648554
      1.5195385212     3.9054526224    11.2360009920
      4.0987287815     3.4673198965    11.1327246268
      4.4098570371    12.0544468939     2.4044358358
      4.8484737964     3.1903966180    12.7192394443
      3.8694734288    10.4502948274     2.8855525935
      5.0628695939     2.0167282728    11.3876349982
      2.7287383916     1.3415786163    11.4486968053
      5.4924209189    10.8972665899     3.2554261099
      6.6629635626     9.0753952000     1.8881311919
      3.4259505837     1.1292649588    13.0578643127
      5.1880547432     1.2976396111     2.7088007905
      4.0809555063     1.9515725062     1.4843714282
      2.0511208113     3.1848502367     2.4892626898
      5.0078869609    -0.3751363564     1.0382725390
      3.6965244703     0.0061809996     4.7909208326
     -0.0513343159     3.3257689927     5.5968752441
     -0.2649159735     3.5418835686     3.8172510403
      3.9298959961    -1.0405093632     2.2802508504
      1.4317106513     1.0096752391     6.0668620445
      3.2549953707    -0.2207097971     0.8497960911
     -0.6123449530     1.9926382859     4.5563339224
     -6.9885600000    -0.9391500000    24.1219500000
      4.1488200000    -5.8610800000    15.2972700000
    -11.4503400000    -5.5928600000    23.9589500000
      6.7221900000     0.0492700000    15.1772400000
     -0.5299400000   -13.0613200000    24.0888600000
     -6.9396600000     1.4781100000    15.1660500000
     -7.0216800000    -6.6348000000    26.0659100000
      1.4645100000    -2.1977200000    13.2766500000
     -0.9956400000    -9.6938900000    18.9636900000
     -3.6060000000     2.2267200000    20.3673500000
    -10.6138600000    -3.1835000000    22.0940100000
      6.0947900000    -4.0393500000    17.2825900000
     -8.3127500000    -4.6309400000    18.7601700000
     -5.9812100000     3.8958700000    17.1972400000
     -2.4888900000     5.1708400000    15.6994700000
      3.9909900000    -7.8799200000    16.4997600000
      0.2100600000     0.0698300000    15.4097600000
     -4.4744500000    -6.9240400000    23.8150400000
      2.7291900000    -7.0919300000    22.8644500000
      1.2480700000    -7.5609900000    23.6117800000
      3.3033100000    -2.6582900000    21.7655500000
      2.7336000000    -2.2997100000    20.1470000000
      2.2403800000   -12.0467600000    22.6744200000
      0.9612300000   -10.9461800000    23.1318100000
     -0.9242728326    -5.5885168742    21.6289575185
    -11.2425638393     3.5219302778    19.2495995417
     -0.1809643859     3.1294229646    18.7134137361
      0.0687542998    -4.0509622048    19.9105447410
     -4.5870616654    -3.3311516602    21.5252256105
      7.4927572856    -9.7309736278    20.1298155784
     -3.2582596919    -5.2308116743    22.3894025138
     -3.5741137856    -1.7688592894    19.8371620813
      1.1586812946     1.3601623674    17.5983738147
      3.6145212430     1.2591797951    17.8967645517
     -4.7957923267    -2.0437169956    26.1672648554
     -3.1154614788    -3.1605473776    24.3310009920
     -0.5362712185    -3.5986801035    24.2277246268
     -0.2251429629     4.9884468939    15.4994358358
      0.2134737964    -3.8756033820    25.8142394443
     -0.7655265712     3.3842948274    15.9805525935
      0.4278695939    -5.0492717272    24.4826349982
     -1.9062616084    -5.7244213837    24.5436968053
      0.8574209189     3.8312665899    16.3504261099
      2.0279635626     2.0093952000    14.9831311919
     -1.2090494163    -5.9367350412    26.1528643127
      0.5530547432    -5.7683603889    15.8038007905
     -0.5540444937    -5.1144274938    14.5793714282
     -2.5838791887    -3.8811497633    15.5842626898
      0.3728869609    -7.4411363564    14.1332725390
     -0.9384755297    -7.0598190004    17.8859208326
     -4.6863343159    -3.7402310073    18.6918752441
     -4.8999159735    -3.5241164314    16.9122510403
     -0.7051040039    -8.1065093632    15.3752508504
     -3.2032893487    -6.0563247609    19.1618620445
     -1.3800046293    -7.2867097971    13.9447960911
     -5.2473449530    -5.0733617141    17.6513339224
     -8.8705600000    20.7398500000    10.9699500000
      2.2668200000    15.8179200000     2.1452700000
    -13.3323400000    16.0861400000    10.8069500000
      4.8401900000    21.7282700000     2.0252400000
     -2.4119400000     8.6176800000    10.9368600000
     -8.8216600000    23.1571100000     2.0140500000
     -8.9036800000    15.0442000000    12.9139100000
     -0.4174900000    19.4812800000     0.1246500000
     -2.8776400000    11.9851100000     5.8116900000
     -5.4880000000    23.9057200000     7.2153500000
    -12.4958600000    18.4955000000     8.9420100000
      4.2127900000    17.6396500000     4.1305900000
    -10.1947500000    17.0480600000     5.6081700000
     -7.8632100000    25.5748700000     4.0452400000
     -4.3708900000    26.8498400000     2.5474700000
      2.1089900000    13.7990800000     3.3477600000
     -1.6719400000    21.7488300000     2.2577600000
     -6.3564500000    14.7549600000    10.6630400000
      0.8471900000    14.5870700000     9.7124500000
     -0.6339300000    14.1180100000    10.4597800000
      1.4213100000    19.0207100000     8.6135500000
      0.8516000000    19.3792900000     6.9950000000
      0.3583800000     9.6322400000     9.5224200000
     -0.9207700000    10.7328200000     9.9798100000
     -2.8062728326    16.0904831258     8.4769575185
    -13.1245638393    25.2009302778     6.0975995417
     -2.0629643859    24.8084229646     5.5614137361
     -1.8132457002    17.6280377952     6.7585447410
     -6.4690616654    18.3478483398     8.3732256105
      5.6107572856    11.9480263722     6.9778155784
     -5.1402596919    16.4481883257     9.2374025138
     -5.4561137856    19.9101407106     6.6851620813
     -0.7233187054    23.0391623674     4.4463738147
      1.7325212430    22.9381797951     4.7447645517
     -6.6777923267    19.6352830044    13.0152648554
     -4.9974614788    18.5184526224    11.1790009920
     -2.4182712185    18.0803198965    11.0757246268
     -2.1071429629    26.6674468939     2.3474358358
     -1.6685262036    17.8033966180    12.6622394443
     -2.6475265712    25.0632948274     2.8285525935
     -1.4541304061    16.6297282728    11.3306349982
     -3.7882616084    15.9545786163    11.3916968053
     -1.0245790811    25.5102665899     3.1984261099
      0.1459635626    23.6883952000     1.8311311919
     -3.0910494163    15.7422649588    13.0008643127
     -1.3289452568    15.9106396111     2.6518007905
     -2.4360444937    16.5645725062     1.4273714282
     -4.4658791887    17.7978502367     2.4322626898
     -1.5091130391    14.2378636436     0.9812725390
     -2.8204755297    14.6191809996     4.7339208326
     -6.5683343159    17.9387689927     5.5398752441
     -6.7819159735    18.1548835686     3.7602510403
     -2.5871040039    13.5724906368     2.2232508504
     -5.0852893487    15.6226752391     6.0098620445
     -3.2620046293    14.3922902029     0.7927960911
     -7.1293449530    16.6056382859     4.4993339224
    -13.5055600000    13.6738500000    24.0649500000
     -2.3681800000     8.7519200000    15.2402700000
    -17.9673400000     9.0201400000    23.9019500000
      0.2051900000    14.6622700000    15.1202400000
     -7.0469400000     1.5516800000    24.0318600000
    -13.4566600000    16.0911100000    15.1090500000
    -13.5386800000     7.9782000000    26.0089100000
     -5.0524900000    12.4152800000    13.2196500000
     -7.5126400000     4.9191100000    18.9066900000
    -10.1230000000    16.8397200000    20.3103500000
    -17.1308600000    11.4295000000    22.0370100000
     -0.4222100000    10.5736500000    17.2255900000
    -14.8297500000     9.9820600000    18.7031700000
    -12.4982100000    18.5088700000    17.1402400000
     -9.0058900000    19.7838400000    15.6424700000
     -2.5260100000     6.7330800000    16.4427600000
     -6.3069400000    14.6828300000    15.3527600000
    -10.9914500000     7.6889600000    23.7580400000
     -3.7878100000     7.5210700000    22.8074500000
     -5.2689300000     7.0520100000    23.5547800000
     -3.2136900000    11.9547100000    21.7085500000
     -3.7834000000    12.3132900000    20.0900000000
     -4.2766200000     2.5662400000    22.6174200000
     -5.5557700000     3.6668200000    23.0748100000
     -7.4412728326     9.0244831258    21.5719575185
    -17.7595638393    18.1349302778    19.1925995417
     -6.6979643859    17.7424229646    18.6564137361
     -6.4482457002    10.5620377952    19.8535447410
    -11.1040616654    11.2818483398    21.4682256105
      0.9757572856     4.8820263722    20.0728155784
     -9.7752596919     9.3821883257    22.3324025138
    -10.0911137856    12.8441407106    19.7801620813
     -5.3583187054    15.9731623674    17.5413738147
     -2.9024787570    15.8721797951    17.8397645517
    -11.3127923267    12.5692830044    26.1102648554
     -9.6324614788    11.4524526224    24.2740009920
     -7.0532712185    11.0143198965    24.1707246268
     -6.7421429629    19.6014468939    15.4424358358
     -6.3035262036    10.7373966180    25.7572394443
     -7.2825265712    17.9972948274    15.9235525935
     -6.0891304061     9.5637282728    24.4256349982
     -8.4232616084     8.8885786163    24.4866968053
     -5.6595790811    18.4442665899    16.2934261099
     -4.4890364374    16.6223952000    14.9261311919
     -7.7260494163     8.6762649588    26.0958643127
     -5.9639452568     8.8446396111    15.7468007905
     -7.0710444937     9.4985725062    14.5223714282
     -9.1008791887    10.7318502367    15.5272626898
     -6.1441130391     7.1718636436    14.0762725390
     -7.4554755297     7.5531809996    17.8289208326
    -11.2033343159    10.8727689927    18.6348752441
    -11.4169159735    11.0888835686    16.8552510403
     -7.2221040039     6.5064906368    15.3182508504
     -9.7202893487     8.5566752391    19.1048620445
     -7.8970046293     7.3262902029    13.8877960911
    -11.7643449530     9.5396382859    17.5943339224
     13.6464400000     5.5698500000    11.1169500000
     24.7838200000     0.6479200000     2.2922700000
      9.1846600000     0.9161400000    10.9539500000
     27.3571900000     6.5582700000     2.1722400000
     20.1050600000    -6.5523200000    11.0838600000
     13.6953400000     7.9871100000     2.1610500000
     13.6133200000    -0.1258000000    13.0609100000
     22.0995100000     4.3112800000     0.2716500000
     19.6393600000    -3.1848900000     5.9586900000
     17.0290000000     8.7357200000     7.3623500000
     10.0211400000     3.3255000000     9.0890100000
     26.7297900000     2.4696500000     4.2775900000
     12.3222500000     1.8780600000     5.7551700000
     14.6537900000    10.4048700000     4.1922400000
     18.1461100000    11.6798400000     2.6944700000
     24.6259900000    -1.3709200000     3.4947600000
     20.8450600000     6.5788300000     2.4047600000
     16.1605500000    -0.4150400000    10.8100400000
     23.3641900000    -0.5829300000     9.8594500000
     21.8830700000    -1.0519900000    10.6067800000
     23.9383100000     3.8507100000     8.7605500000
     23.3686000000     4.2092900000     7.1420000000
     22.8753800000    -5.5377600000     9.6694200000
     21.5962300000    -4.4371800000    10.1268100000
     19.7107271674     0.9204831258     8.6239575185
      9.3924361607    10.0309302778     6.2445995417
     20.4540356141     9.6384229646     5.7084137361
     20.7037542998     2.4580377952     6.9055447410
     16.0479383346     3.1778483398     8.5202256105
     28.1277572856    -3.2219736278     7.1248155784
     17.3767403081     1.2781883257     9.3844025138
     17.0608862144     4.7401407106     6.8321620813
     21.7936812946     7.8691623674     4.5933738147
     24.2495212430     7.7681797951     4.8917645517
     15.8392076733     4.4652830044    13.1622648554
     17.5195385212     3.3484526224    11.3260009920
     20.0987287815     2.9103198965    11.2227246268
     20.4098570371    11.4974468939     2.4944358358
     20.8484737964     2.6333966180    12.8092394443
     19.8694734288     9.8932948274     2.9755525935
     21.0628695939     1.4597282728    11.4776349982
     18.7287383916     0.7845786163    11.5386968053
     21.4924209189    10.3402665899     3.3454261099
     22.6629635626     8.5183952000     1.9781311919
     19.4259505837     0.5722649588    13.1478643127
     21.1880547432     0.7406396111     2.7988007905
     20.0809555063     1.3945725062     1.5743714282
     18.0511208113     2.6278502367     2.5792626898
     21.0078869609    -0.9321363564     1.1282725390
     19.6965244703    -0.5508190004     4.8809208326
     15.9486656841     2.7687689927     5.6868752441
     15.7350840265     2.9848835686     3.9072510403
     19.9298959961    -1.5975093632     2.3702508504
     17.4317106513     0.4526752391     6.1568620445
     19.2549953707    -0.7777097971     0.9397960911
     15.3876550470     1.4356382859     4.6463339224
      9.0114400000    -1.4961500000    24.2119500000
     20.1488200000    -6.4180800000    15.3872700000
      4.5496600000    -6.1498600000    24.0489500000
     22.7221900000    -0.5077300000    15.2672400000
     15.4700600000   -13.6183200000    24.1788600000
      9.0603400000     0.9211100000    15.2560500000
      8.9783200000    -7.1918000000    26.1559100000
     17.4645100000    -2.7547200000    13.3666500000
     15.0043600000   -10.2508900000    19.0536900000
     12.3940000000     1.6697200000    20.4573500000
      5.3861400000    -3.7405000000    22.1840100000
     22.0947900000    -4.5963500000    17.3725900000
      7.6872500000    -5.1879400000    18.8501700000
     10.0187900000     3.3388700000    17.2872400000
     13.5111100000     4.6138400000    15.7894700000
     19.9909900000    -8.4369200000    16.5897600000
     16.2100600000    -0.4871700000    15.4997600000
     11.5255500000    -7.4810400000    23.9050400000
     18.7291900000    -7.6489300000    22.9544500000
     17.2480700000    -8.1179900000    23.7017800000
     19.3033100000    -3.2152900000    21.8555500000
     18.7336000000    -2.8567100000    20.2370000000
     18.2403800000   -12.6037600000    22.7644200000
     16.9612300000   -11.5031800000    23.2218100000
     15.0757271674    -6.1455168742    21.7189575185
      4.7574361607     2.9649302778    19.3395995417
     15.8190356141     2.5724229646    18.8034137361
     16.0687542998    -4.6079622048    20.0005447410
     11.4129383346    -3.8881516602    21.6152256105
     23.4927572856   -10.2879736278    20.2198155784
     12.7417403081    -5.7878116743    22.4794025138
     12.4258862144    -2.3258592894    19.9271620813
     17.1586812946     0.8031623674    17.6883738147
     19.6145212430     0.7021797951    17.9867645517
     11.2042076733    -2.6007169956    26.2572648554
     12.8845385212    -3.7175473776    24.4210009920
     15.4637287815    -4.1556801035    24.3177246268
     15.7748570371     4.4314468939    15.5894358358
     16.2134737964    -4.4326033820    25.9042394443
     15.2344734288     2.8272948274    16.0705525935
     16.4278695939    -5.6062717272    24.5726349982
     14.0937383916    -6.2814213837    24.6336968053
     16.8574209189     3.2742665899    16.4404261099
     18.0279635626     1.4523952000    15.0731311919
     14.7909505837    -6.4937350412    26.2428643127
     16.5530547432    -6.3253603889    15.8938007905
     15.4459555063    -5.6714274938    14.6693714282
     13.4161208113    -4.4381497633    15.6742626898
     16.3728869609    -7.9981363564    14.2232725390
     15.0615244703    -7.6168190004    17.9759208326
     11.3136656841    -4.2972310073    18.7818752441
     11.1000840265    -4.0811164314    17.0022510403
     15.2948959961    -8.6635093632    15.4652508504
     12.7967106513    -6.6133247609    19.2518620445
     14.6199953707    -7.8437097971    14.0347960911
     10.7526550470    -5.6303617141    17.7413339224
      7.1294400000    20.1828500000    11.0599500000
     18.2668200000    15.2609200000     2.2352700000
      2.6676600000    15.5291400000    10.8969500000
     20.8401900000    21.1712700000     2.1152400000
     13.5880600000     8.0606800000    11.0268600000
      7.1783400000    22.6001100000     2.1040500000
      7.0963200000    14.4872000000    13.0039100000
     15.5825100000    18.9242800000     0.2146500000
     13.1223600000    11.4281100000     5.9016900000
     10.5120000000    23.3487200000     7.3053500000
      3.5041400000    17.9385000000     9.0320100000
     20.2127900000    17.0826500000     4.2205900000
      5.8052500000    16.4910600000     5.6981700000
      8.1367900000    25.0178700000     4.1352400000
     11.6291100000    26.2928400000     2.6374700000
     18.1089900000    13.2420800000     3.4377600000
     14.3280600000    21.1918300000     2.3477600000
      9.6435500000    14.1979600000    10.7530400000
     16.8471900000    14.0300700000     9.8024500000
     15.3660700000    13.5610100000    10.5497800000
     17.4213100000    18.4637100000     8.7035500000
     16.8516000000    18.8222900000     7.0850000000
     16.3583800000     9.0752400000     9.6124200000
     15.0792300000    10.1758200000    10.0698100000
     13.1937271674    15.5334831258     8.5669575185
      2.8754361607    24.6439302778     6.1875995417
     13.9370356141    24.2514229646     5.6514137361
     14.1867542998    17.0710377952     6.8485447410
      9.5309383346    17.7908483398     8.4632256105
     21.6107572856    11.3910263722     7.0678155784
     10.8597403081    15.8911883257     9.3274025138
     10.5438862144    19.3531407106     6.7751620813
     15.2766812946    22.4821623674     4.5363738147
     17.7325212430    22.3811797951     4.8347645517
      9.3222076733    19.0782830044    13.1052648554
     11.0025385212    17.9614526224    11.2690009920
     13.5817287815    17.5233198965    11.1657246268
     13.8928570371    26.1104468939     2.4374358358
     14.3314737964    17.2463966180    12.7522394443
     13.3524734288    24.5062948274     2.9185525935
     14.5458695939    16.0727282728    11.4206349982
     12.2117383916    15.3975786163    11.4816968053
     14.9754209189    24.9532665899     3.2884261099
     16.1459635626    23.1313952000     1.9211311919
     12.9089505837    15.1852649588    13.0908643127
     14.6710547432    15.3536396111     2.7418007905
     13.5639555063    16.0075725062     1.5173714282
     11.5341208113    17.2408502367     2.5222626898
     14.4908869609    13.6808636436     1.0712725390
     13.1795244703    14.0621809996     4.8239208326
      9.4316656841    17.3817689927     5.6298752441
      9.2180840265    17.5978835686     3.8502510403
     13.4128959961    13.0154906368     2.3132508504
     10.9147106513    15.0656752391     6.0998620445
     12.7379953707    13.8352902029     0.8827960911
      8.8706550470    16.0486382859     4.5893339224
      2.4944400000    13.1168500000    24.1549500000
     13.6318200000     8.1949200000    15.3302700000
     -1.9673400000     8.4631400000    23.9919500000
     16.2051900000    14.1052700000    15.2102400000
      8.9530600000     0.9946800000    24.1218600000
      2.5433400000    15.5341100000    15.1990500000
      2.4613200000     7.4212000000    26.0989100000
     10.9475100000    11.8582800000    13.3096500000
      8.4873600000     4.3621100000    18.9966900000
      5.8770000000    16.2827200000    20.4003500000
     -1.1308600000    10.8725000000    22.1270100000
     15.5777900000    10.0166500000    17.3155900000
      1.1702500000     9.4250600000    18.7931700000
      3.5017900000    17.9518700000    17.2302400000
      6.9941100000    19.2268400000    15.7324700000
     13.4739900000     6.1760800000    16.5327600000
      9.6930600000    14.1258300000    15.4427600000
      5.0085500000     7.1319600000    23.8480400000
     12.2121900000     6.9640700000    22.8974500000
     10.7310700000     6.4950100000    23.6447800000
     12.7863100000    11.3977100000    21.7985500000
     12.2166000000    11.7562900000    20.1800000000
     11.7233800000     2.0092400000    22.7074200000
     10.4442300000     3.1098200000    23.1648100000
      8.5587271674     8.4674831258    21.6619575185
     -1.7595638393    17.5779302778    19.2825995417
      9.3020356141    17.1854229646    18.7464137361
      9.5517542998    10.0050377952    19.9435447410
      4.8959383346    10.7248483398    21.5582256105
     16.9757572856     4.3250263722    20.1628155784
      6.2247403081     8.8251883257    22.4224025138
      5.9088862144    12.2871407106    19.8701620813
     10.6416812946    15.4161623674    17.6313738147
     13.0975212430    15.3151797951    17.9297645517
      4.6872076733    12.0122830044    26.2002648554
      6.3675385212    10.8954526224    24.3640009920
      8.9467287815    10.4573198965    24.2607246268
      9.2578570371    19.0444468939    15.5324358358
      9.6964737964    10.1803966180    25.8472394443
      8.7174734288    17.4402948274    16.0135525935
      9.9108695939     9.0067282728    24.5156349982
      7.5767383916     8.3315786163    24.5766968053
     10.3404209189    17.8872665899    16.3834261099
     11.5109635626    16.0653952000    15.0161311919
      8.2739505837     8.1192649588    26.1858643127
     10.0360547432     8.2876396111    15.8368007905
      8.9289555063     8.9415725062    14.6123714282
      6.8991208113    10.1748502367    15.6172626898
      9.8558869609     6.6148636436    14.1662725390
      8.5445244703     6.9961809996    17.9189208326
      4.7966656841    10.3157689927    18.7248752441
      4.5830840265    10.5318835686    16.9452510403
      8.7778959961     5.9494906368    15.4082508504
      6.2797106513     7.9996752391    19.1948620445
      8.1029953707     6.7692902029    13.9777960911
      4.2356550470     8.9826382859    17.6843339224
      8.5530700000     4.3697400000     4.7451200000
     -3.8159900000     2.4911500000     8.3993700000
      3.8217500000    -2.7171400000     8.5017000000
      0.8163200000     9.4262100000     4.6127500000
      9.4490900000     3.7654200000     5.7403100000
     -4.7478900000     3.1161600000     7.4223200000
      4.7619500000    -3.3314900000     7.5545100000
     -0.0735000000    10.0730100000     5.6125400000
      9.2003300000     3.8403400000     7.1467300000
     -4.5315000000     2.9961800000     6.0343000000
      5.8914000000    -4.0917900000     8.0075700000
     -1.1682200000    10.8459600000     5.1676100000
      0.1810000000     9.9022500000     6.9674200000
      4.5142400000    -3.1993500000     6.1705800000
     10.5827700000     3.0664400000     5.2646000000
     -5.8480500000     3.8085800000     7.9210000000
      8.7648500000     1.2839900000     0.0581800000
      2.2951100000    13.0755800000     0.0831900000
      6.6142800000    -0.0188900000    13.0271700000
     -6.7440500000     1.5235400000    13.0077900000
      3.4991600000     5.1125200000     5.6179800000
     -1.2569300000    -1.9818500000     7.5361200000
      3.9939900000    -4.3271500000    13.1299800000
      2.2023600000    11.6420600000     0.0457000000
      5.3164500000    -0.6357200000    13.0740400000
     -5.3417400000     1.9378900000    13.0322500000
      8.8042000000     0.6148800000     1.2878600000
     -2.3426400000     6.7152500000    11.9408400000
     -4.0954200000     7.8789100000     1.0761300000
     -7.3768300000     1.2937600000    11.7793000000
      7.3089400000     0.2494000000    11.7938000000
     -2.8062400000     8.3591200000     1.1252600000
      4.1467000000    -6.5224800000    11.9429100000
      8.8258900000    -0.7862300000     1.3694700000
      2.9318109198     4.2318124790     6.6668017769
      1.8193407386     2.5136143902     8.5667540142
      6.2884521985     9.1534221346     5.1459078951
     -1.9218349976    -2.9839035369     6.6773806649
      1.6229500894     4.4503818554     7.1304145935
      3.1365868346     2.3126671593     8.1362277844
      5.5325463933    10.1597184492     5.7596482191
     -7.6868031834    10.6010022867     6.0241864245
      7.6758989315     9.0959426853     5.3129266773
     12.6864688169    -3.4793298275     6.5806970145
      3.6914864737     3.1669282599     7.1828272452
      1.0650313616     3.5844141310     8.0716086679
      5.0404951998    11.1756641059     0.0366196708
      1.3045568079     3.5978944732    12.2456835395
      4.3540242292     2.7019396313    11.8732275486
      4.7005278675    11.0176718849     2.5132001552
      6.1924872771     9.6076534516     1.0761743199
      3.1424213716     1.8757308394    12.3116825112
      0.4312911005     0.5798856531     1.6660093442
      9.4288249794    -5.5922329964    10.5923186474
      4.1970372898     1.1923554404     2.2602299765
      2.2386966129     2.5129118987     3.3161118249
      3.0294276757     0.8178988713     4.5173405076
      4.0688321313    -0.2024854991     1.5875504597
      1.9311098424     1.2973331503     5.1606010442
      0.0509005305     2.8570347200     4.6145130508
     -1.4977376661    -0.8035798888     3.7988430639
      9.2585305327    -6.4471809854    11.9963089657
      3.9180700000    -2.6962600000    17.8401200000
     -8.4509900000    -4.5748500000    21.4943700000
     -0.8132500000    -9.7831400000    21.5967000000
     -3.8186800000     2.3602100000    17.7077500000
      4.8140900000    -3.3005800000    18.8353100000
     -9.3828900000    -3.9498400000    20.5173200000
      0.1269500000   -10.3974900000    20.6495100000
     -4.7085000000     3.0070100000    18.7075400000
      4.5653300000    -3.2256600000    20.2417300000
     -9.1665000000    -4.0698200000    19.1293000000
      1.2564000000   -11.1577900000    21.1025700000
     -5.8032200000     3.7799600000    18.2626100000
     -4.4540000000     2.8362500000    20.0624200000
     -0.1207600000   -10.2653500000    19.2655800000
      5.9477700000    -3.9995600000    18.3596000000
    -10.4830500000    -3.2574200000    21.0160000000
      4.1298500000    -5.7820100000    13.1531800000
     -2.3398900000     6.0095800000    13.1781900000
      1.9792800000    -7.0848900000    26.1221700000
    -11.3790500000    -5.5424600000    26.1027900000
     -1.1358400000    -1.9534800000    18.7129800000
     -5.8919300000    -9.0478500000    20.6311200000
     -0.6410100000   -11.3931500000    26.2249800000
     -2.4326400000     4.5760600000    13.1407000000
      0.6814500000    -7.7017200000    26.1690400000
     -9.9767400000    -5.1281100000    26.1272500000
      4.1692000000    -6.4511200000    14.3828600000
     -6.9776400000    -0.3507500000    25.0358400000
     -8.7304200000     0.8129100000    14.1711300000
    -12.0118300000    -5.7722400000    24.8743000000
      2.6739400000    -6.8166000000    24.8888000000
     -7.4412400000     1.2931200000    14.2202600000
     -0.4883000000   -13.5884800000    25.0379100000
      4.1908900000    -7.8522300000    14.4644700000
     -1.7031890802    -2.8341875210    19.7618017769
     -2.8156592614    -4.5523856098    21.6617540142
      1.6534521985     2.0874221346    18.2409078951
     -6.5568349976   -10.0499035369    19.7723806649
     -3.0120499106    -2.6156181446    20.2254145935
     -1.4984131654    -4.7533328407    21.2312277844
      0.8975463933     3.0937184492    18.8546482191
    -12.3218031834     3.5350022867    19.1191864245
      3.0408989315     2.0299426853    18.4079266773
      8.0514688169   -10.5453298275    19.6756970145
     -0.9435135263    -3.8990717401    20.2778272452
     -3.5699686384    -3.4815858690    21.1666086679
      0.4054951998     4.1096641059    13.1316196708
     -3.3304431921    -3.4681055268    25.3406835395
     -0.2809757708    -4.3640603687    24.9682275486
      0.0655278675     3.9516718849    15.6082001552
      1.5574872771     2.5416534516    14.1711743199
     -1.4925786284    -5.1902691606    25.4066825112
     -4.2037088995    -6.4861143469    14.7610093442
      4.7938249794   -12.6582329964    23.6873186474
     -0.4379627102    -5.8736445596    15.3552299765
     -2.3963033871    -4.5530881013    16.4111118249
     -1.6055723243    -6.2481011287    17.6123405076
     -0.5661678687    -7.2684854991    14.6825504597
     -2.7038901576    -5.7686668497    18.2556010442
     -4.5840994695    -4.2089652800    17.7095130508
     -6.1327376661    -7.8695798888    16.8938430639
      4.6235305327   -13.5131809854    25.0913089657
      2.0360700000    18.9827400000     4.6881200000
    -10.3329900000    17.1041500000     8.3423700000
     -2.6952500000    11.8958600000     8.4447000000
     -5.7006800000    24.0392100000     4.5557500000
      2.9320900000    18.3784200000     5.6833100000
    -11.2648900000    17.7291600000     7.3653200000
     -1.7550500000    11.2815100000     7.4975100000
     -6.5905000000    24.6860100000     5.5555400000
      2.6833300000    18.4533400000     7.0897300000
    -11.0485000000    17.6091800000     5.9773000000
     -0.6256000000    10.5212100000     7.9505700000
     -7.6852200000    25.4589600000     5.1106100000
     -6.3360000000    24.5152500000     6.9104200000
     -2.0027600000    11.4136500000     6.1135800000
      4.0657700000    17.6794400000     5.2076000000
    -12.3650500000    18.4215800000     7.8640000000
      2.2478500000    15.8969900000     0.0011800000
     -4.2218900000    27.6885800000     0.0261900000
      0.0972800000    14.5941100000    12.9701700000
    -13.2610500000    16.1365400000    12.9507900000
     -3.0178400000    19.7255200000     5.5609800000
     -7.7739300000    12.6311500000     7.4791200000
     -2.5230100000    10.2858500000    13.0729800000
     -4.3146400000    26.2550600000    -0.0113000000
     -1.2005500000    13.9772800000    13.0170400000
    -11.8587400000    16.5508900000    12.9752500000
      2.2872000000    15.2278800000     1.2308600000
     -8.8596400000    21.3282500000    11.8838400000
    -10.6124200000    22.4919100000     1.0191300000
    -13.8938300000    15.9067600000    11.7223000000
      0.7919400000    14.8624000000    11.7368000000
     -9.3232400000    22.9721200000     1.0682600000
     -2.3703000000     8.0905200000    11.8859100000
      2.3088900000    13.8267700000     1.3124700000
     -3.5851890802    18.8448124790     6.6098017769
     -4.6976592614    17.1266143902     8.5097540142
     -0.2285478015    23.7664221346     5.0889078951
     -8.4388349976    11.6290964631     6.6203806649
     -4.8940499106    19.0633818554     7.0734145935
     -3.3804131654    16.9256671593     8.0792277844
     -0.9844536067    24.7727184492     5.7026482191
    -14.2038031834    25.2140022867     5.9671864245
      1.1588989315    23.7089426853     5.2559266773
      6.1694688169    11.1336701725     6.5236970145
     -2.8255135263    17.7799282599     7.1258272452
     -5.4519686384    18.1974141310     8.0146086679
     -1.4765048002    25.7886641059    -0.0203803292
     -5.2124431921    18.2108944732    12.1886835395
     -2.1629757708    17.3149396313    11.8162275486
     -1.8164721325    25.6306718849     2.4562001552
     -0.3245127229    24.2206534516     1.0191743199
     -3.3745786284    16.4887308394    12.2546825112
     -6.0857088995    15.1928856531     1.6090093442
      2.9118249794     9.0207670036    10.5353186474
     -2.3199627102    15.8053554404     2.2032299765
     -4.2783033871    17.1259118987     3.2591118249
     -3.4875723243    15.4308988713     4.4603405076
     -2.4481678687    14.4105145009     1.5305504597
     -4.5858901576    15.9103331503     5.1036010442
     -6.4660994695    17.4700347200     4.5575130508
     -8.0147376661    13.8094201112     3.7418430639
      2.7415305327     8.1658190146    11.9393089657
     -2.5989300000    11.9167400000    17.7831200000
    -14.9679900000    10.0381500000    21.4373700000
     -7.3302500000     4.8298600000    21.5397000000
    -10.3356800000    16.9732100000    17.6507500000
     -1.7029100000    11.3124200000    18.7783100000
    -15.8998900000    10.6631600000    20.4603200000
     -6.3900500000     4.2155100000    20.5925100000
    -11.2255000000    17.6200100000    18.6505400000
     -1.9516700000    11.3873400000    20.1847300000
    -15.6835000000    10.5431800000    19.0723000000
     -5.2606000000     3.4552100000    21.0455700000
    -12.3202200000    18.3929600000    18.2056100000
    -10.9710000000    17.4492500000    20.0054200000
     -6.6377600000     4.3476500000    19.2085800000
     -0.5692300000    10.6134400000    18.3026000000
    -17.0000500000    11.3555800000    20.9590000000
     -2.3871500000     8.8309900000    13.0961800000
     -8.8568900000    20.6225800000    13.1211900000
     -4.5377200000     7.5281100000    26.0651700000
    -17.8960500000     9.0705400000    26.0457900000
     -7.6528400000    12.6595200000    18.6559800000
    -12.4089300000     5.5651500000    20.5741200000
     -7.1580100000     3.2198500000    26.1679800000
     -8.9496400000    19.1890600000    13.0837000000
     -5.8355500000     6.9112800000    26.1120400000
    -16.4937400000     9.4848900000    26.0702500000
     -2.3478000000     8.1618800000    14.3258600000
    -13.4946400000    14.2622500000    24.9788400000
    -15.2474200000    15.4259100000    14.1141300000
    -18.5288300000     8.8407600000    24.8173000000
     -3.8430600000     7.7964000000    24.8318000000
    -13.9582400000    15.9061200000    14.1632600000
     -7.0053000000     1.0245200000    24.9809100000
     -2.3261100000     6.7607700000    14.4074700000
     -8.2201890802    11.7788124790    19.7048017769
     -9.3326592614    10.0606143902    21.6047540142
     -4.8635478015    16.7004221346    18.1839078951
    -13.0738349976     4.5630964631    19.7153806649
     -9.5290499106    11.9973818554    20.1684145935
     -8.0154131654     9.8596671593    21.1742277844
     -5.6194536067    17.7067184492    18.7976482191
    -18.8388031834    18.1480022867    19.0621864245
     -3.4761010685    16.6429426853    18.3509266773
      1.5344688169     4.0676701725    19.6186970145
     -7.4605135263    10.7139282599    20.2208272452
    -10.0869686384    11.1314141310    21.1096086679
     -6.1115048002    18.7226641059    13.0746196708
     -9.8474431921    11.1448944732    25.2836835395
     -6.7979757708    10.2489396313    24.9112275486
     -6.4514721325    18.5646718849    15.5512001552
     -4.9595127229    17.1546534516    14.1141743199
     -8.0095786284     9.4227308394    25.3496825112
    -10.7207088995     8.1268856531    14.7040093442
     -1.7231750206     1.9547670036    23.6303186474
     -6.9549627102     8.7393554404    15.2982299765
     -8.9133033871    10.0599118987    16.3541118249
     -8.1225723243     8.3648988713    17.5553405076
     -7.0831678687     7.3445145009    14.6255504597
     -9.2208901576     8.8443331503    18.1986010442
    -11.1010994695    10.4040347200    17.6525130508
    -12.6497376661     6.7434201112    16.8368430639
     -1.8934694673     1.0998190146    25.0343089657
     24.5530700000     3.8127400000     4.8351200000
     12.1840100000     1.9341500000     8.4893700000
     19.8217500000    -3.2741400000     8.5917000000
     16.8163200000     8.8692100000     4.7027500000
     25.4490900000     3.2084200000     5.8303100000
     11.2521100000     2.5591600000     7.5123200000
     20.7619500000    -3.8884900000     7.6445100000
     15.9265000000     9.5160100000     5.7025400000
     25.2003300000     3.2833400000     7.2367300000
     11.4685000000     2.4391800000     6.1243000000
     21.8914000000    -4.6487900000     8.0975700000
     14.8317800000    10.2889600000     5.2576100000
     16.1810000000     9.3452500000     7.0574200000
     20.5142400000    -3.7563500000     6.2605800000
     26.5827700000     2.5094400000     5.3546000000
     10.1519500000     3.2515800000     8.0110000000
     24.7648500000     0.7269900000     0.1481800000
     18.2951100000    12.5185800000     0.1731900000
     22.6142800000    -0.5758900000    13.1171700000
      9.2559500000     0.9665400000    13.0977900000
     19.4991600000     4.5555200000     5.7079800000
     14.7430700000    -2.5388500000     7.6261200000
     19.9939900000    -4.8841500000    13.2199800000
     18.2023600000    11.0850600000     0.1357000000
     21.3164500000    -1.1927200000    13.1640400000
     10.6582600000     1.3808900000    13.1222500000
     24.8042000000     0.0578800000     1.3778600000
     13.6573600000     6.1582500000    12.0308400000
     11.9045800000     7.3219100000     1.1661300000
      8.6231700000     0.7367600000    11.8693000000
     23.3089400000    -0.3076000000    11.8838000000
     13.1937600000     7.8021200000     1.2152600000
     20.1467000000    -7.0794800000    12.0329100000
     24.8258900000    -1.3432300000     1.4594700000
     18.9318109198     3.6748124790     6.7568017769
     17.8193407386     1.9566143902     8.6567540142
     22.2884521985     8.5964221346     5.2359078951
     14.0781650024    -3.5409035369     6.7673806649
     17.6229500894     3.8933818554     7.2204145935
     19.1365868346     1.7556671593     8.2262277844
     21.5325463933     9.6027184492     5.8496482191
      8.3131968166    10.0440022867     6.1141864245
     23.6758989315     8.5389426853     5.4029266773
     28.6864688169    -4.0363298275     6.6706970145
     19.6914864737     2.6099282599     7.2728272452
     17.0650313616     3.0274141310     8.1616086679
     21.0404951998    10.6186641059     0.1266196708
     17.3045568079     3.0408944732    12.3356835395
     20.3540242292     2.1449396313    11.9632275486
     20.7005278675    10.4606718849     2.6032001552
     22.1924872771     9.0506534516     1.1661743199
     19.1424213716     1.3187308394    12.4016825112
     16.4312911005     0.0228856531     1.7560093442
     25.4288249794    -6.1492329964    10.6823186474
     20.1970372898     0.6353554404     2.3502299765
     18.2386966129     1.9559118987     3.4061118249
     19.0294276757     0.2608988713     4.6073405076
     20.0688321313    -0.7594854991     1.6775504597
     17.9311098424     0.7403331503     5.2506010442
     16.0509005305     2.3000347200     4.7045130508
     14.5022623339    -1.3605798888     3.8888430639
     25.2585305327    -7.0041809854    12.0863089657
     19.9180700000    -3.2532600000    17.9301200000
      7.5490100000    -5.1318500000    21.5843700000
     15.1867500000   -10.3401400000    21.6867000000
     12.1813200000     1.8032100000    17.7977500000
     20.8140900000    -3.8575800000    18.9253100000
      6.6171100000    -4.5068400000    20.6073200000
     16.1269500000   -10.9544900000    20.7395100000
     11.2915000000     2.4500100000    18.7975400000
     20.5653300000    -3.7826600000    20.3317300000
      6.8335000000    -4.6268200000    19.2193000000
     17.2564000000   -11.7147900000    21.1925700000
     10.1967800000     3.2229600000    18.3526100000
     11.5460000000     2.2792500000    20.1524200000
     15.8792400000   -10.8223500000    19.3555800000
     21.9477700000    -4.5565600000    18.4496000000
      5.5169500000    -3.8144200000    21.1060000000
     20.1298500000    -6.3390100000    13.2431800000
     13.6601100000     5.4525800000    13.2681900000
     17.9792800000    -7.6418900000    26.2121700000
      4.6209500000    -6.0994600000    26.1927900000
     14.8641600000    -2.5104800000    18.8029800000
     10.1080700000    -9.6048500000    20.7211200000
     15.3589900000   -11.9501500000    26.3149800000
     13.5673600000     4.0190600000    13.2307000000
     16.6814500000    -8.2587200000    26.2590400000
      6.0232600000    -5.6851100000    26.2172500000
     20.1692000000    -7.0081200000    14.4728600000
      9.0223600000    -0.9077500000    25.1258400000
      7.2695800000     0.2559100000    14.2611300000
      3.9881700000    -6.3292400000    24.9643000000
     18.6739400000    -7.3736000000    24.9788000000
      8.5587600000     0.7361200000    14.3102600000
     15.5117000000   -14.1454800000    25.1279100000
     20.1908900000    -8.4092300000    14.5544700000
     14.2968109198    -3.3911875210    19.8518017769
     13.1843407386    -5.1093856098    21.7517540142
     17.6534521985     1.5304221346    18.3309078951
      9.4431650024   -10.6069035369    19.8623806649
     12.9879500894    -3.1726181446    20.3154145935
     14.5015868346    -5.3103328407    21.3212277844
     16.8975463933     2.5367184492    18.9446482191
      3.6781968166     2.9780022867    19.2091864245
     19.0408989315     1.4729426853    18.4979266773
     24.0514688169   -11.1023298275    19.7656970145
     15.0564864737    -4.4560717401    20.3678272452
     12.4300313616    -4.0385858690    21.2566086679
     16.4054951998     3.5526641059    13.2216196708
     12.6695568079    -4.0251055268    25.4306835395
     15.7190242292    -4.9210603687    25.0582275486
     16.0655278675     3.3946718849    15.6982001552
     17.5574872771     1.9846534516    14.2611743199
     14.5074213716    -5.7472691606    25.4966825112
     11.7962911005    -7.0431143469    14.8510093442
     20.7938249794   -13.2152329964    23.7773186474
     15.5620372898    -6.4306445596    15.4452299765
     13.6036966129    -5.1100881013    16.5011118249
     14.3944276757    -6.8051011287    17.7023405076
     15.4338321313    -7.8254854991    14.7725504597
     13.2961098424    -6.3256668497    18.3456010442
     11.4159005305    -4.7659652800    17.7995130508
      9.8672623339    -8.4265798888    16.9838430639
     20.6235305327   -14.0701809854    25.1813089657
     18.0360700000    18.4257400000     4.7781200000
      5.6670100000    16.5471500000     8.4323700000
     13.3047500000    11.3388600000     8.5347000000
     10.2993200000    23.4822100000     4.6457500000
     18.9320900000    17.8214200000     5.7733100000
      4.7351100000    17.1721600000     7.4553200000
     14.2449500000    10.7245100000     7.5875100000
      9.4095000000    24.1290100000     5.6455400000
     18.6833300000    17.8963400000     7.1797300000
      4.9515000000    17.0521800000     6.0673000000
     15.3744000000     9.9642100000     8.0405700000
      8.3147800000    24.9019600000     5.2006100000
      9.6640000000    23.9582500000     7.0004200000
     13.9972400000    10.8566500000     6.2035800000
     20.0657700000    17.1224400000     5.2976000000
      3.6349500000    17.8645800000     7.9540000000
     18.2478500000    15.3399900000     0.0911800000
     11.7781100000    27.1315800000     0.1161900000
     16.0972800000    14.0371100000    13.0601700000
      2.7389500000    15.5795400000    13.0407900000
     12.9821600000    19.1685200000     5.6509800000
      8.2260700000    12.0741500000     7.5691200000
     13.4769900000     9.7288500000    13.1629800000
     11.6853600000    25.6980600000     0.0787000000
     14.7994500000    13.4202800000    13.1070400000
      4.1412600000    15.9938900000    13.0652500000
     18.2872000000    14.6708800000     1.3208600000
      7.1403600000    20.7712500000    11.9738400000
      5.3875800000    21.9349100000     1.1091300000
      2.1061700000    15.3497600000    11.8123000000
     16.7919400000    14.3054000000    11.8268000000
      6.6767600000    22.4151200000     1.1582600000
     13.6297000000     7.5335200000    11.9759100000
     18.3088900000    13.2697700000     1.4024700000
     12.4148109198    18.2878124790     6.6998017769
     11.3023407386    16.5696143902     8.5997540142
     15.7714521985    23.2094221346     5.1789078951
      7.5611650024    11.0720964631     6.7103806649
     11.1059500894    18.5063818554     7.1634145935
     12.6195868346    16.3686671593     8.1692277844
     15.0155463933    24.2157184492     5.7926482191
      1.7961968166    24.6570022867     6.0571864245
     17.1588989315    23.1519426853     5.3459266773
     22.1694688169    10.5766701725     6.6136970145
     13.1744864737    17.2229282599     7.2158272452
     10.5480313616    17.6404141310     8.1046086679
     14.5234951998    25.2316641059     0.0696196708
     10.7875568079    17.6538944732    12.2786835395
     13.8370242292    16.7579396313    11.9062275486
     14.1835278675    25.0736718849     2.5462001552
     15.6754872771    23.6636534516     1.1091743199
     12.6254213716    15.9317308394    12.3446825112
      9.9142911005    14.6358856531     1.6990093442
     18.9118249794     8.4637670036    10.6253186474
     13.6800372898    15.2483554404     2.2932299765
     11.7216966129    16.5689118987     3.3491118249
     12.5124276757    14.8738988713     4.5503405076
     13.5518321313    13.8535145009     1.6205504597
     11.4141098424    15.3533331503     5.1936010442
      9.5339005305    16.9130347200     4.6475130508
      7.9852623339    13.2524201112     3.8318430639
     18.7415305327     7.6088190146    12.0293089657
     13.4010700000    11.3597400000    17.8731200000
      1.0320100000     9.4811500000    21.5273700000
      8.6697500000     4.2728600000    21.6297000000
      5.6643200000    16.4162100000    17.7407500000
     14.2970900000    10.7554200000    18.8683100000
      0.1001100000    10.1061600000    20.5503200000
      9.6099500000     3.6585100000    20.6825100000
      4.7745000000    17.0630100000    18.7405400000
     14.0483300000    10.8303400000    20.2747300000
      0.3165000000     9.9861800000    19.1623000000
     10.7394000000     2.8982100000    21.1355700000
      3.6797800000    17.8359600000    18.2956100000
      5.0290000000    16.8922500000    20.0954200000
      9.3622400000     3.7906500000    19.2985800000
     15.4307700000    10.0564400000    18.3926000000
     -1.0000500000    10.7985800000    21.0490000000
     13.6128500000     8.2739900000    13.1861800000
      7.1431100000    20.0655800000    13.2111900000
     11.4622800000     6.9711100000    26.1551700000
     -1.8960500000     8.5135400000    26.1357900000
      8.3471600000    12.1025200000    18.7459800000
      3.5910700000     5.0081500000    20.6641200000
      8.8419900000     2.6628500000    26.2579800000
      7.0503600000    18.6320600000    13.1737000000
     10.1644500000     6.3542800000    26.2020400000
     -0.4937400000     8.9278900000    26.1602500000
     13.6522000000     7.6048800000    14.4158600000
      2.5053600000    13.7052500000    25.0688400000
      0.7525800000    14.8689100000    14.2041300000
     -2.5288300000     8.2837600000    24.9073000000
     12.1569400000     7.2394000000    24.9218000000
      2.0417600000    15.3491200000    14.2532600000
      8.9947000000     0.4675200000    25.0709100000
     13.6738900000     6.2037700000    14.4974700000
      7.7798109198    11.2218124790    19.7948017769
      6.6673407386     9.5036143902    21.6947540142
     11.1364521985    16.1434221346    18.2739078951
      2.9261650024     4.0060964631    19.8053806649
      6.4709500894    11.4403818554    20.2584145935
      7.9845868346     9.3026671593    21.2642277844
     10.3805463933    17.1497184492    18.8876482191
     -2.8388031834    17.5910022867    19.1521864245
     12.5238989315    16.0859426853    18.4409266773
     17.5344688169     3.5106701725    19.7086970145
      8.5394864737    10.1569282599    20.3108272452
      5.9130313616    10.5744141310    21.1996086679
      9.8884951998    18.1656641059    13.1646196708
      6.1525568079    10.5878944732    25.3736835395
      9.2020242292     9.6919396313    25.0012275486
      9.5485278675    18.0076718849    15.6412001552
     11.0404872771    16.5976534516    14.2041743199
      7.9904213716     8.8657308394    25.4396825112
      5.2792911005     7.5698856531    14.7940093442
     14.2768249794     1.3977670036    23.7203186474
      9.0450372898     8.1823554404    15.3882299765
      7.0866966129     9.5029118987    16.4441118249
      7.8774276757     7.8078988713    17.6453405076
      8.9168321313     6.7875145009    14.7155504597
      6.7791098424     8.2873331503    18.2886010442
      4.8989005305     9.8470347200    17.7425130508
      3.3502623339     6.1864201112    16.9268430639
     14.1065305327     0.5428190146    25.1243089657
      8.8809500000    -1.3850600000     2.6076300000
      6.7299000000     0.0665500000    10.5548300000
      8.1194500000     4.4865800000     7.6780200000
      6.2224100000    -4.2500400000     9.3249700000
      5.1578125403    10.4726281358     1.2157346795
      2.0151385604     2.6252121399    12.9100838612
      1.9772713545     6.5905360820    13.0089045508
      3.2009690646     1.5450806294     3.3454492432
      1.4527248334     2.3821170028     4.4146367019
     -0.5224153980     0.5492858997     0.7827556831
      4.2459500000    -8.4510600000    15.7026300000
      2.0949000000    -6.9994500000    23.6498300000
      3.4844500000    -2.5794200000    20.7730200000
      1.5874100000   -11.3160400000    22.4199700000
      0.5228125403     3.4066281358    14.3107346795
     -2.6198614396    -4.4407878601    26.0050838612
     -2.6577286455    -0.4754639180    26.1039045508
     -1.4340309354    -5.5209193706    16.4404492432
     -3.1822751666    -4.6838829972    17.5096367019
     -5.1574153980    -6.5167141003    13.8777556831
      2.3639500000    13.2279400000     2.5506300000
      0.2129000000    14.6795500000    10.4978300000
      1.6024500000    19.0995800000     7.6210200000
     -0.2945900000    10.3629600000     9.2679700000
     -1.3591874597    25.0856281358     1.1587346795
     -4.5018614396    17.2382121399    12.8530838612
     -4.5397286455    21.2035360820    12.9519045508
     -3.3160309354    16.1580806294     3.2884492432
     -5.0642751666    16.9951170028     4.3576367019
     -7.0394153980    15.1622858997     0.7257556831
     -2.2710500000     6.1619400000    15.6456300000
     -4.4221000000     7.6135500000    23.5928300000
     -3.0325500000    12.0335800000    20.7160200000
     -4.9295900000     3.2969600000    22.3629700000
     -5.9941874597    18.0196281358    14.2537346795
     -9.1368614396    10.1722121399    25.9480838612
     -9.1747286455    14.1375360820    26.0469045508
     -7.9510309354     9.0920806294    16.3834492432
     -9.6992751666     9.9291170028    17.4526367019
    -11.6744153980     8.0962858997    13.8207556831
     24.8809500000    -1.9420600000     2.6976300000
     22.7299000000    -0.4904500000    10.6448300000
     24.1194500000     3.9295800000     7.7680200000
     22.2224100000    -4.8070400000     9.4149700000
     21.1578125403     9.9156281358     1.3057346795
     18.0151385604     2.0682121399    13.0000838612
     17.9772713545     6.0335360820    13.0989045508
     19.2009690646     0.9880806294     3.4354492432
     17.4527248334     1.8251170028     4.5046367019
     15.4775846020    -0.0077141003     0.8727556831
     20.2459500000    -9.0080600000    15.7926300000
     18.0949000000    -7.5564500000    23.7398300000
     19.4844500000    -3.1364200000    20.8630200000
     17.5874100000   -11.8730400000    22.5099700000
     16.5228125403     2.8496281358    14.4007346795
     13.3801385604    -4.9977878601    26.0950838612
     13.3422713545    -1.0324639180    26.1939045508
     14.5659690646    -6.0779193706    16.5304492432
     12.8177248334    -5.2408829972    17.5996367019
     10.8425846020    -7.0737141003    13.9677556831
     18.3639500000    12.6709400000     2.6406300000
     16.2129000000    14.1225500000    10.5878300000
     17.6024500000    18.5425800000     7.7110200000
     15.7054100000     9.8059600000     9.3579700000
     14.6408125403    24.5286281358     1.2487346795
     11.4981385604    16.6812121399    12.9430838612
     11.4602713545    20.6465360820    13.0419045508
     12.6839690646    15.6010806294     3.3784492432
     10.9357248334    16.4381170028     4.4476367019
      8.9605846020    14.6052858997     0.8157556831
     13.7289500000     5.6049400000    15.7356300000
     11.5779000000     7.0565500000    23.6828300000
     12.9674500000    11.4765800000    20.8060200000
     11.0704100000     2.7399600000    22.4529700000
     10.0058125403    17.4626281358    14.3437346795
      6.8631385604     9.6152121399    26.0380838612
      6.8252713545    13.5805360820    26.1369045508
      8.0489690646     8.5350806294    16.4734492432
      6.3007248334     9.3721170028    17.5426367019
      4.3255846020     7.5392858997    13.9107556831
      7.3767500000     4.7748300000     5.1109100000
     -3.0470000000     1.5402800000     8.0010800000
      4.2032100000    -2.5926600000     9.7228000000
      0.7504500000     9.8558800000     3.4131500000
      1.5867800000     8.4689900000     4.9992000000
      2.6513300000    -2.3487000000     8.0961800000
      8.9649500000     4.4504900000     3.5333700000
     -3.8580000000     2.9274000000     9.5990800000
      6.2924400000     4.1956200000     2.5343600000
     -1.3537800000     2.0542300000    10.0994400000
      7.2312300000     6.4829100000     2.9843400000
     -3.1059600000     0.3295500000    10.5921100000
      1.5005500000    -2.8784000000    10.6868300000
      3.2689900000     9.0170100000     2.9149100000
      2.4545000000    -0.6169100000    10.2226600000
      1.5627600000     7.2599000000     2.3974800000
      4.7202800000     4.9326500000     5.2637300000
     -1.9146000000    -0.9469100000     7.9143400000
      3.8717700000    -3.7326400000    11.9888900000
      2.1192500000    10.9406300000     1.1408900000
      4.6739200000    -0.9444600000    11.9837600000
     -0.1166800000     9.1049000000     1.0808200000
     -0.0951100000    -2.2764000000     7.9939300000
      2.7573200000     6.0334100000     5.1246400000
      9.4121100000     6.1301000000     1.1270200000
     -4.7422200000     2.1697100000    11.9148400000
      8.6165500000     3.3757800000     1.1564300000
     -2.4740300000     3.9520500000    11.9961100000
      4.4842300000     6.5870700000     3.0354300000
     -0.2177100000    -0.4167400000    10.0164500000
      6.9383400000     5.3619500000     0.1026300000
     -2.2643100000     1.3980000000    13.0308900000
     13.6955240183    -0.2577711016     2.5684618669
      8.7671105704    11.5282886837     1.4581823031
      1.3172325542     5.9411882437    10.5317941080
      4.0130252091     6.4439184942     9.1095997631
      0.6949030374     3.2500500790     0.0907992401
     -4.9808388536    12.6606337966     2.5297459300
     -3.7129694275    -6.0009560856    11.8110057049
     -5.3224721633    13.0295609225     0.0549189979
      2.7417500000    -2.2911700000    18.2059100000
     -7.6820000000    -5.5257200000    21.0960800000
     -0.4317900000    -9.6586600000    22.8178000000
     -3.8845500000     2.7898800000    16.5081500000
     -3.0482200000     1.4029900000    18.0942000000
     -1.9836700000    -9.4147000000    21.1911800000
      4.3299500000    -2.6155100000    16.6283700000
     -8.4930000000    -4.1386000000    22.6940800000
      1.6574400000    -2.8703800000    15.6293600000
     -5.9887800000    -5.0117700000    23.1944400000
      2.5962300000    -0.5830900000    16.0793400000
     -7.7409600000    -6.7364500000    23.6871100000
     -3.1344500000    -9.9444000000    23.7818300000
     -1.3660100000     1.9510100000    16.0099100000
     -2.1805000000    -7.6829100000    23.3176600000
     -3.0722400000     0.1939000000    15.4924800000
      0.0852800000    -2.1333500000    18.3587300000
     -6.5496000000    -8.0129100000    21.0093400000
     -0.7632300000   -10.7986400000    25.0838900000
     -2.5157500000     3.8746300000    14.2358900000
      0.0389200000    -8.0104600000    25.0787600000
     -4.7516800000     2.0389000000    14.1758200000
     -4.7301100000    -9.3424000000    21.0889300000
     -1.8776800000    -1.0325900000    18.2196400000
      4.7771100000    -0.9359000000    14.2220200000
     -9.3772200000    -4.8962900000    25.0098400000
      3.9815500000    -3.6902200000    14.2514300000
     -7.1090300000    -3.1139500000    25.0911100000
     -0.1507700000    -0.4789300000    16.1304300000
     -4.8527100000    -7.4827400000    23.1114500000
      2.3033400000    -1.7040500000    13.1976300000
     -6.8993100000    -5.6680000000    26.1258900000
      9.0605240183    -7.3237711016    15.6634618669
      4.1321105704     4.4622886837    14.5531823031
     -3.3177674458    -1.1248117563    23.6267941080
     -0.6219747909    -0.6220815058    22.2045997631
     -3.9400969626    -3.8159499210    13.1857992401
     -9.6158388536     5.5946337966    15.6247459300
     -8.3479694275   -13.0669560856    24.9060057049
     -9.9574721633     5.9635609225    13.1499189979
      0.8597500000    19.3878300000     5.0539100000
     -9.5640000000    16.1532800000     7.9440800000
     -2.3137900000    12.0203400000     9.6658000000
     -5.7665500000    24.4688800000     3.3561500000
     -4.9302200000    23.0819900000     4.9422000000
     -3.8656700000    12.2643000000     8.0391800000
      2.4479500000    19.0634900000     3.4763700000
    -10.3750000000    17.5404000000     9.5420800000
     -0.2245600000    18.8086200000     2.4773600000
     -7.8707800000    16.6672300000    10.0424400000
      0.7142300000    21.0959100000     2.9273400000
     -9.6229600000    14.9425500000    10.5351100000
     -5.0164500000    11.7346000000    10.6298300000
     -3.2480100000    23.6300100000     2.8579100000
     -4.0625000000    13.9960900000    10.1656600000
     -4.9542400000    21.8729000000     2.3404800000
     -1.7967200000    19.5456500000     5.2067300000
     -8.4316000000    13.6660900000     7.8573400000
     -2.6452300000    10.8803600000    11.9318900000
     -4.3977500000    25.5536300000     1.0838900000
     -1.8430800000    13.6685400000    11.9267600000
     -6.6336800000    23.7179000000     1.0238200000
     -6.6121100000    12.3366000000     7.9369300000
     -3.7596800000    20.6464100000     5.0676400000
      2.8951100000    20.7431000000     1.0700200000
    -11.2592200000    16.7827100000    11.8578400000
      2.0995500000    17.9887800000     1.0994300000
     -8.9910300000    18.5650500000    11.9391100000
     -2.0327700000    21.2000700000     2.9784300000
     -6.7347100000    14.1962600000     9.9594500000
      0.4213400000    19.9749500000     0.0456300000
     -8.7813100000    16.0110000000    12.9738900000
      7.1785240183    14.3552288984     2.5114618669
      2.2501105704    26.1412886837     1.4011823031
     -5.1997674458    20.5541882437    10.4747941080
     -2.5039747909    21.0569184942     9.0525997631
     -5.8220969626    17.8630500790     0.0337992401
    -11.4978388536    27.2736337966     2.4727459300
    -10.2299694275     8.6120439144    11.7540057049
    -11.8394721633    27.6425609225    -0.0020810021
     -3.7752500000    12.3218300000    18.1489100000
    -14.1990000000     9.0872800000    21.0390800000
     -6.9487900000     4.9543400000    22.7608000000
    -10.4015500000    17.4028800000    16.4511500000
     -9.5652200000    16.0159900000    18.0372000000
     -8.5006700000     5.1983000000    21.1341800000
     -2.1870500000    11.9974900000    16.5713700000
    -15.0100000000    10.4744000000    22.6370800000
     -4.8595600000    11.7426200000    15.5723600000
    -12.5057800000     9.6012300000    23.1374400000
     -3.9207700000    14.0299100000    16.0223400000
    -14.2579600000     7.8765500000    23.6301100000
     -9.6514500000     4.6686000000    23.7248300000
     -7.8830100000    16.5640100000    15.9529100000
     -8.6975000000     6.9300900000    23.2606600000
     -9.5892400000    14.8069000000    15.4354800000
     -6.4317200000    12.4796500000    18.3017300000
    -13.0666000000     6.6000900000    20.9523400000
     -7.2802300000     3.8143600000    25.0268900000
     -9.0327500000    18.4876300000    14.1788900000
     -6.4780800000     6.6025400000    25.0217600000
    -11.2686800000    16.6519000000    14.1188200000
    -11.2471100000     5.2706000000    21.0319300000
     -8.3946800000    13.5804100000    18.1626400000
     -1.7398900000    13.6771000000    14.1650200000
    -15.8942200000     9.7167100000    24.9528400000
     -2.5354500000    10.9227800000    14.1944300000
    -13.6260300000    11.4990500000    25.0341100000
     -6.6677700000    14.1340700000    16.0734300000
    -11.3697100000     7.1302600000    23.0544500000
     -4.2136600000    12.9089500000    13.1406300000
    -13.4163100000     8.9450000000    26.0688900000
      2.5435240183     7.2892288984    15.6064618669
     -2.3848894296    19.0752886837    14.4961823031
     -9.8347674458    13.4881882437    23.5697941080
     -7.1389747909    13.9909184942    22.1475997631
    -10.4570969626    10.7970500790    13.1287992401
    -16.1328388536    20.2076337966    15.5677459300
    -14.8649694275     1.5460439144    24.8490057049
    -16.4744721633    20.5765609225    13.0929189979
     23.3767500000     4.2178300000     5.2009100000
     12.9530000000     0.9832800000     8.0910800000
     20.2032100000    -3.1496600000     9.8128000000
     16.7504500000     9.2988800000     3.5031500000
     17.5867800000     7.9119900000     5.0892000000
     18.6513300000    -2.9057000000     8.1861800000
     24.9649500000     3.8934900000     3.6233700000
     12.1420000000     2.3704000000     9.6890800000
     22.2924400000     3.6386200000     2.6243600000
     14.6462200000     1.4972300000    10.1894400000
     23.2312300000     5.9259100000     3.0743400000
     12.8940400000    -0.2274500000    10.6821100000
     17.5005500000    -3.4354000000    10.7768300000
     19.2689900000     8.4600100000     3.0049100000
     18.4545000000    -1.1739100000    10.3126600000
     17.5627600000     6.7029000000     2.4874800000
     20.7202800000     4.3756500000     5.3537300000
     14.0854000000    -1.5039100000     8.0043400000
     19.8717700000    -4.2896400000    12.0788900000
     18.1192500000    10.3836300000     1.2308900000
     20.6739200000    -1.5014600000    12.0737600000
     15.8833200000     8.5479000000     1.1708200000
     15.9048900000    -2.8334000000     8.0839300000
     18.7573200000     5.4764100000     5.2146400000
     25.4121100000     5.5731000000     1.2170200000
     11.2577800000     1.6127100000    12.0048400000
     24.6165500000     2.8187800000     1.2464300000
     13.5259700000     3.3950500000    12.0861100000
     20.4842300000     6.0300700000     3.1254300000
     15.7822900000    -0.9737400000    10.1064500000
     22.9383400000     4.8049500000     0.1926300000
     13.7356900000     0.8410000000    13.1208900000
     29.6955240183    -0.8147711016     2.6584618669
     24.7671105704    10.9712886837     1.5481823031
     17.3172325542     5.3841882437    10.6217941080
     20.0130252091     5.8869184942     9.1995997631
     16.6949030374     2.6930500790     0.1807992401
     11.0191611464    12.1036337966     2.6197459300
     12.2870305725    -6.5579560856    11.9010057049
     10.6775278367    12.4725609225     0.1449189979
     18.7417500000    -2.8481700000    18.2959100000
      8.3180000000    -6.0827200000    21.1860800000
     15.5682100000   -10.2156600000    22.9078000000
     12.1154500000     2.2328800000    16.5981500000
     12.9517800000     0.8459900000    18.1842000000
     14.0163300000    -9.9717000000    21.2811800000
     20.3299500000    -3.1725100000    16.7183700000
      7.5070000000    -4.6956000000    22.7840800000
     17.6574400000    -3.4273800000    15.7193600000
     10.0112200000    -5.5687700000    23.2844400000
     18.5962300000    -1.1400900000    16.1693400000
      8.2590400000    -7.2934500000    23.7771100000
     12.8655500000   -10.5014000000    23.8718300000
     14.6339900000     1.3940100000    16.0999100000
     13.8195000000    -8.2399100000    23.4076600000
     12.9277600000    -0.3631000000    15.5824800000
     16.0852800000    -2.6903500000    18.4487300000
      9.4504000000    -8.5699100000    21.0993400000
     15.2367700000   -11.3556400000    25.1738900000
     13.4842500000     3.3176300000    14.3258900000
     16.0389200000    -8.5674600000    25.1687600000
     11.2483200000     1.4819000000    14.2658200000
     11.2698900000    -9.8994000000    21.1789300000
     14.1223200000    -1.5895900000    18.3096400000
     20.7771100000    -1.4929000000    14.3120200000
      6.6227800000    -5.4532900000    25.0998400000
     19.9815500000    -4.2472200000    14.3414300000
      8.8909700000    -3.6709500000    25.1811100000
     15.8492300000    -1.0359300000    16.2204300000
     11.1472900000    -8.0397400000    23.2014500000
     18.3033400000    -2.2610500000    13.2876300000
      9.1006900000    -6.2250000000    26.2158900000
     25.0605240183    -7.8807711016    15.7534618669
     20.1321105704     3.9052886837    14.6431823031
     12.6822325542    -1.6818117563    23.7167941080
     15.3780252091    -1.1790815058    22.2945997631
     12.0599030374    -4.3729499210    13.2757992401
      6.3841611464     5.0376337966    15.7147459300
      7.6520305725   -13.6239560856    24.9960057049
      6.0425278367     5.4065609225    13.2399189979
     16.8597500000    18.8308300000     5.1439100000
      6.4360000000    15.5962800000     8.0340800000
     13.6862100000    11.4633400000     9.7558000000
     10.2334500000    23.9118800000     3.4461500000
     11.0697800000    22.5249900000     5.0322000000
     12.1343300000    11.7073000000     8.1291800000
     18.4479500000    18.5064900000     3.5663700000
      5.6250000000    16.9834000000     9.6320800000
     15.7754400000    18.2516200000     2.5673600000
      8.1292200000    16.1102300000    10.1324400000
     16.7142300000    20.5389100000     3.0173400000
      6.3770400000    14.3855500000    10.6251100000
     10.9835500000    11.1776000000    10.7198300000
     12.7519900000    23.0730100000     2.9479100000
     11.9375000000    13.4390900000    10.2556600000
     11.0457600000    21.3159000000     2.4304800000
     14.2032800000    18.9886500000     5.2967300000
      7.5684000000    13.1090900000     7.9473400000
     13.3547700000    10.3233600000    12.0218900000
     11.6022500000    24.9966300000     1.1738900000
     14.1569200000    13.1115400000    12.0167600000
      9.3663200000    23.1609000000     1.1138200000
      9.3878900000    11.7796000000     8.0269300000
     12.2403200000    20.0894100000     5.1576400000
     18.8951100000    20.1861000000     1.1600200000
      4.7407800000    16.2257100000    11.9478400000
     18.0995500000    17.4317800000     1.1894300000
      7.0089700000    18.0080500000    12.0291100000
     13.9672300000    20.6430700000     3.0684300000
      9.2652900000    13.6392600000    10.0494500000
     16.4213400000    19.4179500000     0.1356300000
      7.2186900000    15.4540000000    13.0638900000
     23.1785240183    13.7982288984     2.6014618669
     18.2501105704    25.5842886837     1.4911823031
     10.8002325542    19.9971882437    10.5647941080
     13.4960252091    20.4999184942     9.1425997631
     10.1779030374    17.3060500790     0.1237992401
      4.5021611464    26.7166337966     2.5627459300
      5.7700305725     8.0550439144    11.8440057049
      4.1605278367    27.0855609225     0.0879189979
     12.2247500000    11.7648300000    18.2389100000
      1.8010000000     8.5302800000    21.1290800000
      9.0512100000     4.3973400000    22.8508000000
      5.5984500000    16.8458800000    16.5411500000
      6.4347800000    15.4589900000    18.1272000000
      7.4993300000     4.6413000000    21.2241800000
     13.8129500000    11.4404900000    16.6613700000
      0.9900000000     9.9174000000    22.7270800000
     11.1404400000    11.1856200000    15.6623600000
      3.4942200000     9.0442300000    23.2274400000
     12.0792300000    13.4729100000    16.1123400000
      1.7420400000     7.3195500000    23.7201100000
      6.3485500000     4.1116000000    23.8148300000
      8.1169900000    16.0070100000    16.0429100000
      7.3025000000     6.3730900000    23.3506600000
      6.4107600000    14.2499000000    15.5254800000
      9.5682800000    11.9226500000    18.3917300000
      2.9334000000     6.0430900000    21.0423400000
      8.7197700000     3.2573600000    25.1168900000
      6.9672500000    17.9306300000    14.2688900000
      9.5219200000     6.0455400000    25.1117600000
      4.7313200000    16.0949000000    14.2088200000
      4.7528900000     4.7136000000    21.1219300000
      7.6053200000    13.0234100000    18.2526400000
     14.2601100000    13.1201000000    14.2550200000
      0.1057800000     9.1597100000    25.0428400000
     13.4645500000    10.3657800000    14.2844300000
      2.3739700000    10.9420500000    25.1241100000
      9.3322300000    13.5770700000    16.1634300000
      4.6302900000     6.5732600000    23.1444500000
     11.7863400000    12.3519500000    13.2306300000
      2.5836900000     8.3880000000    26.1588900000
     18.5435240183     6.7322288984    15.6964618669
     13.6151105704    18.5182886837    14.5861823031
      6.1652325542    12.9311882437    23.6597941080
      8.8610252091    13.4339184942    22.2375997631
      5.5429030374    10.2400500790    13.2187992401
     -0.1328388536    19.6506337966    15.6577459300
      1.1350305725     0.9890439144    24.9390057049
     -0.4744721633    20.0195609225    13.1829189979
      0.2031490961     1.9817318201     2.2843044810
      9.5307607059    -3.4301751768    11.9391796507
      1.9993990632     1.4609848983     0.9346004840
     -0.3144202193    -0.2365019841     3.9437830147
      8.6800406670    -4.5652677396    10.1111942040
      2.3124477329     8.0392329296     8.6043655349
     -2.3665227501    -0.5789992052     4.7979911001
      7.8277740268    -5.9971875776    12.6566967035
      6.5613123733    12.1790103781     1.9966465418
     -7.6843806197    12.4750684595     3.8214749903
     10.6784090299    -5.6303666282    10.4013690664
      3.5689057622     5.6186161544    11.4532200938
     -4.4318509039    -5.0842681799    15.3793044810
      4.8957607059   -10.4961751768    25.0341796507
     -2.6356009368    -5.6050151017    14.0296004840
     -4.9494202193    -7.3025019841    17.0387830147
      4.0450406670   -11.6312677396    23.2061942040
     -2.3225522671     0.9732329296    21.6993655349
     -7.0015227501    -7.6449992052    17.8929911001
      3.1927740268   -13.0631875776    25.7516967035
      1.9263123733     5.1130103781    15.0916465418
    -12.3193806197     5.4090684595    16.9164749903
      6.0434090299   -12.6963666282    23.4963690664
     -1.0660942378    -1.4473838456    24.5482200938
     -6.3138509039    16.5947318201     2.2273044810
      3.0137607059    11.1828248232    11.8821796507
     -4.5176009368    16.0739848983     0.8776004840
     -6.8314202193    14.3764980159     3.8867830147
      2.1630406670    10.0477322604    10.0541942040
     -4.2045522671    22.6522329296     8.5473655349
     -8.8835227501    14.0340007948     4.7409911001
      1.3107740268     8.6158124224    12.5996967035
      0.0443123733    26.7920103781     1.9396465418
    -14.2013806197    27.0880684595     3.7644749903
      4.1614090299     8.9826333718    10.3443690664
     -2.9480942378    20.2316161544    11.3962200938
    -10.9488509039     9.5287318201    15.3223044810
     -1.6212392941     4.1168248232    24.9771796507
     -9.1526009368     9.0079848983    13.9726004840
    -11.4664202193     7.3104980159    16.9817830147
     -2.4719593330     2.9817322604    23.1491942040
     -8.8395522671    15.5862329296    21.6423655349
    -13.5185227501     6.9680007948    17.8359911001
     -3.3242259732     1.5498124224    25.6946967035
     -4.5906876267    19.7260103781    15.0346465418
    -18.8363806197    20.0220684595    16.8594749903
     -0.4735909701     1.9166333718    23.4393690664
     -7.5830942378    13.1656161544    24.4912200938
     16.2031490961     1.4247318201     2.3743044810
     25.5307607059    -3.9871751768    12.0291796507
     17.9993990632     0.9039848983     1.0246004840
     15.6855797807    -0.7935019841     4.0337830147
     24.6800406670    -5.1222677396    10.2011942040
     18.3124477329     7.4822329296     8.6943655349
     13.6334772499    -1.1359992052     4.8879911001
     23.8277740268    -6.5541875776    12.7466967035
     22.5613123733    11.6220103781     2.0866465418
      8.3156193803    11.9180684595     3.9114749903
     26.6784090299    -6.1873666282    10.4913690664
     19.5689057622     5.0616161544    11.5432200938
     11.5681490961    -5.6412681799    15.4693044810
     20.8957607059   -11.0531751768    25.1241796507
     13.3643990632    -6.1620151017    14.1196004840
     11.0505797807    -7.8595019841    17.1287830147
     20.0450406670   -12.1882677396    23.2961942040
     13.6774477329     0.4162329296    21.7893655349
      8.9984772499    -8.2019992052    17.9829911001
     19.1927740268   -13.6201875776    25.8416967035
     17.9263123733     4.5560103781    15.1816465418
      3.6806193803     4.8520684595    17.0064749903
     22.0434090299   -13.2533666282    23.5863690664
     14.9339057622    -2.0043838456    24.6382200938
      9.6861490961    16.0377318201     2.3173044810
     19.0137607059    10.6258248232    11.9721796507
     11.4823990632    15.5169848983     0.9676004840
      9.1685797807    13.8194980159     3.9767830147
     18.1630406670     9.4907322604    10.1441942040
     11.7954477329    22.0952329296     8.6373655349
      7.1164772499    13.4770007948     4.8309911001
     17.3107740268     8.0588124224    12.6896967035
     16.0443123733    26.2350103781     2.0296465418
      1.7986193803    26.5310684595     3.8544749903
     20.1614090299     8.4256333718    10.4343690664
     13.0519057622    19.6746161544    11.4862200938
      5.0511490961     8.9717318201    15.4123044810
     14.3787607059     3.5598248232    25.0671796507
      6.8473990632     8.4509848983    14.0626004840
      4.5335797807     6.7534980159    17.0717830147
     13.5280406670     2.4247322604    23.2391942040
      7.1604477329    15.0292329296    21.7323655349
      2.4814772499     6.4110007948    17.9259911001
     12.6757740268     0.9928124224    25.7846967035
     11.4093123733    19.1690103781    15.1246465418
     -2.8363806197    19.4650684595    16.9494749903
     15.5264090299     1.3596333718    23.5293690664
      8.4169057622    12.6086161544    24.5812200938
      7.7649744491    13.2352079139     1.3029575076
      2.5910512383     6.5867571587    10.9511484820
     -4.4022952208    -5.0944463741    12.6893197380
     -5.7084131753    13.2337402062     1.4208455376
      3.1299744491     6.1692079139    14.3979575076
     -2.0439487617    -0.4792428413    24.0461484820
     -9.0372952208   -12.1604463741    25.7843197380
    -10.3434131753     6.1677402062    14.5158455376
      1.2479744491    27.8482079139     1.2459575076
     -3.9259487617    21.1997571587    10.8941484820
    -10.9192952208     9.5185536259    12.6323197380
    -12.2254131753    27.8467402062     1.3638455376
     -3.3870255509    20.7822079139    14.3409575076
     -8.5609487617    14.1337571587    23.9891484820
    -15.5542952208     2.4525536259    25.7273197380
    -16.8604131753    20.7807402062    14.4588455376
     23.7649744491    12.6782079139     1.3929575076
     18.5910512383     6.0297571587    11.0411484820
     11.5977047792    -5.6514463741    12.7793197380
     10.2915868247    12.6767402062     1.5108455376
     19.1299744491     5.6122079139    14.4879575076
     13.9560512383    -1.0362428413    24.1361484820
      6.9627047792   -12.7174463741    25.8743197380
      5.6565868247     5.6107402062    14.6058455376
     17.2479744491    27.2912079139     1.3359575076
     12.0740512383    20.6427571587    10.9841484820
      5.0807047792     8.9615536259    12.7223197380
      3.7745868247    27.2897402062     1.4538455376
     12.6129744491    20.2252079139    14.4309575076
      7.4390512383    13.5767571587    24.0791484820
      0.4457047792     1.8955536259    25.8173197380
     -0.8604131753    20.2237402062    14.5488455376
