40
 i =       59, E =     -1627.5573689808
  H         2.4676917465        7.1243716345        9.9913475019
  H         0.9498380080        6.3991682087        9.4309877554
  C         1.5673500936        6.5878897568       10.3200042160
  H         2.4765739942        4.6155905973       10.3400675255
  H         0.9971043654        7.2533730156       10.9840667543
  C         1.9270158282        5.2725622320       11.0288949603
  H         2.6079046374        5.4801927518       11.8667378546
  H         1.3737899169        2.4915327679       11.5006192226
  H        -0.0246497841        4.3552601443       10.7126237304
  C         0.6728392096        4.5538238632       11.5393659734
  H         3.2831485441        1.7470035315       12.8784027267
  H         0.1209020264        5.2080050757       12.2282531119
  C         2.9563973215        2.5566460709       13.5206100794
  C         0.9178155639        3.1989487990       12.2035120631
  H         5.6055481339        2.4091251641       14.4339555988
  N         1.8492784021        3.3007726299       13.3491230949
  H         5.1154645363        2.9886108056       16.0539248466
  N         3.5857276341        2.9854457473       14.6324616679
  C         4.8106900362        2.3959101888       15.1871632041
  H        -0.0195152222        2.7611910778       12.5714100659
  C         2.8582142067        4.0265815342       15.1794800883
  H         0.9428208771        4.9216670400       14.4574970148
  C         1.7652832489        4.2226541243       14.3780776505
  H         3.1671399332        4.5189588676       16.0913584119
  H         4.6024040727        1.3633463216       15.4918869302
  S         3.2153834281        3.5161347091        1.5873210727
  S         4.6723405163        1.0499492028        1.9119098945
  F         0.7502273266        2.4725683411        1.5716539601
  F         1.0910484466        4.0306666737        0.0553531989
  F         1.9125841429        2.0270930963       -0.2588794377
  F         4.0947990457       -1.5532606678        2.0472370000
  F         3.2831974390       -0.3876375548        3.7324347414
  F         2.3238824068       -0.2766526096        1.7584985979
  O         4.0764010977        4.0211322672        0.5129051699
  O         2.6683035205        4.4544773801        2.5599670813
  O         5.8016242542        0.8697146454        2.8165509356
  O         4.8704891938        0.9145920128        0.4760412514
  N         3.7376594246        2.2603939831        2.4112438342
  C         1.6612690344        2.9676511962        0.6862523933
  C         3.5273144740       -0.3589758709        2.3918494265
