40
 i =        1, E =     -1627.5572584339
  H         2.4670061197        7.2449152575        9.9338283360
  H         0.9379104687        6.5352439253        9.3831039137
  C         1.5649312165        6.7143224953       10.2677394233
  H         2.4594253527        4.7350717645       10.2709216508
  H         1.0061560914        7.3814072716       10.9401081959
  C         1.9203445696        5.3925316199       10.9675988079
  H         2.6090142954        5.5906090650       11.8013850743
  H         1.3647694279        2.6187927902       11.4125898720
  H        -0.0442046863        4.4989314101       10.6658123995
  C         0.6662175376        4.6793005446       11.4860860451
  H         3.2464966455        1.8224979240       12.7934540972
  H         0.1285672043        5.3286076960       12.1905953665
  C         2.9199411473        2.6178318528       13.4533433583
  C         0.9064776063        3.3128712934       12.1266010004
  H         5.5322303426        2.3545905787       14.4034865600
  N         1.8296479336        3.3864747640       13.2810523506
  H         5.0560223912        2.9569236484       16.0189558105
  N         3.5337898179        3.0019983393       14.5899018220
  C         4.7344019374        2.3712566216       15.1534687161
  H        -0.0335633285        2.8695860165       12.4791102112
  C         2.8125146319        4.0393470858       15.1527160882
  H         0.9279191386        4.9891768191       14.4199982862
  C         1.7394488696        4.2779665811       14.3357702087
  H         3.1095633441        4.4987372345       16.0854777406
  H         4.4895318431        1.3474199340       15.4614270938
  S         3.2154936615        3.5163767895        1.5858593036
  S         4.6717236072        1.0487233809        1.9073592465
  F         0.7507908599        2.4732523476        1.5718807524
  F         1.0911616452        4.0313982099        0.0556533550
  F         1.9138204850        2.0265159937       -0.2597018262
  F         4.0938628542       -1.5539253196        2.0498134377
  F         3.2830016949       -0.3891436259        3.7310774660
  F         2.3227201560       -0.2780534456        1.7602658577
  O         4.0760564806        4.0238845518        0.5116520480
  O         2.6702849302        4.4540870753        2.5604297062
  O         5.8025157857        0.8694442675        2.8100317152
  O         4.8630451351        0.9068894580        0.4710013492
  N         3.7379954753        2.2608228336        2.4069971178
  C         1.6608816721        2.9679143956        0.6857614884
  C         3.5276811130       -0.3588389098        2.3918387700
