 DBCSR| CPU Multiplication driver                                           XSMM (U)
 DBCSR| Multrec recursion limit                                              512 (U)
 DBCSR| Multiplication stack size                                           1000 (D)
 DBCSR| Maximum elements for images                                    UNLIMITED (U)
 DBCSR| Multiplicative factor virtual images                                   1 (U)
 DBCSR| Use multiplication densification                                       T (D)
 DBCSR| Multiplication size stacks                                             3 (U)
 DBCSR| Use memory pool for CPU allocation                                     F (U)
 DBCSR| Number of 3D layers                                               SINGLE (U)
 DBCSR| Use MPI memory allocation                                              F (U)
 DBCSR| Use RMA algorithm                                                      F (U)
 DBCSR| Use Communication thread                                               T (U)
 DBCSR| Communication thread load                                             75 (D)
 DBCSR| MPI: My process id                                                     0
 DBCSR| MPI: Number of processes                                               7
 DBCSR| OMP: Current number of threads                                         4
 DBCSR| OMP: Max number of threads                                             4
 DBCSR| Split modifier for TAS multiplication algorithm                  1.0E+00 (U)


  **** **** ******  **  PROGRAM STARTED AT               2025-06-22 05:56:03.275
 ***** ** ***  *** **   PROGRAM STARTED ON                          afae08ea5617
 **    ****   ******    PROGRAM STARTED BY                             <unknown>
 ***** **    ** ** **   PROGRAM PROCESS ID                                   634
  **** **  *******  **  PROGRAM STARTED IN                                 /work

 CP2K| version string:                                       CP2K version 2025.1
 CP2K| source code revision number:                                  git:9635df4
 CP2K| cp2kflags: omp libint fftw3 libxc libgrpp pexsi elpa parallel scalapack c
 CP2K|            osma quip xsmm plumed2 spglib libdftd4 sirius libvori libbqb l
 CP2K|            libtorch libvdwxc hdf5 trexio
 CP2K| is freely available from                            https://www.cp2k.org/
 CP2K| Program compiled at                          Tue Jan 14 12:16:35 UTC 2025
 CP2K| Program compiled on                                          7282285e16d1
 CP2K| Program compiled for                                                local
 CP2K| Data directory path                                        /opt/cp2k/data
 CP2K| Input file name                                         simulation.input3

 GLOBAL| Force Environment number                                              1
 GLOBAL| Basis set file name                                        BASIS_MOLOPT
 GLOBAL| Potential file name                                      GTH_POTENTIALS
 GLOBAL| MM Potential file name                                     MM_POTENTIAL
 GLOBAL| Coordinate file name                                      __STD_INPUT__
 GLOBAL| Method name                                                        CP2K
 GLOBAL| Project name                                               BAMOF_TFS_MD
 GLOBAL| Run type                                                             MD
 GLOBAL| FFT library                                                       FFTW3
 GLOBAL| Diagonalization library                                            ELPA
 GLOBAL| DGEMM library                                                      BLAS
 GLOBAL| Minimum number of eigenvectors for ELPA usage                        16
 GLOBAL| Orthonormality check for eigenvectors                          DISABLED
 GLOBAL| Matrix multiplication library                                     COSMA
 GLOBAL| All-to-all communication in single precision                          F
 GLOBAL| FFTs using library dependent lengths                                  F
 GLOBAL| Grid backend                                                       AUTO
 GLOBAL| Global print level                                               MEDIUM
 GLOBAL| MPI I/O enabled                                                       T
 GLOBAL| Total number of message passing processes                             7
 GLOBAL| Number of threads for this process                                    4
 GLOBAL| This output is from process                                           0
 GLOBAL| OpenMP stack size per thread (OMP_STACKSIZE)                        16M
 GLOBAL| CPU model name                 Intel(R) Xeon(R) Gold 6354 CPU @ 3.00GHz
 GLOBAL| CPUID                                                              1003
 GLOBAL| Compiled for CPUID                                                    0

 *** HINT in environment.F:928 :: The compiler target flags (generic) used ***
 *** to build this binary cannot exploit all extensions of this CPU model  ***
 *** (x86_avx512). Consider compiler target flags as part of FCFLAGS and   ***
 *** CFLAGS (ARCH file).                                                   ***


 MEMORY| system memory details [Kb]
 MEMORY|                        rank 0           min           max       average
 MEMORY| MemTotal            263565496     263565496     263565496     263565496
 MEMORY| MemFree             117539896     117539896     117539896     117539896
 MEMORY| Buffers                  2192          2192          2192          2192
 MEMORY| Cached              115484948     115484948     115484948     115484948
 MEMORY| Slab                  2812748       2812748       2812748       2812748
 MEMORY| SReclaimable          2082588       2082588       2082588       2082588
 MEMORY| MemLikelyFree       235109624     235109624     235109624     235109624


 *** Fundamental physical constants (SI units) ***

 *** Literature: B. J. Mohr and B. N. Taylor,
 ***             CODATA recommended values of the fundamental physical
 ***             constants: 2006, Web Version 5.1
 ***             http://physics.nist.gov/constants

 Speed of light in vacuum [m/s]                             2.99792458000000E+08
 Magnetic constant or permeability of vacuum [N/A**2]       1.25663706143592E-06
 Electric constant or permittivity of vacuum [F/m]          8.85418781762039E-12
 Planck constant (h) [J*s]                                  6.62606896000000E-34
 Planck constant (h-bar) [J*s]                              1.05457162825177E-34
 Elementary charge [C]                                      1.60217648700000E-19
 Electron mass [kg]                                         9.10938215000000E-31
 Electron g factor [ ]                                     -2.00231930436220E+00
 Proton mass [kg]                                           1.67262163700000E-27
 Fine-structure constant                                    7.29735253760000E-03
 Rydberg constant [1/m]                                     1.09737315685270E+07
 Avogadro constant [1/mol]                                  6.02214179000000E+23
 Boltzmann constant [J/K]                                   1.38065040000000E-23
 Atomic mass unit [kg]                                      1.66053878200000E-27
 Bohr radius [m]                                            5.29177208590000E-11

 *** Conversion factors ***

 [u] -> [a.u.]                                              1.82288848426455E+03
 [Angstrom] -> [Bohr] = [a.u.]                              1.88972613288564E+00
 [a.u.] = [Bohr] -> [Angstrom]                              5.29177208590000E-01
 [a.u.] -> [s]                                              2.41888432650478E-17
 [a.u.] -> [fs]                                             2.41888432650478E-02
 [a.u.] -> [J]                                              4.35974393937059E-18
 [a.u.] -> [N]                                              8.23872205491840E-08
 [a.u.] -> [K]                                              3.15774647902944E+05
 [a.u.] -> [kJ/mol]                                         2.62549961709828E+03
 [a.u.] -> [kcal/mol]                                       6.27509468713739E+02
 [a.u.] -> [Pa]                                             2.94210107994716E+13
 [a.u.] -> [bar]                                            2.94210107994716E+08
 [a.u.] -> [atm]                                            2.90362800883016E+08
 [a.u.] -> [eV]                                             2.72113838565563E+01
 [a.u.] -> [Hz]                                             6.57968392072181E+15
 [a.u.] -> [1/cm] (wave numbers)                            2.19474631370540E+05
 [a.u./Bohr**2] -> [1/cm]                                   5.14048714338585E+03
 

 CELL_TOP| Volume [angstrom^3]:                                      3017.558017
 CELL_TOP| Vector a [angstrom    16.010     0.000     0.000   |a| =    16.009510
 CELL_TOP| Vector b [angstrom    -7.022    14.377     0.000   |b| =    16.000023
 CELL_TOP| Vector c [angstrom    -4.313    -7.239    13.110   |c| =    15.584805
 CELL_TOP| Angle (b,c), alpha [degree]:                               107.213901
 CELL_TOP| Angle (a,c), beta  [degree]:                               106.064299
 CELL_TOP| Angle (a,b), gamma [degree]:                               116.031801
 CELL_TOP| Numerically orthorhombic:                                          NO
 CELL_TOP| Periodicity                                                       XYZ

 GENERATE|  Preliminary Number of Bonds generated:                             0
 GENERATE|  Achieved consistency in connectivity generation.

 CELL| Volume [angstrom^3]:                                          3017.558017
 CELL| Vector a [angstrom]:      16.010     0.000     0.000   |a| =    16.009510
 CELL| Vector b [angstrom]:      -7.022    14.377     0.000   |b| =    16.000023
 CELL| Vector c [angstrom]:      -4.313    -7.239    13.110   |c| =    15.584805
 CELL| Angle (b,c), alpha [degree]:                                   107.213901
 CELL| Angle (a,c), beta  [degree]:                                   106.064299
 CELL| Angle (a,b), gamma [degree]:                                   116.031801
 CELL| Numerically orthorhombic:                                              NO
 CELL| Periodicity                                                           XYZ

 CELL_REF| Volume [angstrom^3]:                                      3017.558017
 CELL_REF| Vector a [angstrom    16.010     0.000     0.000   |a| =    16.009510
 CELL_REF| Vector b [angstrom    -7.022    14.377     0.000   |b| =    16.000023
 CELL_REF| Vector c [angstrom    -4.313    -7.239    13.110   |c| =    15.584805
 CELL_REF| Angle (b,c), alpha [degree]:                               107.213901
 CELL_REF| Angle (a,c), beta  [degree]:                               106.064299
 CELL_REF| Angle (a,b), gamma [degree]:                               116.031801
 CELL_REF| Numerically orthorhombic:                                          NO
 CELL_REF| Periodicity                                                       XYZ

 *******************************************************************************
 *******************************************************************************
 **                                                                           **
 **     #####                         ##              ##                      **
 **    ##   ##            ##          ##              ##                      **
 **   ##     ##                       ##            ######                    **
 **   ##     ##  ##   ##  ##   #####  ##  ##   ####   ##    #####    #####    **
 **   ##     ##  ##   ##  ##  ##      ## ##   ##      ##   ##   ##  ##   ##   **
 **   ##  ## ##  ##   ##  ##  ##      ####     ###    ##   ######   ######    **
 **    ##  ###   ##   ##  ##  ##      ## ##      ##   ##   ##       ##        **
 **     #######   #####   ##   #####  ##  ##  ####    ##    #####   ##        **
 **           ##                                                    ##        **
 **                                                                           **
 **                                                ... make the atoms dance   **
 **                                                                           **
 **            Copyright (C) by CP2K developers group (2000-2025)             **
 **                      J. Chem. Phys. 152, 194103 (2020)                    **
 **                                                                           **
 *******************************************************************************

 DFT| Spin restricted Kohn-Sham (RKS) calculation                            RKS
 DFT| Multiplicity                                                             1
 DFT| Number of spin states                                                    1
 DFT| Charge                                                                   1
 DFT| Self-interaction correction (SIC)                                       NO
 DFT| Cutoffs: density                                              1.000000E-07
 DFT|          gradient                                             1.000000E-07
 DFT|          tau                                                  1.000000E-07
 DFT|          cutoff_smoothing_range                               0.000000E+00
 DFT| XC density smoothing                                                  NONE
 DFT| XC derivatives                                                          PW

 FUNCTIONAL| PBE:
 FUNCTIONAL| J.P.Perdew, K.Burke, M.Ernzerhof, Phys. Rev. Letter, vol. 77, n 18,
 FUNCTIONAL|  pp. 3865-3868, (1996) {spin unpolarized}                          

 vdW POTENTIAL|                                                   Pair Potential
 vdW POTENTIAL|          DFT-D3 (Version 3.1)
 vdW POTENTIAL|          Potential Form: S. Grimme et al, JCP 132: 154104 (2010)
 vdW POTENTIAL|          Zero Damping
 vdW POTENTIAL|          Cutoff Radius [Bohr]:                             20.00
 vdW POTENTIAL|          s6 Scaling Factor:                               1.0000
 vdW POTENTIAL|          sr6 Scaling Factor:                              1.2170
 vdW POTENTIAL|          s8 Scaling Factor:                               0.7220
 vdW POTENTIAL|          Cutoff for CN calculation:                   0.1000E-05

 QS| Method:                                                                 GPW
 QS| Density plane wave grid type                        NON-SPHERICAL FULLSPACE
 QS| Number of grid levels:                                                    4
 QS| Density cutoff [a.u.]:                                                200.0
 QS| Multi grid cutoff [a.u.]: 1) grid level                               200.0
 QS|                           2) grid level                                66.7
 QS|                           3) grid level                                22.2
 QS|                           4) grid level                                 7.4
 QS| Grid level progression factor:                                          3.0
 QS| Relative density cutoff [a.u.]:                                        20.0
 QS| Interaction thresholds: eps_pgf_orb:                                1.0E-05
 QS|                         eps_filter_matrix:                          0.0E+00
 QS|                         eps_core_charge:                            1.0E-12
 QS|                         eps_rho_gspace:                             1.0E-10
 QS|                         eps_rho_rspace:                             1.0E-10
 QS|                         eps_gvg_rspace:                             1.0E-05
 QS|                         eps_ppl:                                    1.0E-02
 QS|                         eps_ppnl:                                   1.0E-07


 ATOMIC KIND INFORMATION

  1. Atomic kind: Ti                                    Number of atoms:       8

     Orbital Basis Set                                        DZVP-MOLOPT-SR-GTH

       Number of orbital shell sets:                                           1
       Number of orbital shells:                                               8
       Number of primitive Cartesian functions:                                6
       Number of Cartesian basis functions:                                   31
       Number of spherical basis functions:                                   26
       Norm type:                                                              2

       Normalised Cartesian orbitals:

                        Set   Shell   Orbital            Exponent    Coefficient

                          1       1    2s                7.884570       0.015554
                                                         3.894698       0.963603
                                                         1.513589      -0.631435
                                                         0.596768      -0.343022
                                                         0.222222      -0.006534
                                                         0.077078       0.007652

                          1       2    3s                7.884570      -0.009340
                                                         3.894698       0.212624
                                                         1.513589      -0.258368
                                                         0.596768      -0.226206
                                                         0.222222       0.039438
                                                         0.077078       0.107179

                          1       3    4s                7.884570       0.276563
                                                         3.894698       0.105452
                                                         1.513589       0.085149
                                                         0.596768       0.882541
                                                         0.222222      -0.696223
                                                         0.077078       0.156638

                          1       4    3px               7.884570      -2.034794
                                                         3.894698       0.782008
                                                         1.513589       1.253903
                                                         0.596768       0.347823
                                                         0.222222       0.016778
                                                         0.077078      -0.000433
                          1       4    3py               7.884570      -2.034794
                                                         3.894698       0.782008
                                                         1.513589       1.253903
                                                         0.596768       0.347823
                                                         0.222222       0.016778
                                                         0.077078      -0.000433
                          1       4    3pz               7.884570      -2.034794
                                                         3.894698       0.782008
                                                         1.513589       1.253903
                                                         0.596768       0.347823
                                                         0.222222       0.016778
                                                         0.077078      -0.000433

                          1       5    4px               7.884570       0.376572
                                                         3.894698      -0.182875
                                                         1.513589      -0.474776
                                                         0.596768      -0.081757
                                                         0.222222       0.064432
                                                         0.077078       0.047279
                          1       5    4py               7.884570       0.376572
                                                         3.894698      -0.182875
                                                         1.513589      -0.474776
                                                         0.596768      -0.081757
                                                         0.222222       0.064432
                                                         0.077078       0.047279
                          1       5    4pz               7.884570       0.376572
                                                         3.894698      -0.182875
                                                         1.513589      -0.474776
                                                         0.596768      -0.081757
                                                         0.222222       0.064432
                                                         0.077078       0.047279

                          1       6    4dx2              7.884570       3.047350
                                                         3.894698       3.289529
                                                         1.513589       1.060616
                                                         0.596768       0.249930
                                                         0.222222       0.038806
                                                         0.077078       0.002319
                          1       6    4dxy              7.884570       5.278165
                                                         3.894698       5.697631
                                                         1.513589       1.837041
                                                         0.596768       0.432892
                                                         0.222222       0.067214
                                                         0.077078       0.004017
                          1       6    4dxz              7.884570       5.278165
                                                         3.894698       5.697631
                                                         1.513589       1.837041
                                                         0.596768       0.432892
                                                         0.222222       0.067214
                                                         0.077078       0.004017
                          1       6    4dy2              7.884570       3.047350
                                                         3.894698       3.289529
                                                         1.513589       1.060616
                                                         0.596768       0.249930
                                                         0.222222       0.038806
                                                         0.077078       0.002319
                          1       6    4dyz              7.884570       5.278165
                                                         3.894698       5.697631
                                                         1.513589       1.837041
                                                         0.596768       0.432892
                                                         0.222222       0.067214
                                                         0.077078       0.004017
                          1       6    4dz2              7.884570       3.047350
                                                         3.894698       3.289529
                                                         1.513589       1.060616
                                                         0.596768       0.249930
                                                         0.222222       0.038806
                                                         0.077078       0.002319

                          1       7    5dx2              7.884570      -2.119015
                                                         3.894698      -1.237751
                                                         1.513589      -0.746777
                                                         0.596768      -0.071514
                                                         0.222222       0.004086
                                                         0.077078       0.017595
                          1       7    5dxy              7.884570      -3.670241
                                                         3.894698      -2.143848
                                                         1.513589      -1.293455
                                                         0.596768      -0.123865
                                                         0.222222       0.007077
                                                         0.077078       0.030475
                          1       7    5dxz              7.884570      -3.670241
                                                         3.894698      -2.143848
                                                         1.513589      -1.293455
                                                         0.596768      -0.123865
                                                         0.222222       0.007077
                                                         0.077078       0.030475
                          1       7    5dy2              7.884570      -2.119015
                                                         3.894698      -1.237751
                                                         1.513589      -0.746777
                                                         0.596768      -0.071514
                                                         0.222222       0.004086
                                                         0.077078       0.017595
                          1       7    5dyz              7.884570      -3.670241
                                                         3.894698      -2.143848
                                                         1.513589      -1.293455
                                                         0.596768      -0.123865
                                                         0.222222       0.007077
                                                         0.077078       0.030475
                          1       7    5dz2              7.884570      -2.119015
                                                         3.894698      -1.237751
                                                         1.513589      -0.746777
                                                         0.596768      -0.071514
                                                         0.222222       0.004086
                                                         0.077078       0.017595

                          1       8    5fx3              7.884570      -0.342058
                                                         3.894698       0.375798
                                                         1.513589      -0.706469
                                                         0.596768      -0.229994
                                                         0.222222      -0.012723
                                                         0.077078       0.003932
                          1       8    5fx2y             7.884570      -0.764866
                                                         3.894698       0.840310
                                                         1.513589      -1.579712
                                                         0.596768      -0.514282
                                                         0.222222      -0.028450
                                                         0.077078       0.008792
                          1       8    5fx2z             7.884570      -0.764866
                                                         3.894698       0.840310
                                                         1.513589      -1.579712
                                                         0.596768      -0.514282
                                                         0.222222      -0.028450
                                                         0.077078       0.008792
                          1       8    5fxy2             7.884570      -0.764866
                                                         3.894698       0.840310
                                                         1.513589      -1.579712
                                                         0.596768      -0.514282
                                                         0.222222      -0.028450
                                                         0.077078       0.008792
                          1       8    5fxyz             7.884570      -1.324787
                                                         3.894698       1.455460
                                                         1.513589      -2.736142
                                                         0.596768      -0.890763
                                                         0.222222      -0.049276
                                                         0.077078       0.015229
                          1       8    5fxz2             7.884570      -0.764866
                                                         3.894698       0.840310
                                                         1.513589      -1.579712
                                                         0.596768      -0.514282
                                                         0.222222      -0.028450
                                                         0.077078       0.008792
                          1       8    5fy3              7.884570      -0.342058
                                                         3.894698       0.375798
                                                         1.513589      -0.706469
                                                         0.596768      -0.229994
                                                         0.222222      -0.012723
                                                         0.077078       0.003932
                          1       8    5fy2z             7.884570      -0.764866
                                                         3.894698       0.840310
                                                         1.513589      -1.579712
                                                         0.596768      -0.514282
                                                         0.222222      -0.028450
                                                         0.077078       0.008792
                          1       8    5fyz2             7.884570      -0.764866
                                                         3.894698       0.840310
                                                         1.513589      -1.579712
                                                         0.596768      -0.514282
                                                         0.222222      -0.028450
                                                         0.077078       0.008792
                          1       8    5fz3              7.884570      -0.342058
                                                         3.894698       0.375798
                                                         1.513589      -0.706469
                                                         0.596768      -0.229994
                                                         0.222222      -0.012723
                                                         0.077078       0.003932

       Atomic covalent radius [Angstrom]:                                  1.320

       Atomic van der Waals radius [Angstrom]:                             1.760

     GTH Potential information for                                       GTH-PBE

       Description:                       Goedecker-Teter-Hutter pseudopotential
                                           Goedecker et al., PRB 54, 1703 (1996)
                                          Hartwigsen et al., PRB 58, 3641 (1998)
                                                      Krack, TCA 114, 145 (2005)

       Gaussian exponent of the core charge distribution:               3.462604
       Electronic configuration (s p d ...):                           4   6   2

       Parameters of the local part of the GTH pseudopotential:

                          rloc        C1          C2          C3          C4
                        0.380000    8.711442   -0.700287

       Parameters of the non-local part of the GTH pseudopotential:

                   l      r(l)      h(i,j,l)

                   0    0.337771    2.575264    3.692971
                                    3.692971   -4.767605
                   1    0.242531   -4.630541    8.870875
                                    8.870875  -10.496161
                   2    0.243317   -9.406653

  2. Atomic kind: H                                     Number of atoms:      34

     Orbital Basis Set                                        DZVP-MOLOPT-SR-GTH

       Number of orbital shell sets:                                           1
       Number of orbital shells:                                               3
       Number of primitive Cartesian functions:                                5
       Number of Cartesian basis functions:                                    5
       Number of spherical basis functions:                                    5
       Norm type:                                                              2

       Normalised Cartesian orbitals:

                        Set   Shell   Orbital            Exponent    Coefficient

                          1       1    2s               10.068468      -0.133023
                                                         2.680223      -0.177618
                                                         0.791502      -0.258419
                                                         0.239116      -0.107525
                                                         0.082193      -0.014019

                          1       2    3s               10.068468       0.344673
                                                         2.680223       1.819821
                                                         0.791502      -0.999069
                                                         0.239116       0.017430
                                                         0.082193       0.082660

                          1       3    3px              10.068468       0.155326
                                                         2.680223       0.367157
                                                         0.791502       0.311480
                                                         0.239116       0.080105
                                                         0.082193       0.033440
                          1       3    3py              10.068468       0.155326
                                                         2.680223       0.367157
                                                         0.791502       0.311480
                                                         0.239116       0.080105
                                                         0.082193       0.033440
                          1       3    3pz              10.068468       0.155326
                                                         2.680223       0.367157
                                                         0.791502       0.311480
                                                         0.239116       0.080105
                                                         0.082193       0.033440

       Atomic covalent radius [Angstrom]:                                  0.320

       Atomic van der Waals radius [Angstrom]:                             1.090

     GTH Potential information for                                       GTH-PBE

       Description:                       Goedecker-Teter-Hutter pseudopotential
                                           Goedecker et al., PRB 54, 1703 (1996)
                                          Hartwigsen et al., PRB 58, 3641 (1998)
                                                      Krack, TCA 114, 145 (2005)

       Gaussian exponent of the core charge distribution:              12.500000
       Electronic configuration (s p d ...):                                   1

       Parameters of the local part of the GTH pseudopotential:

                          rloc        C1          C2          C3          C4
                        0.200000   -4.178900    0.724463

  3. Atomic kind: C                                     Number of atoms:      48

     Orbital Basis Set                                        DZVP-MOLOPT-SR-GTH

       Number of orbital shell sets:                                           1
       Number of orbital shells:                                               5
       Number of primitive Cartesian functions:                                5
       Number of Cartesian basis functions:                                   14
       Number of spherical basis functions:                                   13
       Norm type:                                                              2

       Normalised Cartesian orbitals:

                        Set   Shell   Orbital            Exponent    Coefficient

                          1       1    2s                5.605331       0.322515
                                                         2.113016       0.213043
                                                         0.769911      -0.209686
                                                         0.348157      -0.219794
                                                         0.128212      -0.022789

                          1       2    3s                5.605331       0.552234
                                                         2.113016       0.082072
                                                         0.769911       0.007843
                                                         0.348157       0.136893
                                                         0.128212       0.074283

                          1       3    3px               5.605331      -0.703879
                                                         2.113016      -0.642521
                                                         0.769911      -0.374851
                                                         0.348157      -0.139743
                                                         0.128212      -0.027849
                          1       3    3py               5.605331      -0.703879
                                                         2.113016      -0.642521
                                                         0.769911      -0.374851
                                                         0.348157      -0.139743
                                                         0.128212      -0.027849
                          1       3    3pz               5.605331      -0.703879
                                                         2.113016      -0.642521
                                                         0.769911      -0.374851
                                                         0.348157      -0.139743
                                                         0.128212      -0.027849

                          1       4    4px               5.605331      -0.480376
                                                         2.113016      -0.552894
                                                         0.769911      -0.316145
                                                         0.348157       0.210505
                                                         0.128212       0.076095
                          1       4    4py               5.605331      -0.480376
                                                         2.113016      -0.552894
                                                         0.769911      -0.316145
                                                         0.348157       0.210505
                                                         0.128212       0.076095
                          1       4    4pz               5.605331      -0.480376
                                                         2.113016      -0.552894
                                                         0.769911      -0.316145
                                                         0.348157       0.210505
                                                         0.128212       0.076095

                          1       5    4dx2              5.605331       0.640026
                                                         2.113016       0.274300
                                                         0.769911       0.446711
                                                         0.348157       0.028674
                                                         0.128212       0.029790
                          1       5    4dxy              5.605331       1.108557
                                                         2.113016       0.475102
                                                         0.769911       0.773726
                                                         0.348157       0.049666
                                                         0.128212       0.051599
                          1       5    4dxz              5.605331       1.108557
                                                         2.113016       0.475102
                                                         0.769911       0.773726
                                                         0.348157       0.049666
                                                         0.128212       0.051599
                          1       5    4dy2              5.605331       0.640026
                                                         2.113016       0.274300
                                                         0.769911       0.446711
                                                         0.348157       0.028674
                                                         0.128212       0.029790
                          1       5    4dyz              5.605331       1.108557
                                                         2.113016       0.475102
                                                         0.769911       0.773726
                                                         0.348157       0.049666
                                                         0.128212       0.051599
                          1       5    4dz2              5.605331       0.640026
                                                         2.113016       0.274300
                                                         0.769911       0.446711
                                                         0.348157       0.028674
                                                         0.128212       0.029790

       Atomic covalent radius [Angstrom]:                                  0.770

       Atomic van der Waals radius [Angstrom]:                             1.700

     GTH Potential information for                                       GTH-PBE

       Description:                       Goedecker-Teter-Hutter pseudopotential
                                           Goedecker et al., PRB 54, 1703 (1996)
                                          Hartwigsen et al., PRB 58, 3641 (1998)
                                                      Krack, TCA 114, 145 (2005)

       Gaussian exponent of the core charge distribution:               4.364419
       Electronic configuration (s p d ...):                               2   2

       Parameters of the local part of the GTH pseudopotential:

                          rloc        C1          C2          C3          C4
                        0.338471   -8.803674    1.339211

       Parameters of the non-local part of the GTH pseudopotential:

                   l      r(l)      h(i,j,l)

                   0    0.302576    9.622487
                   1    0.291507

  4. Atomic kind: N                                     Number of atoms:       5

     Orbital Basis Set                                        DZVP-MOLOPT-SR-GTH

       Number of orbital shell sets:                                           1
       Number of orbital shells:                                               5
       Number of primitive Cartesian functions:                                5
       Number of Cartesian basis functions:                                   14
       Number of spherical basis functions:                                   13
       Norm type:                                                              2

       Normalised Cartesian orbitals:

                        Set   Shell   Orbital            Exponent    Coefficient

                          1       1    2s                7.341988       0.360561
                                                         2.542637       0.139177
                                                         0.888575      -0.289383
                                                         0.333802      -0.182244
                                                         0.112012      -0.019197

                          1       2    3s                7.341988       0.282000
                                                         2.542637       0.177875
                                                         0.888575      -0.278381
                                                         0.333802       0.008577
                                                         0.112012       0.154176

                          1       3    3px               7.341988      -1.188719
                                                         2.542637      -0.973969
                                                         0.888575      -0.501079
                                                         0.333802      -0.144894
                                                         0.112012      -0.013986
                          1       3    3py               7.341988      -1.188719
                                                         2.542637      -0.973969
                                                         0.888575      -0.501079
                                                         0.333802      -0.144894
                                                         0.112012      -0.013986
                          1       3    3pz               7.341988      -1.188719
                                                         2.542637      -0.973969
                                                         0.888575      -0.501079
                                                         0.333802      -0.144894
                                                         0.112012      -0.013986

                          1       4    4px               7.341988      -0.094798
                                                         2.542637       0.050069
                                                         0.888575      -0.114797
                                                         0.333802       0.144793
                                                         0.112012       0.066710
                          1       4    4py               7.341988      -0.094798
                                                         2.542637       0.050069
                                                         0.888575      -0.114797
                                                         0.333802       0.144793
                                                         0.112012       0.066710
                          1       4    4pz               7.341988      -0.094798
                                                         2.542637       0.050069
                                                         0.888575      -0.114797
                                                         0.333802       0.144793
                                                         0.112012       0.066710

                          1       5    4dx2              7.341988       1.354688
                                                         2.542637       0.690378
                                                         0.888575       0.855359
                                                         0.333802       0.091746
                                                         0.112012       0.001253
                          1       5    4dxy              7.341988       2.346389
                                                         2.542637       1.195770
                                                         0.888575       1.481524
                                                         0.333802       0.158910
                                                         0.112012       0.002169
                          1       5    4dxz              7.341988       2.346389
                                                         2.542637       1.195770
                                                         0.888575       1.481524
                                                         0.333802       0.158910
                                                         0.112012       0.002169
                          1       5    4dy2              7.341988       1.354688
                                                         2.542637       0.690378
                                                         0.888575       0.855359
                                                         0.333802       0.091746
                                                         0.112012       0.001253
                          1       5    4dyz              7.341988       2.346389
                                                         2.542637       1.195770
                                                         0.888575       1.481524
                                                         0.333802       0.158910
                                                         0.112012       0.002169
                          1       5    4dz2              7.341988       1.354688
                                                         2.542637       0.690378
                                                         0.888575       0.855359
                                                         0.333802       0.091746
                                                         0.112012       0.001253

       Atomic covalent radius [Angstrom]:                                  0.750

       Atomic van der Waals radius [Angstrom]:                             1.550

     GTH Potential information for                                       GTH-PBE

       Description:                       Goedecker-Teter-Hutter pseudopotential
                                           Goedecker et al., PRB 54, 1703 (1996)
                                          Hartwigsen et al., PRB 58, 3641 (1998)
                                                      Krack, TCA 114, 145 (2005)

       Gaussian exponent of the core charge distribution:               6.208322
       Electronic configuration (s p d ...):                               2   3

       Parameters of the local part of the GTH pseudopotential:

                          rloc        C1          C2          C3          C4
                        0.283791  -12.415226    1.868096

       Parameters of the non-local part of the GTH pseudopotential:

                   l      r(l)      h(i,j,l)

                   0    0.255405   13.630263
                   1    0.245495

  5. Atomic kind: O                                     Number of atoms:      36

     Orbital Basis Set                                        DZVP-MOLOPT-SR-GTH

       Number of orbital shell sets:                                           1
       Number of orbital shells:                                               5
       Number of primitive Cartesian functions:                                5
       Number of Cartesian basis functions:                                   14
       Number of spherical basis functions:                                   13
       Norm type:                                                              2

       Normalised Cartesian orbitals:

                        Set   Shell   Orbital            Exponent    Coefficient

                          1       1    2s               10.389228       0.396646
                                                         3.849621       0.208811
                                                         1.388401      -0.301641
                                                         0.496955      -0.274061
                                                         0.162492      -0.033677

                          1       2    3s               10.389228       0.303673
                                                         3.849621       0.240943
                                                         1.388401      -0.313066
                                                         0.496955      -0.043055
                                                         0.162492       0.213991

                          1       3    3px              10.389228      -1.530415
                                                         3.849621      -1.371928
                                                         1.388401      -0.761951
                                                         0.496955      -0.253695
                                                         0.162492      -0.035541
                          1       3    3py              10.389228      -1.530415
                                                         3.849621      -1.371928
                                                         1.388401      -0.761951
                                                         0.496955      -0.253695
                                                         0.162492      -0.035541
                          1       3    3pz              10.389228      -1.530415
                                                         3.849621      -1.371928
                                                         1.388401      -0.761951
                                                         0.496955      -0.253695
                                                         0.162492      -0.035541

                          1       4    4px              10.389228      -0.565392
                                                         3.849621      -0.038231
                                                         1.388401      -0.382373
                                                         0.496955       0.179070
                                                         0.162492       0.122714
                          1       4    4py              10.389228      -0.565392
                                                         3.849621      -0.038231
                                                         1.388401      -0.382373
                                                         0.496955       0.179070
                                                         0.162492       0.122714
                          1       4    4pz              10.389228      -0.565392
                                                         3.849621      -0.038231
                                                         1.388401      -0.382373
                                                         0.496955       0.179070
                                                         0.162492       0.122714

                          1       5    4dx2             10.389228       1.867377
                                                         3.849621       0.670994
                                                         1.388401       1.353441
                                                         0.496955       0.273538
                                                         0.162492       0.006620
                          1       5    4dxy             10.389228       3.234392
                                                         3.849621       1.162195
                                                         1.388401       2.344229
                                                         0.496955       0.473781
                                                         0.162492       0.011466
                          1       5    4dxz             10.389228       3.234392
                                                         3.849621       1.162195
                                                         1.388401       2.344229
                                                         0.496955       0.473781
                                                         0.162492       0.011466
                          1       5    4dy2             10.389228       1.867377
                                                         3.849621       0.670994
                                                         1.388401       1.353441
                                                         0.496955       0.273538
                                                         0.162492       0.006620
                          1       5    4dyz             10.389228       3.234392
                                                         3.849621       1.162195
                                                         1.388401       2.344229
                                                         0.496955       0.473781
                                                         0.162492       0.011466
                          1       5    4dz2             10.389228       1.867377
                                                         3.849621       0.670994
                                                         1.388401       1.353441
                                                         0.496955       0.273538
                                                         0.162492       0.006620

       Atomic covalent radius [Angstrom]:                                  0.730

       Atomic van der Waals radius [Angstrom]:                             1.520

     GTH Potential information for                                       GTH-PBE

       Description:                       Goedecker-Teter-Hutter pseudopotential
                                           Goedecker et al., PRB 54, 1703 (1996)
                                          Hartwigsen et al., PRB 58, 3641 (1998)
                                                      Krack, TCA 114, 145 (2005)

       Gaussian exponent of the core charge distribution:               8.360253
       Electronic configuration (s p d ...):                               2   4

       Parameters of the local part of the GTH pseudopotential:

                          rloc        C1          C2          C3          C4
                        0.244554  -16.667215    2.487311

       Parameters of the non-local part of the GTH pseudopotential:

                   l      r(l)      h(i,j,l)

                   0    0.220956   18.337458
                   1    0.211332

  6. Atomic kind: S                                     Number of atoms:       2

     Orbital Basis Set                                        DZVP-MOLOPT-SR-GTH

       Number of orbital shell sets:                                           1
       Number of orbital shells:                                               5
       Number of primitive Cartesian functions:                                4
       Number of Cartesian basis functions:                                   14
       Number of spherical basis functions:                                   13
       Norm type:                                                              2

       Normalised Cartesian orbitals:

                        Set   Shell   Orbital            Exponent    Coefficient

                          1       1    2s                2.215855       0.308496
                                                         1.131471       0.138505
                                                         0.410168      -0.373736
                                                         0.140587      -0.040370

                          1       2    3s                2.215855      -0.329528
                                                         1.131471      -0.517509
                                                         0.410168       0.787368
                                                         0.140587      -0.322786

                          1       3    3px               2.215855       0.420434
                                                         1.131471      -0.319283
                                                         0.410168      -0.335323
                                                         0.140587      -0.030976
                          1       3    3py               2.215855       0.420434
                                                         1.131471      -0.319283
                                                         0.410168      -0.335323
                                                         0.140587      -0.030976
                          1       3    3pz               2.215855       0.420434
                                                         1.131471      -0.319283
                                                         0.410168      -0.335323
                                                         0.140587      -0.030976

                          1       4    4px               2.215855       0.241296
                                                         1.131471      -0.170582
                                                         0.410168      -0.186977
                                                         0.140587       0.153509
                          1       4    4py               2.215855       0.241296
                                                         1.131471      -0.170582
                                                         0.410168      -0.186977
                                                         0.140587       0.153509
                          1       4    4pz               2.215855       0.241296
                                                         1.131471      -0.170582
                                                         0.410168      -0.186977
                                                         0.140587       0.153509

                          1       5    4dx2              2.215855       0.573559
                                                         1.131471       0.544926
                                                         0.410168       0.228284
                                                         0.140587       0.008811
                          1       5    4dxy              2.215855       0.993434
                                                         1.131471       0.943840
                                                         0.410168       0.395400
                                                         0.140587       0.015260
                          1       5    4dxz              2.215855       0.993434
                                                         1.131471       0.943840
                                                         0.410168       0.395400
                                                         0.140587       0.015260
                          1       5    4dy2              2.215855       0.573559
                                                         1.131471       0.544926
                                                         0.410168       0.228284
                                                         0.140587       0.008811
                          1       5    4dyz              2.215855       0.993434
                                                         1.131471       0.943840
                                                         0.410168       0.395400
                                                         0.140587       0.015260
                          1       5    4dz2              2.215855       0.573559
                                                         1.131471       0.544926
                                                         0.410168       0.228284
                                                         0.140587       0.008811

       Atomic covalent radius [Angstrom]:                                  1.020

       Atomic van der Waals radius [Angstrom]:                             1.800

     GTH Potential information for                                       GTH-PBE

       Description:                       Goedecker-Teter-Hutter pseudopotential
                                           Goedecker et al., PRB 54, 1703 (1996)
                                          Hartwigsen et al., PRB 58, 3641 (1998)
                                                      Krack, TCA 114, 145 (2005)

       Gaussian exponent of the core charge distribution:               2.834467
       Electronic configuration (s p d ...):                               2   4

       Parameters of the local part of the GTH pseudopotential:

                          rloc        C1          C2          C3          C4
                        0.420000   -5.986260

       Parameters of the non-local part of the GTH pseudopotential:

                   l      r(l)      h(i,j,l)

                   0    0.364820   13.143544   -4.241830
                                   -4.241830    5.476180
                   1    0.409480    3.700891

  7. Atomic kind: F                                     Number of atoms:       6

     Orbital Basis Set                                        DZVP-MOLOPT-SR-GTH

       Number of orbital shell sets:                                           1
       Number of orbital shells:                                               5
       Number of primitive Cartesian functions:                                5
       Number of Cartesian basis functions:                                   14
       Number of spherical basis functions:                                   13
       Norm type:                                                              2

       Normalised Cartesian orbitals:

                        Set   Shell   Orbital            Exponent    Coefficient

                          1       1    2s               13.701521       0.466640
                                                         5.098269       0.275181
                                                         1.837941      -0.385817
                                                         0.631759      -0.323188
                                                         0.202027      -0.041057

                          1       2    3s               13.701521       0.812914
                                                         5.098269       0.409868
                                                         1.837941      -0.484144
                                                         0.631759      -0.510807
                                                         0.202027       0.323394

                          1       3    3px              13.701521      -2.132362
                                                         5.098269      -1.951997
                                                         1.837941      -1.094976
                                                         0.631759      -0.344511
                                                         0.202027      -0.046836
                          1       3    3py              13.701521      -2.132362
                                                         5.098269      -1.951997
                                                         1.837941      -1.094976
                                                         0.631759      -0.344511
                                                         0.202027      -0.046836
                          1       3    3pz              13.701521      -2.132362
                                                         5.098269      -1.951997
                                                         1.837941      -1.094976
                                                         0.631759      -0.344511
                                                         0.202027      -0.046836

                          1       4    4px              13.701521      -2.306567
                                                         5.098269      -1.843421
                                                         1.837941      -1.245905
                                                         0.631759      -0.318382
                                                         0.202027       0.198065
                          1       4    4py              13.701521      -2.306567
                                                         5.098269      -1.843421
                                                         1.837941      -1.245905
                                                         0.631759      -0.318382
                                                         0.202027       0.198065
                          1       4    4pz              13.701521      -2.306567
                                                         5.098269      -1.843421
                                                         1.837941      -1.245905
                                                         0.631759      -0.318382
                                                         0.202027       0.198065

                          1       5    4dx2             13.701521       1.831894
                                                         5.098269       1.226066
                                                         1.837941       1.533195
                                                         0.631759       0.583867
                                                         0.202027      -0.008805
                          1       5    4dxy             13.701521       3.172934
                                                         5.098269       2.123609
                                                         1.837941       2.655572
                                                         0.631759       1.011287
                                                         0.202027      -0.015251
                          1       5    4dxz             13.701521       3.172934
                                                         5.098269       2.123609
                                                         1.837941       2.655572
                                                         0.631759       1.011287
                                                         0.202027      -0.015251
                          1       5    4dy2             13.701521       1.831894
                                                         5.098269       1.226066
                                                         1.837941       1.533195
                                                         0.631759       0.583867
                                                         0.202027      -0.008805
                          1       5    4dyz             13.701521       3.172934
                                                         5.098269       2.123609
                                                         1.837941       2.655572
                                                         0.631759       1.011287
                                                         0.202027      -0.015251
                          1       5    4dz2             13.701521       1.831894
                                                         5.098269       1.226066
                                                         1.837941       1.533195
                                                         0.631759       0.583867
                                                         0.202027      -0.008805

       Atomic covalent radius [Angstrom]:                                  0.720

       Atomic van der Waals radius [Angstrom]:                             1.470

     GTH Potential information for                                       GTH-PBE

       Description:                       Goedecker-Teter-Hutter pseudopotential
                                           Goedecker et al., PRB 54, 1703 (1996)
                                          Hartwigsen et al., PRB 58, 3641 (1998)
                                                      Krack, TCA 114, 145 (2005)

       Gaussian exponent of the core charge distribution:              10.823746
       Electronic configuration (s p d ...):                               2   5

       Parameters of the local part of the GTH pseudopotential:

                          rloc        C1          C2          C3          C4
                        0.214930  -21.573028    3.199776

       Parameters of the non-local part of the GTH pseudopotential:

                   l      r(l)      h(i,j,l)

                   0    0.194684   23.743540
                   1    0.186156


 MOLECULE KIND INFORMATION


 All atoms are their own molecule, skipping detailed information


 TOTAL NUMBERS AND MAXIMUM NUMBERS

  Total number of            - Atomic kinds:                                   7
                             - Atoms:                                        139
                             - Shell sets:                                   139
                             - Shells:                                       651
                             - Primitive Cartesian functions:                701
                             - Cartesian basis functions:                   1776
                             - Spherical basis functions:                   1639

  Maximum angular momentum of- Orbital basis functions:                        3
                             - Local part of the GTH pseudopotential:          2
                             - Non-local part of the GTH pseudopotential:      3


 MODULE QUICKSTEP: ATOMIC COORDINATES IN ANGSTROM

   Atom Kind Element         X             Y             Z       Z(eff)     Mass
      1    1 Ti   22     -2.868335      2.115442     11.265214  12.0000  47.8670
      2    1 Ti   22      7.802788      5.383210      1.844391  12.0000  47.8670
      3    1 Ti   22      1.352572     -1.673500      9.417113  12.0000  47.8670
      4    1 Ti   22      2.511792      7.542652      3.648414  12.0000  47.8670
      5    1 Ti   22      1.444672      9.187418      1.751989  12.0000  47.8670
      6    1 Ti   22      3.259458     -1.864257     11.359530  12.0000  47.8670
      7    1 Ti   22     -1.869782      0.416024      9.366140  12.0000  47.8670
      8    1 Ti   22      5.815984      5.614284      3.703281  12.0000  47.8670
      9    2 H     1      3.746896      1.652626      8.583439   1.0000   1.0079
     10    2 H     1     -0.002937     -4.234041      6.478257   1.0000   1.0079
     11    2 H     1      4.431630     11.010612      4.650438   1.0000   1.0079
     12    2 H     1     -2.503694      6.028051     11.048460   1.0000   1.0079
     13    2 H     1      8.748737      1.507342      2.155250   1.0000   1.0079
     14    2 H     1     -6.801542      1.221893     10.903644   1.0000   1.0079
     15    2 H     1     11.114246      7.503838      2.029089   1.0000   1.0079
     16    2 H     1      4.372721     -5.862020     10.962653   1.0000   1.0079
     17    2 H     1     -2.589143      8.456181      2.095703   1.0000   1.0079
     18    2 H     1      4.656966      3.204147      6.826953   1.0000   1.0079
     19    2 H     1     -0.045224      3.670268      8.406030   1.0000   1.0079
     20    2 H     1     -3.568592     -1.828167      6.378540   1.0000   1.0079
     21    2 H     1      1.985327      7.571182     -0.126122   1.0000   1.0079
     22    2 H     1      5.927385      5.077403      0.154584   1.0000   1.0079
     23    2 H     1      3.761426     -2.506617      5.844726   1.0000   1.0079
     24    2 H     1      0.745560      9.314262      7.279431   1.0000   1.0079
     25    2 H     1     -6.059913      3.661213      9.037490   1.0000   1.0079
     26    2 H     1     10.641247      3.393379      4.132134   1.0000   1.0079
     27    2 H     1     -3.728587      2.298708      5.688870   1.0000   1.0079
     28    2 H     1     -1.703972     10.903386      4.124923   1.0000   1.0079
     29    2 H     1      1.733452     12.300945      2.609537   1.0000   1.0079
     30    2 H     1      8.667985     -0.517063      3.355831   1.0000   1.0079
     31    2 H     1      4.606680      7.297451      2.297825   1.0000   1.0079
     32    2 H     1      0.215487      0.134620     10.719246   1.0000   1.0079
     33    2 H     1      7.415332      0.218685      9.728366   1.0000   1.0079
     34    2 H     1      5.955496     -0.302534     10.483299   1.0000   1.0079
     35    2 H     1      7.828656      4.670987      8.632537   1.0000   1.0079
     36    2 H     1      7.237651      5.011538      7.017709   1.0000   1.0079
     37    2 H     1      7.098177     -4.749977      9.534320   1.0000   1.0079
     38    2 H     1      5.784030     -3.695029     10.000157   1.0000   1.0079
     39    2 H     1      1.411485      1.911548      9.356085   1.0000   1.0079
     40    2 H     1      0.863759      5.227040      6.648574   1.0000   1.0079
     41    2 H     1      5.741023      9.069333      3.845371   1.0000   1.0079
     42    2 H     1     -8.010375      8.609993      4.744623   1.0000   1.0079
     43    3 C     6      8.422325      4.659191      4.703706   4.0000  12.0107
     44    3 C     6     -3.853328      2.346718      8.423899   4.0000  12.0107
     45    3 C     6      3.961595     -2.592630      8.476524   4.0000  12.0107
     46    3 C     6      0.513540      9.443357      4.621320   4.0000  12.0107
     47    3 C     6      9.344336      4.085192      5.693105   4.0000  12.0107
     48    3 C     6     -4.811926      2.940026      7.452907   4.0000  12.0107
     49    3 C     6      4.917315     -3.172748      7.523270   4.0000  12.0107
     50    3 C     6     -0.392661     10.057561      5.626884   4.0000  12.0107
     51    3 C     6      9.101042      4.149763      7.100999   4.0000  12.0107
     52    3 C     6     -4.599256      2.829342      6.063538   4.0000  12.0107
     53    3 C     6      6.075072     -3.893771      7.969088   4.0000  12.0107
     54    3 C     6     -1.516055     10.792469      5.189090   4.0000  12.0107
     55    3 C     6     -0.124811      9.894234      6.980095   4.0000  12.0107
     56    3 C     6      4.657405     -3.047644      6.140915   4.0000  12.0107
     57    3 C     6     10.498947      3.426687      5.210054   4.0000  12.0107
     58    3 C     6     -5.932679      3.593124      7.958691   4.0000  12.0107
     59    3 C     6      2.813684      4.307411      6.639567   4.0000  12.0107
     60    3 C     6      1.802100      2.580168      8.590925   4.0000  12.0107
     61    3 C     6      6.161473      9.726276      4.605129   4.0000  12.0107
     62    3 C     6     -1.730084     -2.944720      6.528234   4.0000  12.0107
     63    3 C     6      8.715175      1.588330      0.011262   4.0000  12.0107
     64    3 C     6      1.839040     13.147429      0.088587   4.0000  12.0107
     65    3 C     6     10.996729      7.434587     -0.120340   4.0000  12.0107
     66    3 C     6     -2.407220      8.511054     -0.063507   4.0000  12.0107
     67    3 C     6      3.350517      5.224492      5.605606   4.0000  12.0107
     68    3 C     6     -1.145018     -2.033515      7.540248   4.0000  12.0107
     69    3 C     6      8.528544      3.037593     -0.009085   4.0000  12.0107
     70    3 C     6      1.796086     11.711651      0.049701   4.0000  12.0107
     71    3 C     6      9.721441      6.772968     -0.067230   4.0000  12.0107
     72    3 C     6     -1.020015      8.973849     -0.046332   4.0000  12.0107
     73    3 C     6      1.482906      4.442604      7.078738   4.0000  12.0107
     74    3 C     6      3.125222      2.436827      8.154613   4.0000  12.0107
     75    3 C     6      5.424120     10.827594      5.058747   4.0000  12.0107
     76    3 C     6     -0.996932     -4.057232      6.073436   4.0000  12.0107
     77    3 C     6      8.784652      0.919515      1.239780   4.0000  12.0107
     78    3 C     6     -2.508142      6.615249     11.963065   4.0000  12.0107
     79    3 C     6     11.648958      7.730507      1.110303   4.0000  12.0107
     80    3 C     6     -7.351366      1.022025     11.821932   4.0000  12.0107
     81    3 C     6      7.441371      9.469644      5.112723   4.0000  12.0107
     82    3 C     6     -3.018317     -2.694552      6.017481   4.0000  12.0107
     83    3 C     6      3.632637      3.298056      7.181208   4.0000  12.0107
     84    3 C     6      0.980621      3.578705      8.052889   4.0000  12.0107
     85    3 C     6      7.361766      0.489528     11.753548   4.0000  12.0107
     86    3 C     6     -3.089201      8.254946      1.152479   4.0000  12.0107
     87    3 C     6      4.438003     -6.388560     11.910676   4.0000  12.0107
     88    3 C     6      1.833600     13.897163      1.318797   4.0000  12.0107
     89    4 N     7      1.916367     13.299192      2.555968   5.0000  14.0067
     90    4 N     7      6.782516      0.288157     10.517426   5.0000  14.0067
     91    4 N     7      8.001283      4.757340      7.639127   5.0000  14.0067
     92    4 N     7      6.418775     -4.042078      9.284423   5.0000  14.0067
     93    5 O     8      7.234665      5.022637      5.076604   6.0000  15.9994
     94    5 O     8     -3.053924      1.423703      8.020113   6.0000  15.9994
     95    5 O     8      4.345224     -2.456407      9.695708   6.0000  15.9994
     96    5 O     8      0.426054      9.871897      3.422680   6.0000  15.9994
     97    5 O     8      1.318961      8.513079      5.002228   6.0000  15.9994
     98    5 O     8      2.776776     -2.264724      8.078087   6.0000  15.9994
     99    5 O     8      8.824398      4.755701      3.489805   6.0000  15.9994
    100    5 O     8     -3.903766      2.779751      9.624467   6.0000  15.9994
    101    5 O     8      6.156697      4.409127      2.505218   6.0000  15.9994
    102    5 O     8     -1.367975      1.993658     10.109628   6.0000  15.9994
    103    5 O     8      7.017801      6.727170      2.953185   6.0000  15.9994
    104    5 O     8     -3.056279      0.208461     10.609657   6.0000  15.9994
    105    5 O     8      1.659621     -2.837312     10.674383   6.0000  15.9994
    106    5 O     8      2.969458      9.121937      2.909279   6.0000  15.9994
    107    5 O     8      2.531624     -0.543378     10.208048   6.0000  15.9994
    108    5 O     8      1.322575      7.306972      2.398893   6.0000  15.9994
    109    5 O     8      4.575167      5.087631      5.244337   6.0000  15.9994
    110    5 O     8     -1.836144     -1.022528      7.923516   6.0000  15.9994
    111    5 O     8      4.066391     -3.610049     11.962095   6.0000  15.9994
    112    5 O     8      1.743514     11.006429      1.144350   6.0000  15.9994
    113    5 O     8      4.771026     -0.795498     11.956418   6.0000  15.9994
    114    5 O     8     -0.427504      9.094025      1.094098   6.0000  15.9994
    115    5 O     8      0.028867     -2.288059      7.991258   6.0000  15.9994
    116    5 O     8      2.574295      6.119616      5.117796   6.0000  15.9994
    117    5 O     8      9.199419      6.452785      1.083295   6.0000  15.9994
    118    5 O     8     -4.748114      1.988975     11.944029   6.0000  15.9994
    119    5 O     8      8.500254      3.672420      1.113292   6.0000  15.9994
    120    5 O     8     -2.542975      3.849240     12.015231   6.0000  15.9994
    121    5 O     8      4.269171      6.735574      3.019668   6.0000  15.9994
    122    5 O     8     -0.147093     -0.436062     10.017030   6.0000  15.9994
    123    5 O     8      6.748057      5.600086      0.071530   6.0000  15.9994
    124    5 O     8      2.074201      8.541591     -0.065460   6.0000  15.9994
    125    6 S    16      1.160219      0.171179      0.907809   6.0000  32.0650
    126    6 S    16      1.854038     -0.812879      3.471527   6.0000  32.0650
    127    7 F     9      1.618487      2.740966      1.459963   7.0000  18.9984
    128    7 F     9     -0.220796      2.365327      0.370123   7.0000  18.9984
    129    7 F     9     -0.104326      1.920064      2.489637   7.0000  18.9984
    130    7 F     9      2.643287      0.077492      5.827620   7.0000  18.9984
    131    7 F     9      4.061781      0.488312      4.239046   7.0000  18.9984
    132    7 F     9      2.243908      1.660683      4.399015   7.0000  18.9984
    133    5 O     8     -7.072744     13.771759      0.874719   6.0000  15.9994
    134    5 O     8     -2.419382     -6.859211     12.797811   6.0000  15.9994
    135    5 O     8      2.588431     -2.031458      3.691985   6.0000  15.9994
    136    5 O     8      0.487096     -0.735942      3.916507   6.0000  15.9994
    137    4 N     7      2.179793     -0.201843      2.049466   5.0000  14.0067
    138    3 C     6      0.582334      1.895394      1.343075   4.0000  12.0107
    139    3 C     6      2.755952      0.429463      4.533553   4.0000  12.0107



 SCF PARAMETERS         Density guess:                                    ATOMIC
                        --------------------------------------------------------
                        max_scf:                                              40
                        max_scf_history:                                       0
                        max_diis:                                              4
                        --------------------------------------------------------
                        eps_scf:                                        1.00E-05
                        eps_scf_history:                                0.00E+00
                        eps_diis:                                       1.00E-01
                        eps_eigval:                                     1.00E-05
                        --------------------------------------------------------
                        level_shift [a.u.]:                             0.000000
                        added MOs                                        30    0
                        --------------------------------------------------------
                        Mixing method:                            BROYDEN_MIXING
                                                charge density mixing in g-space
                        --------------------------------------------------------
                        Smear method:                                FERMI_DIRAC
                        Electronic temperature [K]:                       1000.0
                        Electronic temperature [a.u.]:                  3.17E-03
                        Accuracy threshold:                             1.00E-10
                        --------------------------------------------------------
                        No outer SCF

 PW_GRID| Information for grid number                                          1
 PW_GRID| Grid distributed over                                     7 processors
 PW_GRID| Real space group dimensions                                     7    1
 PW_GRID| the grid is blocked:                                                NO
 PW_GRID| Cutoff [a.u.]                                                    200.0
 PW_GRID| spherical cutoff:                                                   NO
 PW_GRID|   Bounds   1           -100      99                Points:         200
 PW_GRID|   Bounds   2           -100      99                Points:         200
 PW_GRID|   Bounds   3            -96      95                Points:         192
 PW_GRID| Volume element (a.u.^3)  0.2651E-02     Volume (a.u.^3)     20363.4911
 PW_GRID| Grid span                                                    FULLSPACE
 PW_GRID|   Distribution                         Average         Max         Min
 PW_GRID|   G-Vectors                          1097142.9     1097200     1097000
 PW_GRID|   G-Rays                                5485.7        5486        5485
 PW_GRID|   Real Space Points                  1097142.9     1113600     1075200

 PW_GRID| Information for grid number                                          2
 PW_GRID| Number of the reference grid                                         1
 PW_GRID| Grid distributed over                                     7 processors
 PW_GRID| Real space group dimensions                                     7    1
 PW_GRID| the grid is blocked:                                                NO
 PW_GRID| Cutoff [a.u.]                                                     66.7
 PW_GRID| spherical cutoff:                                                   NO
 PW_GRID|   Bounds   1            -60      59                Points:         120
 PW_GRID|   Bounds   2            -60      59                Points:         120
 PW_GRID|   Bounds   3            -60      59                Points:         120
 PW_GRID| Volume element (a.u.^3)  0.1178E-01     Volume (a.u.^3)     20363.4911
 PW_GRID| Grid span                                                    FULLSPACE
 PW_GRID|   Distribution                         Average         Max         Min
 PW_GRID|   G-Vectors                           246857.1      247080      246600
 PW_GRID|   G-Rays                                2057.1        2059        2055
 PW_GRID|   Real Space Points                   246857.1      259200      244800

 PW_GRID| Information for grid number                                          3
 PW_GRID| Number of the reference grid                                         1
 PW_GRID| Grid distributed over                                     7 processors
 PW_GRID| Real space group dimensions                                     7    1
 PW_GRID| the grid is blocked:                                                NO
 PW_GRID| Cutoff [a.u.]                                                     22.2
 PW_GRID| spherical cutoff:                                                   NO
 PW_GRID|   Bounds   1            -36      35                Points:          72
 PW_GRID|   Bounds   2            -36      35                Points:          72
 PW_GRID|   Bounds   3            -32      31                Points:          64
 PW_GRID| Volume element (a.u.^3)  0.6138E-01     Volume (a.u.^3)     20363.4911
 PW_GRID| Grid span                                                    FULLSPACE
 PW_GRID|   Distribution                         Average         Max         Min
 PW_GRID|   G-Vectors                            47396.6       47520       47232
 PW_GRID|   G-Rays                                 658.3         660         656
 PW_GRID|   Real Space Points                    47396.6       50688       46080

 PW_GRID| Information for grid number                                          4
 PW_GRID| Number of the reference grid                                         1
 PW_GRID| Grid distributed over                                     7 processors
 PW_GRID| Real space group dimensions                                     7    1
 PW_GRID| the grid is blocked:                                                NO
 PW_GRID| Cutoff [a.u.]                                                      7.4
 PW_GRID| spherical cutoff:                                                   NO
 PW_GRID|   Bounds   1            -20      19                Points:          40
 PW_GRID|   Bounds   2            -20      19                Points:          40
 PW_GRID|   Bounds   3            -20      19                Points:          40
 PW_GRID| Volume element (a.u.^3)  0.3182         Volume (a.u.^3)     20363.4911
 PW_GRID| Grid span                                                    FULLSPACE
 PW_GRID|   Distribution                         Average         Max         Min
 PW_GRID|   G-Vectors                             9142.9        9160        9120
 PW_GRID|   G-Rays                                 228.6         229         228
 PW_GRID|   Real Space Points                     9142.9        9600        8000

 POISSON| Solver                                                        PERIODIC
 POISSON| Periodicity                                                        XYZ

 RS_GRID| Information for grid number                                          1
 RS_GRID|   Bounds   1           -100      99                Points:         200
 RS_GRID|   Bounds   2           -100      99                Points:         200
 RS_GRID|   Bounds   3            -96      95                Points:         192
 RS_GRID| Real space fully replicated
 RS_GRID| Group size                                                           1

 RS_GRID| Information for grid number                                          2
 RS_GRID|   Bounds   1            -60      59                Points:         120
 RS_GRID|   Bounds   2            -60      59                Points:         120
 RS_GRID|   Bounds   3            -60      59                Points:         120
 RS_GRID| Real space fully replicated
 RS_GRID| Group size                                                           1

 RS_GRID| Information for grid number                                          3
 RS_GRID|   Bounds   1            -36      35                Points:          72
 RS_GRID|   Bounds   2            -36      35                Points:          72
 RS_GRID|   Bounds   3            -32      31                Points:          64
 RS_GRID| Real space fully replicated
 RS_GRID| Group size                                                           1

 RS_GRID| Information for grid number                                          4
 RS_GRID|   Bounds   1            -20      19                Points:          40
 RS_GRID|   Bounds   2            -20      19                Points:          40
 RS_GRID|   Bounds   3            -20      19                Points:          40
 RS_GRID| Real space fully replicated
 RS_GRID| Group size                                                           1

 MD_PAR| Molecular dynamics protocol (MD input parameters)
 MD_PAR| Ensemble type                                                       NVT
 MD_PAR| Number of time steps                                              20000
 MD_PAR| Time step [fs]                                                 1.000000
 MD_PAR| Temperature [K]                                              300.000000
 MD_PAR| Temperature tolerance [K]                                      0.000000
 MD_PAR| Constraints activated
 MD_PAR| Tolerance for shake                                            0.000001
 MD_PAR| Print MD information every                                    1 step(s)
 MD_PAR| File type   Print frequency [steps]                          File names
 MD_PAR| Coordinates         10                           BAMOF_TFS_MD-pos-1.xyz
 MD_PAR| Velocities           1                           BAMOF_TFS_MD-vel-1.xyz
 MD_PAR| Energies             1                              BAMOF_TFS_MD-1.ener
 MD_PAR| Dump                20                           BAMOF_TFS_MD-1.restart

 ROT| Rotational analysis information
 ROT| Principal axes and moments of inertia [a.u.]
 ROT|                           1                   2                   3
 ROT| Eigenvalues      2.57540692206E+08   4.18766303111E+08   5.40349970425E+08
 ROT|      x             -0.285791936891      0.904843613944     -0.315564578356
 ROT|      y             -0.748847797451     -0.416349333008     -0.515635733009
 ROT|      z              0.597954801854     -0.088945304589     -0.796579429644
 ROT| Number of rotovibrational vectors                                        6

 DOF| Calculation of degrees of freedom
 DOF| Number of atoms                                                        139
 DOF| Number of intramolecular constraints                                   372
 DOF| Number of intermolecular constraints                                     0
 DOF| Invariants (translations + rotations)                                    3
 DOF| Degrees of freedom                                                      42

 DOF| Restraints information
 DOF| Number of intramolecular restraints                                      0
 DOF| Number of intermolecular restraints                                      0

 THERMOSTAT| Thermostat information for PARTICLES
 THERMOSTAT| Type of thermostat            Canonical Sampling/Velocity Rescaling
 THERMOSTAT| CSVR time constant [fs]                                 1000.000000
 THERMOSTAT| Initial kinetic energy                           0.000000000000E+00
 THERMOSTAT| End of thermostat information for PARTICLES

 MD_VEL| Velocities initialization
 MD_VEL| Initial temperature [K]                                      300.000000
 MD_VEL| COM velocity             0.0000000000    -0.0000000000    -0.0000000000

 Number of electrons:                                                        616
 Number of occupied orbitals:                                                308
 Number of molecular orbitals:                                               338

 Number of orbital functions:                                               1639
 Number of independent orbital functions:                                   1639

 Extrapolation method: initial_guess

 Atomic guess: The first density matrix is obtained in terms of atomic orbitals
               and electronic configurations assigned to each atomic kind

 Guess for atomic kind: Ti

 Electronic structure
    Total number of core electrons                                         10.00
    Total number of valence electrons                                      12.00
    Total number of electrons                                              22.00
    Multiplicity                                                   not specified
    S   [  2.00  2.00] 2.00  2.00
    P   [  6.00] 6.00
    D      2.00


 *******************************************************************************
                  Iteration          Convergence                     Energy [au]
 *******************************************************************************
                          1         2.59099                     -56.573945749309
                          2        0.737518                     -57.461623245624
                          3        0.123244E-01                 -57.676656834797
                          4        0.338536E-02                 -57.676690535970
                          5        0.252157E-03                 -57.676697146183
                          6        0.162704E-05                 -57.676697160103
                          7        0.846593E-06                 -57.676697160104

 Energy components [Hartree]           Total Energy ::          -57.676697160104
                                        Band Energy ::          -13.440549799540
                                     Kinetic Energy ::           25.008468428382
                                   Potential Energy ::          -82.685165588485
                                      Virial (-V/T) ::            3.306286661467
                                        Core Energy ::          -97.155838374470
                                          XC Energy ::           -6.919409696495
                                     Coulomb Energy ::           46.398550910862
                       Total Pseudopotential Energy ::         -122.259340742081
                       Local Pseudopotential Energy ::         -118.928992669456
                    Nonlocal Pseudopotential Energy ::           -3.330348072625
                                        Confinement ::            0.950339392289

 Orbital energies  State     L     Occupation   Energy[a.u.]          Energy[eV]

                       1     0          2.000      -2.312566          -62.928123
                       2     0          2.000      -0.123060           -3.348633

                       1     1          6.000      -1.385567          -37.703193

                       1     2          2.000      -0.127948           -3.481643


 Total Electron Density at R=0:                                         0.004726

 Guess for atomic kind: H

 Electronic structure
    Total number of core electrons                                          0.00
    Total number of valence electrons                                       1.00
    Total number of electrons                                               1.00
    Multiplicity                                                   not specified
    S      1.00


 *******************************************************************************
                  Iteration          Convergence                     Energy [au]
 *******************************************************************************
                          1        0.250972E-02                  -0.375256815885
                          2        0.570752E-04                  -0.375258666164
                          3        0.832404E-09                  -0.375258667122

 Energy components [Hartree]           Total Energy ::           -0.375258667122
                                        Band Energy ::           -0.076317618391
                                     Kinetic Energy ::            0.771356566341
                                   Potential Energy ::           -1.146615233463
                                      Virial (-V/T) ::            1.486491829455
                                        Core Energy ::           -0.456090715790
                                          XC Energy ::           -0.314218627334
                                     Coulomb Energy ::            0.395050676003
                       Total Pseudopotential Energy ::           -1.238482237174
                       Local Pseudopotential Energy ::           -1.238482237174
                    Nonlocal Pseudopotential Energy ::            0.000000000000
                                        Confinement ::            0.110349550431

 Orbital energies  State     L     Occupation   Energy[a.u.]          Energy[eV]

                       1     0          1.000      -0.076318           -2.076708


 Total Electron Density at R=0:                                         0.425022

 Guess for atomic kind: C

 Electronic structure
    Total number of core electrons                                          2.00
    Total number of valence electrons                                       4.00
    Total number of electrons                                               6.00
    Multiplicity                                                   not specified
    S   [  2.00] 2.00
    P      2.00


 *******************************************************************************
                  Iteration          Convergence                     Energy [au]
 *******************************************************************************
                          1        0.261814E-01                  -5.246264729087
                          2        0.905236E-02                  -5.246529568708
                          3        0.681743E-04                  -5.246565167452
                          4        0.792827E-08                  -5.246565169473

 Energy components [Hartree]           Total Energy ::           -5.246565169473
                                        Band Energy ::           -1.058732595430
                                     Kinetic Energy ::            3.518928170589
                                   Potential Energy ::           -8.765493340062
                                      Virial (-V/T) ::            2.490955460053
                                        Core Energy ::           -8.429377169956
                                          XC Energy ::           -1.450183342358
                                     Coulomb Energy ::            4.632995342842
                       Total Pseudopotential Energy ::          -11.978048809389
                       Local Pseudopotential Energy ::          -12.816738187351
                    Nonlocal Pseudopotential Energy ::            0.838689377962
                                        Confinement ::            0.297434688432

 Orbital energies  State     L     Occupation   Energy[a.u.]          Energy[eV]

                       1     0          2.000      -0.410911          -11.181458

                       1     1          2.000      -0.118455           -3.223332


 Total Electron Density at R=0:                                         0.001337

 Guess for atomic kind: N

 Electronic structure
    Total number of core electrons                                          2.00
    Total number of valence electrons                                       5.00
    Total number of electrons                                               7.00
    Multiplicity                                                   not specified
    S   [  2.00] 2.00
    P      3.00


 *******************************************************************************
                  Iteration          Convergence                     Energy [au]
 *******************************************************************************
                          1        0.314603                      -9.513311037226
                          2        0.240982                      -9.524715106536
                          3        0.171660E-02                  -9.545365478140
                          4        0.189497E-03                  -9.545366407342
                          5        0.115171E-03                  -9.545366414563
                          6        0.842367E-04                  -9.545366416530
                          7        0.416372E-07                  -9.545366418792

 Energy components [Hartree]           Total Energy ::           -9.545366418792
                                        Band Energy ::           -2.053285301135
                                     Kinetic Energy ::            6.740378038236
                                   Potential Energy ::          -16.285744457028
                                      Virial (-V/T) ::            2.416147041701
                                        Core Energy ::          -15.542519058333
                                          XC Energy ::           -2.163416690174
                                     Coulomb Energy ::            8.160569329715
                       Total Pseudopotential Energy ::          -22.320027271038
                       Local Pseudopotential Energy ::          -23.240219346165
                    Nonlocal Pseudopotential Energy ::            0.920192075127
                                        Confinement ::            0.371301744695

 Orbital energies  State     L     Occupation   Energy[a.u.]          Energy[eV]

                       1     0          2.000      -0.663125          -18.044549

                       1     1          3.000      -0.242345           -6.594545


 Total Electron Density at R=0:                                         0.000019

 Guess for atomic kind: O

 Electronic structure
    Total number of core electrons                                          2.00
    Total number of valence electrons                                       6.00
    Total number of electrons                                               8.00
    Multiplicity                                                   not specified
    S   [  2.00] 2.00
    P      4.00


 *******************************************************************************
                  Iteration          Convergence                     Energy [au]
 *******************************************************************************
                          1        0.702811                     -15.577904332270
                          2        0.612408                     -15.588447180504
                          3        0.955344E-02                 -15.655871208406
                          4        0.223754E-02                 -15.655885053552
                          5        0.157183E-02                 -15.655885461027
                          6        0.124953E-02                 -15.655885607150
                          7        0.312011E-06                 -15.655885858066

 Energy components [Hartree]           Total Energy ::          -15.655885858066
                                        Band Energy ::           -2.983128125584
                                     Kinetic Energy ::           11.754765134683
                                   Potential Energy ::          -27.410650992749
                                      Virial (-V/T) ::            2.331875684345
                                        Core Energy ::          -26.153522949071
                                          XC Energy ::           -3.157392363346
                                     Coulomb Energy ::           13.655029454351
                       Total Pseudopotential Energy ::          -37.943026860963
                       Local Pseudopotential Energy ::          -39.220419683052
                    Nonlocal Pseudopotential Energy ::            1.277392822089
                                        Confinement ::            0.347387772086

 Orbital energies  State     L     Occupation   Energy[a.u.]          Energy[eV]

                       1     0          2.000      -0.861522          -23.443215

                       1     1          4.000      -0.315021           -8.572154


 Total Electron Density at R=0:                                         0.000093

 Guess for atomic kind: S

 Electronic structure
    Total number of core electrons                                         10.00
    Total number of valence electrons                                       6.00
    Total number of electrons                                              16.00
    Multiplicity                                                   not specified
    S   [  2.00  2.00] 2.00
    P   [  6.00] 4.00


 *******************************************************************************
                  Iteration          Convergence                     Energy [au]
 *******************************************************************************
                          1        0.506127E-01                  -9.947327174035
                          2        0.268535E-01                  -9.947806097329
                          3        0.416209E-04                  -9.948003730091
                          4        0.374461E-07                  -9.948003730535

 Energy components [Hartree]           Total Energy ::           -9.948003730535
                                        Band Energy ::           -2.105895662988
                                     Kinetic Energy ::            3.753358161068
                                   Potential Energy ::          -13.701361891603
                                      Virial (-V/T) ::            3.650427511480
                                        Core Energy ::          -16.361135329452
                                          XC Energy ::           -2.059734796104
                                     Coulomb Energy ::            8.472866395021
                       Total Pseudopotential Energy ::          -20.171145086058
                       Local Pseudopotential Energy ::          -22.366310416427
                    Nonlocal Pseudopotential Energy ::            2.195165330369
                                        Confinement ::            0.566515955377

 Orbital energies  State     L     Occupation   Energy[a.u.]          Energy[eV]

                       1     0          2.000      -0.599768          -16.320517

                       1     1          4.000      -0.226590           -6.165825


 Total Electron Density at R=0:                                         0.000005

 Guess for atomic kind: F

 Electronic structure
    Total number of core electrons                                          2.00
    Total number of valence electrons                                       7.00
    Total number of electrons                                               9.00
    Multiplicity                                                   not specified
    S   [  2.00] 2.00
    P      5.00


 *******************************************************************************
                  Iteration          Convergence                     Energy [au]
 *******************************************************************************
                          1         1.27670                     -23.767682627776
                          2         1.00587                     -23.792509619348
                          3        0.422975E-01                 -23.938936406232
                          4        0.659061E-03                 -23.939146915818
                          5        0.314489E-03                 -23.939146955472
                          6        0.205787E-03                 -23.939146962157
                          7        0.178888E-05                 -23.939146967162
                          8        0.363113E-06                 -23.939146967163

 Energy components [Hartree]           Total Energy ::          -23.939146967163
                                        Band Energy ::           -4.144744434921
                                     Kinetic Energy ::           18.766429891734
                                   Potential Energy ::          -42.705576858897
                                      Virial (-V/T) ::            2.275636714350
                                        Core Energy ::          -40.734808518017
                                          XC Energy ::           -4.364157245549
                                     Coulomb Energy ::           21.159818796404
                       Total Pseudopotential Energy ::          -59.535269785357
                       Local Pseudopotential Energy ::          -61.232885401575
                    Nonlocal Pseudopotential Energy ::            1.697615616218
                                        Confinement ::            0.340313756054

 Orbital energies  State     L     Occupation   Energy[a.u.]          Energy[eV]

                       1     0          2.000      -1.083668          -29.488103

                       1     1          5.000      -0.395482          -10.761605


 Total Electron Density at R=0:                                         0.000149
 Re-scaling the density matrix to get the right number of electrons
                  # Electrons              Trace(P)               Scaling factor
                          616               617.000                        0.998


 SCF WAVEFUNCTION OPTIMIZATION

  Step     Update method      Time    Convergence         Total energy    Change
  ------------------------------------------------------------------------------

 *** WARNING in fm/cp_fm_elpa.F:521 :: Setting real_kernel for ELPA failed ***

     1 NoMix/Diag. 0.40E+00    1.4     2.01747726     -1547.6168798894 -1.55E+03

 *** WARNING in fm/cp_fm_elpa.F:521 :: Setting real_kernel for ELPA failed ***

     2 Broy./Diag. 0.40E+00    1.9     0.94614915     -1503.3212682069  4.43E+01

 *** WARNING in fm/cp_fm_elpa.F:521 :: Setting real_kernel for ELPA failed ***

     3 Broy./Diag. 0.40E+00    2.0     0.82144785     -1537.9806165713 -3.47E+01

 *** WARNING in fm/cp_fm_elpa.F:521 :: Setting real_kernel for ELPA failed ***

     4 Broy./Diag. 0.40E+00    2.0     0.17169385     -1556.3465823125 -1.84E+01

 *** WARNING in fm/cp_fm_elpa.F:521 :: Setting real_kernel for ELPA failed ***

     5 Broy./Diag. 0.40E+00    1.9     0.09601400     -1556.4217089772 -7.51E-02

 *** WARNING in fm/cp_fm_elpa.F:521 :: Setting real_kernel for ELPA failed ***

     6 Broy./Diag. 0.40E+00    1.9     0.03942452     -1554.1161401277  2.31E+00

 *** WARNING in fm/cp_fm_elpa.F:521 :: Setting real_kernel for ELPA failed ***

     7 Broy./Diag. 0.40E+00    1.8     0.03114623     -1552.7401841455  1.38E+00

 *** WARNING in fm/cp_fm_elpa.F:521 :: Setting real_kernel for ELPA failed ***

     8 Broy./Diag. 0.40E+00    1.8     0.02456341     -1552.8484057511 -1.08E-01

 *** WARNING in fm/cp_fm_elpa.F:521 :: Setting real_kernel for ELPA failed ***

     9 Broy./Diag. 0.40E+00    1.8     0.01574888     -1553.1723796436 -3.24E-01

 *** WARNING in fm/cp_fm_elpa.F:521 :: Setting real_kernel for ELPA failed ***

    10 Broy./Diag. 0.40E+00    1.8     0.01038884     -1553.1136196064  5.88E-02

 *** WARNING in fm/cp_fm_elpa.F:521 :: Setting real_kernel for ELPA failed ***

    11 Broy./Diag. 0.40E+00    1.9     0.01215980     -1553.1154350310 -1.82E-03

 *** WARNING in fm/cp_fm_elpa.F:521 :: Setting real_kernel for ELPA failed ***

    12 Broy./Diag. 0.40E+00    1.8     0.00584520     -1553.1185204895 -3.09E-03

 *** WARNING in fm/cp_fm_elpa.F:521 :: Setting real_kernel for ELPA failed ***

    13 Broy./Diag. 0.40E+00    1.8     0.00411101     -1553.1124583513  6.06E-03

 *** WARNING in fm/cp_fm_elpa.F:521 :: Setting real_kernel for ELPA failed ***

    14 Broy./Diag. 0.40E+00    1.8     0.00155192     -1553.1171236635 -4.67E-03

 *** WARNING in fm/cp_fm_elpa.F:521 :: Setting real_kernel for ELPA failed ***

    15 Broy./Diag. 0.40E+00    1.8     0.00178445     -1553.1199165347 -2.79E-03

 *** WARNING in fm/cp_fm_elpa.F:521 :: Setting real_kernel for ELPA failed ***

    16 Broy./Diag. 0.40E+00    1.8     0.00187650     -1553.1177180460  2.20E-03

 *** WARNING in fm/cp_fm_elpa.F:521 :: Setting real_kernel for ELPA failed ***

    17 Broy./Diag. 0.40E+00    1.8     0.00151436     -1553.1205441404 -2.83E-03

 *** WARNING in fm/cp_fm_elpa.F:521 :: Setting real_kernel for ELPA failed ***

    18 Broy./Diag. 0.40E+00    1.8     0.00057550     -1553.1200255080  5.19E-04

 *** WARNING in fm/cp_fm_elpa.F:521 :: Setting real_kernel for ELPA failed ***

    19 Broy./Diag. 0.40E+00    1.8     0.00041580     -1553.1197102390  3.15E-04

 *** WARNING in fm/cp_fm_elpa.F:521 :: Setting real_kernel for ELPA failed ***

    20 Broy./Diag. 0.40E+00    1.8     0.00025233     -1553.1190811127  6.29E-04

 *** WARNING in fm/cp_fm_elpa.F:521 :: Setting real_kernel for ELPA failed ***

    21 Broy./Diag. 0.40E+00    1.8     0.00020402     -1553.1185072884  5.74E-04

 *** WARNING in fm/cp_fm_elpa.F:521 :: Setting real_kernel for ELPA failed ***

    22 Broy./Diag. 0.40E+00    1.8     0.00039738     -1553.1176005196  9.07E-04

 *** WARNING in fm/cp_fm_elpa.F:521 :: Setting real_kernel for ELPA failed ***

    23 Broy./Diag. 0.40E+00    1.9     0.00022611     -1553.1178256431 -2.25E-04

 *** WARNING in fm/cp_fm_elpa.F:521 :: Setting real_kernel for ELPA failed ***

    24 Broy./Diag. 0.40E+00    1.9     0.00014161     -1553.1174734188  3.52E-04

 *** WARNING in fm/cp_fm_elpa.F:521 :: Setting real_kernel for ELPA failed ***

    25 Broy./Diag. 0.40E+00    1.8     0.00006440     -1553.1174052901  6.81E-05

 *** WARNING in fm/cp_fm_elpa.F:521 :: Setting real_kernel for ELPA failed ***

    26 Broy./Diag. 0.40E+00    1.8     0.00004885     -1553.1174067466 -1.46E-06

 *** WARNING in fm/cp_fm_elpa.F:521 :: Setting real_kernel for ELPA failed ***

    27 Broy./Diag. 0.40E+00    1.8     0.00002761     -1553.1174844210 -7.77E-05

 *** WARNING in fm/cp_fm_elpa.F:521 :: Setting real_kernel for ELPA failed ***

    28 Broy./Diag. 0.40E+00    1.7     0.00008546     -1553.1174942116 -9.79E-06

 *** WARNING in fm/cp_fm_elpa.F:521 :: Setting real_kernel for ELPA failed ***

    29 Broy./Diag. 0.40E+00    1.8     0.00006918     -1553.1176745276 -1.80E-04

 *** WARNING in fm/cp_fm_elpa.F:521 :: Setting real_kernel for ELPA failed ***

    30 Broy./Diag. 0.40E+00    1.8     0.00003295     -1553.1176306869  4.38E-05

 *** WARNING in fm/cp_fm_elpa.F:521 :: Setting real_kernel for ELPA failed ***

    31 Broy./Diag. 0.40E+00    1.9     0.00001687     -1553.1176892546 -5.86E-05

 *** WARNING in fm/cp_fm_elpa.F:521 :: Setting real_kernel for ELPA failed ***

    32 Broy./Diag. 0.40E+00    1.9     0.00001153     -1553.1176986284 -9.37E-06

 *** WARNING in fm/cp_fm_elpa.F:521 :: Setting real_kernel for ELPA failed ***

    33 Broy./Diag. 0.40E+00    1.8     0.00000805     -1553.1177203062 -2.17E-05

  *** SCF run converged in    33 steps ***


  Electronic density on regular grids:       -615.9999999342        0.0000000658
  Core density on regular grids:              616.9999999712       -0.0000000288
  Total charge density on r-space grids:        1.0000000369
  Total charge density g-space grids:           1.0000000369

  Overlap energy of the core charge distribution:               0.00001748198927
  Self energy of the core charge distribution:              -3596.65937952835657
  Core Hamiltonian energy:                                   1016.35274651852728
  Hartree energy:                                            1353.05491892026248
  Exchange-correlation energy:                               -325.68395613287089
  Dispersion energy:                                           -0.17686697275409
  Electronic entropic energy:                                  -0.00520102911855
  Fermi energy:                                                -0.06322899275969

  Total energy:                                             -1553.11772030619409

 !-----------------------------------------------------------------------------!
                     Mulliken Population Analysis

 #  Atom  Element  Kind  Atomic population                           Net charge
       1     Ti       1         10.908230                              1.091770
       2     Ti       1         10.905132                              1.094868
       3     Ti       1         10.886436                              1.113564
       4     Ti       1         10.899489                              1.100511
       5     Ti       1         10.910344                              1.089656
       6     Ti       1         10.914017                              1.085983
       7     Ti       1         10.903368                              1.096632
       8     Ti       1         10.908911                              1.091089
       9     H        2          0.933371                              0.066629
      10     H        2          0.923399                              0.076601
      11     H        2          0.935146                              0.064854
      12     H        2          0.921027                              0.078973
      13     H        2          0.925494                              0.074506
      14     H        2          0.927740                              0.072260
      15     H        2          0.919573                              0.080427
      16     H        2          0.925011                              0.074989
      17     H        2          0.920998                              0.079002
      18     H        2          0.928519                              0.071481
      19     H        2          0.933970                              0.066030
      20     H        2          0.926378                              0.073622
      21     H        2          0.813041                              0.186959
      22     H        2          0.812164                              0.187836
      23     H        2          0.922866                              0.077134
      24     H        2          0.926935                              0.073065
      25     H        2          0.928888                              0.071112
      26     H        2          0.923150                              0.076850
      27     H        2          0.920409                              0.079591
      28     H        2          0.923496                              0.076504
      29     H        2          0.887055                              0.112945
      30     H        2          0.874487                              0.125513
      31     H        2          0.829137                              0.170863
      32     H        2          0.832077                              0.167923
      33     H        2          0.875910                              0.124090
      34     H        2          0.887194                              0.112806
      35     H        2          0.875543                              0.124457
      36     H        2          0.885178                              0.114822
      37     H        2          0.877548                              0.122452
      38     H        2          0.890840                              0.109160
      39     H        2          0.941665                              0.058335
      40     H        2          0.925053                              0.074947
      41     H        2          0.943114                              0.056886
      42     H        2          0.933274                              0.066726
      43     C        3          3.764764                              0.235236
      44     C        3          3.762924                              0.237076
      45     C        3          3.765951                              0.234049
      46     C        3          3.761279                              0.238721
      47     C        3          4.048905                             -0.048905
      48     C        3          4.020652                             -0.020652
      49     C        3          4.050118                             -0.050118
      50     C        3          4.023669                             -0.023669
      51     C        3          3.975127                              0.024873
      52     C        3          4.028865                             -0.028865
      53     C        3          3.975850                              0.024150
      54     C        3          4.022984                             -0.022984
      55     C        3          4.040929                             -0.040929
      56     C        3          3.979565                              0.020435
      57     C        3          4.006413                             -0.006413
      58     C        3          4.039225                             -0.039225
      59     C        3          4.031833                             -0.031833
      60     C        3          4.020241                             -0.020241
      61     C        3          4.024489                             -0.024489
      62     C        3          4.026441                             -0.026441
      63     C        3          4.011255                             -0.011255
      64     C        3          4.036554                             -0.036554
      65     C        3          4.037462                             -0.037462
      66     C        3          4.008531                             -0.008531
      67     C        3          3.771327                              0.228673
      68     C        3          3.765832                              0.234168
      69     C        3          3.764014                              0.235986
      70     C        3          3.772359                              0.227641
      71     C        3          3.773350                              0.226650
      72     C        3          3.763306                              0.236694
      73     C        3          4.012302                             -0.012302
      74     C        3          4.028112                             -0.028112
      75     C        3          4.034257                             -0.034257
      76     C        3          4.002505                             -0.002505
      77     C        3          4.012492                             -0.012492
      78     C        3          3.989596                              0.010404
      79     C        3          3.983770                              0.016230
      80     C        3          4.020864                             -0.020864
      81     C        3          4.029033                             -0.029033
      82     C        3          4.012186                             -0.012186
      83     C        3          4.015804                             -0.015804
      84     C        3          4.029938                             -0.029938
      85     C        3          3.963292                              0.036708
      86     C        3          4.001429                             -0.001429
      87     C        3          4.014483                             -0.014483
      88     C        3          3.959695                              0.040305
      89     N        4          4.996718                              0.003282
      90     N        4          5.012757                             -0.012757
      91     N        4          5.021766                             -0.021766
      92     N        4          5.039986                             -0.039986
      93     O        5          6.345668                             -0.345668
      94     O        5          6.298906                             -0.298906
      95     O        5          6.326445                             -0.326445
      96     O        5          6.282607                             -0.282607
      97     O        5          6.305779                             -0.305779
      98     O        5          6.301810                             -0.301810
      99     O        5          6.289314                             -0.289314
     100     O        5          6.279989                             -0.279989
     101     O        5          6.444009                             -0.444009
     102     O        5          6.475495                             -0.475495
     103     O        5          6.467598                             -0.467598
     104     O        5          6.447475                             -0.447475
     105     O        5          6.445489                             -0.445489
     106     O        5          6.469723                             -0.469723
     107     O        5          6.470595                             -0.470595
     108     O        5          6.445845                             -0.445845
     109     O        5          6.359745                             -0.359745
     110     O        5          6.351511                             -0.351511
     111     O        5          6.305356                             -0.305356
     112     O        5          6.334155                             -0.334155
     113     O        5          6.334516                             -0.334516
     114     O        5          6.286299                             -0.286299
     115     O        5          6.346994                             -0.346994
     116     O        5          6.350564                             -0.350564
     117     O        5          6.301475                             -0.301475
     118     O        5          6.292689                             -0.292689
     119     O        5          6.293321                             -0.293321
     120     O        5          6.304337                             -0.304337
     121     O        5          6.536939                             -0.536939
     122     O        5          6.531216                             -0.531216
     123     O        5          6.491859                             -0.491859
     124     O        5          6.490621                             -0.490621
     125     S        6          5.306691                              0.693309
     126     S        6          5.300254                              0.699746
     127     F        7          7.117124                             -0.117124
     128     F        7          7.117923                             -0.117923
     129     F        7          7.103527                             -0.103527
     130     F        7          7.119274                             -0.119274
     131     F        7          7.113857                             -0.113857
     132     F        7          7.105352                             -0.105352
     133     O        5          6.326247                             -0.326247
     134     O        5          6.360749                             -0.360749
     135     O        5          6.366304                             -0.366304
     136     O        5          6.318546                             -0.318546
     137     N        4          5.433706                             -0.433706
     138     C        3          3.827197                              0.172803
     139     C        3          3.834133                              0.165867
 # Total charge                            616.000000                  1.000000

 !-----------------------------------------------------------------------------!

 !-----------------------------------------------------------------------------!
                           Hirshfeld Charges

  #Atom  Element  Kind  Ref Charge     Population                    Net charge
      1       Ti     1      12.000         13.279                        -1.279
      2       Ti     1      12.000         13.276                        -1.276
      3       Ti     1      12.000         13.118                        -1.118
      4       Ti     1      12.000         13.139                        -1.139
      5       Ti     1      12.000         13.297                        -1.297
      6       Ti     1      12.000         13.313                        -1.313
      7       Ti     1      12.000         13.153                        -1.153
      8       Ti     1      12.000         13.185                        -1.185
      9       H      2       1.000          0.547                         0.453
     10       H      2       1.000          0.542                         0.458
     11       H      2       1.000          0.548                         0.452
     12       H      2       1.000          0.540                         0.460
     13       H      2       1.000          0.540                         0.460
     14       H      2       1.000          0.542                         0.458
     15       H      2       1.000          0.540                         0.460
     16       H      2       1.000          0.541                         0.459
     17       H      2       1.000          0.538                         0.462
     18       H      2       1.000          0.545                         0.455
     19       H      2       1.000          0.546                         0.454
     20       H      2       1.000          0.544                         0.456
     21       H      2       1.000          0.413                         0.587
     22       H      2       1.000          0.412                         0.588
     23       H      2       1.000          0.533                         0.467
     24       H      2       1.000          0.543                         0.457
     25       H      2       1.000          0.543                         0.457
     26       H      2       1.000          0.542                         0.458
     27       H      2       1.000          0.539                         0.461
     28       H      2       1.000          0.538                         0.462
     29       H      2       1.000          0.462                         0.538
     30       H      2       1.000          0.476                         0.524
     31       H      2       1.000          0.417                         0.583
     32       H      2       1.000          0.417                         0.583
     33       H      2       1.000          0.477                         0.523
     34       H      2       1.000          0.463                         0.537
     35       H      2       1.000          0.474                         0.526
     36       H      2       1.000          0.462                         0.538
     37       H      2       1.000          0.476                         0.524
     38       H      2       1.000          0.463                         0.537
     39       H      2       1.000          0.546                         0.454
     40       H      2       1.000          0.544                         0.456
     41       H      2       1.000          0.546                         0.454
     42       H      2       1.000          0.546                         0.454
     43       C      3       4.000          3.464                         0.536
     44       C      3       4.000          3.449                         0.551
     45       C      3       4.000          3.465                         0.535
     46       C      3       4.000          3.450                         0.550
     47       C      3       4.000          4.020                        -0.020
     48       C      3       4.000          3.981                         0.019
     49       C      3       4.000          4.019                        -0.019
     50       C      3       4.000          3.985                         0.015
     51       C      3       4.000          3.853                         0.147
     52       C      3       4.000          4.410                        -0.410
     53       C      3       4.000          3.858                         0.142
     54       C      3       4.000          4.392                        -0.392
     55       C      3       4.000          4.415                        -0.415
     56       C      3       4.000          4.327                        -0.327
     57       C      3       4.000          4.370                        -0.370
     58       C      3       4.000          4.409                        -0.409
     59       C      3       4.000          3.992                         0.008
     60       C      3       4.000          4.317                        -0.317
     61       C      3       4.000          4.313                        -0.313
     62       C      3       4.000          3.991                         0.009
     63       C      3       4.000          3.969                         0.031
     64       C      3       4.000          4.005                        -0.005
     65       C      3       4.000          4.006                        -0.006
     66       C      3       4.000          3.966                         0.034
     67       C      3       4.000          3.457                         0.543
     68       C      3       4.000          3.451                         0.549
     69       C      3       4.000          3.453                         0.547
     70       C      3       4.000          3.465                         0.535
     71       C      3       4.000          3.466                         0.534
     72       C      3       4.000          3.450                         0.550
     73       C      3       4.000          4.369                        -0.369
     74       C      3       4.000          4.382                        -0.382
     75       C      3       4.000          4.392                        -0.392
     76       C      3       4.000          4.359                        -0.359
     77       C      3       4.000          4.376                        -0.376
     78       C      3       4.000          4.350                        -0.350
     79       C      3       4.000          4.344                        -0.344
     80       C      3       4.000          4.387                        -0.387
     81       C      3       4.000          4.373                        -0.373
     82       C      3       4.000          4.369                        -0.369
     83       C      3       4.000          4.368                        -0.368
     84       C      3       4.000          4.374                        -0.374
     85       C      3       4.000          3.846                         0.154
     86       C      3       4.000          4.375                        -0.375
     87       C      3       4.000          4.390                        -0.390
     88       C      3       4.000          3.840                         0.160
     89       N      4       5.000          5.859                        -0.859
     90       N      4       5.000          5.872                        -0.872
     91       N      4       5.000          5.892                        -0.892
     92       N      4       5.000          5.906                        -0.906
     93       O      5       6.000          6.157                        -0.157
     94       O      5       6.000          6.101                        -0.101
     95       O      5       6.000          6.168                        -0.168
     96       O      5       6.000          6.118                        -0.118
     97       O      5       6.000          6.107                        -0.107
     98       O      5       6.000          6.097                        -0.097
     99       O      5       6.000          6.100                        -0.100
    100       O      5       6.000          6.103                        -0.103
    101       O      5       6.000          5.693                         0.307
    102       O      5       6.000          5.704                         0.296
    103       O      5       6.000          5.698                         0.302
    104       O      5       6.000          5.695                         0.305
    105       O      5       6.000          5.674                         0.326
    106       O      5       6.000          5.703                         0.297
    107       O      5       6.000          5.704                         0.296
    108       O      5       6.000          5.674                         0.326
    109       O      5       6.000          6.122                        -0.122
    110       O      5       6.000          6.105                        -0.105
    111       O      5       6.000          6.108                        -0.108
    112       O      5       6.000          6.063                        -0.063
    113       O      5       6.000          6.070                        -0.070
    114       O      5       6.000          6.069                        -0.069
    115       O      5       6.000          6.101                        -0.101
    116       O      5       6.000          6.111                        -0.111
    117       O      5       6.000          6.017                        -0.017
    118       O      5       6.000          6.087                        -0.087
    119       O      5       6.000          6.075                        -0.075
    120       O      5       6.000          6.018                        -0.018
    121       O      5       6.000          5.984                         0.016
    122       O      5       6.000          5.984                         0.016
    123       O      5       6.000          6.005                        -0.005
    124       O      5       6.000          6.005                        -0.005
    125       S      6       6.000          5.540                         0.460
    126       S      6       6.000          5.540                         0.460
    127       F      7       7.000          7.304                        -0.304
    128       F      7       7.000          7.300                        -0.300
    129       F      7       7.000          7.295                        -0.295
    130       F      7       7.000          7.324                        -0.324
    131       F      7       7.000          7.309                        -0.309
    132       F      7       7.000          7.312                        -0.312
    133       O      5       6.000          6.364                        -0.364
    134       O      5       6.000          6.376                        -0.376
    135       O      5       6.000          6.418                        -0.418
    136       O      5       6.000          6.362                        -0.362
    137       N      4       5.000          5.207                        -0.207
    138       C      3       4.000          3.089                         0.911
    139       C      3       4.000          3.091                         0.909

  Total Charge                                                            1.051
 !-----------------------------------------------------------------------------!

 ENERGY| Total FORCE_EVAL ( QS ) energy [hartree]          -1553.117704376000574

 MD_INI| MD initialization
 MD_INI| Potential energy [hartree]                          -0.155311770438E+04
 MD_INI| Kinetic energy [hartree]                             0.199509366627E-01
 MD_INI| Temperature [K]                                              300.000000
 MD_INI| Cell volume [bohr^3]                                 2.036349112143E+04
 MD_INI| Cell volume [ang^3]                                  3.017558016826E+03
 MD_INI| Cell lengths [bohr]      3.02535894E+01  3.02356611E+01  2.94510129E+01
 MD_INI| Cell lengths [ang]       1.60095100E+01  1.60000227E+01  1.55848048E+01
 MD_INI| Cell angles [deg]        1.07213901E+02  1.06064299E+02  1.16031801E+02

 Number of electrons:                                                        616
 Number of occupied orbitals:                                                328
 Number of molecular orbitals:                                               338

 Number of orbital functions:                                               1639
 Number of independent orbital functions:                                   1639

 Parameters for the always stable predictor-corrector (ASPC) method:

  ASPC order: 0

  B(1) =   1.000000

 *** WARNING in fm/cp_fm_elpa.F:521 :: Setting real_kernel for ELPA failed ***


 Extrapolation method: ASPC


 SCF WAVEFUNCTION OPTIMIZATION

  Step     Update method      Time    Convergence         Total energy    Change
  ------------------------------------------------------------------------------

 *** WARNING in fm/cp_fm_elpa.F:521 :: Setting real_kernel for ELPA failed ***

     1 Broy./Diag. 0.40E+00    1.2     0.00819571     -1553.1161832432 -1.55E+03

 *** WARNING in fm/cp_fm_elpa.F:521 :: Setting real_kernel for ELPA failed ***

     2 Broy./Diag. 0.40E+00    1.7     0.00796528     -1553.0865043010  2.97E-02

 *** WARNING in fm/cp_fm_elpa.F:521 :: Setting real_kernel for ELPA failed ***

     3 Broy./Diag. 0.40E+00    1.7     0.00340719     -1553.1112225877 -2.47E-02

 *** WARNING in fm/cp_fm_elpa.F:521 :: Setting real_kernel for ELPA failed ***

     4 Broy./Diag. 0.40E+00    1.7     0.00094963     -1553.1160477986 -4.83E-03

 *** WARNING in fm/cp_fm_elpa.F:521 :: Setting real_kernel for ELPA failed ***

     5 Broy./Diag. 0.40E+00    1.8     0.00042259     -1553.1157371488  3.11E-04

 *** WARNING in fm/cp_fm_elpa.F:521 :: Setting real_kernel for ELPA failed ***

     6 Broy./Diag. 0.40E+00    1.8     0.00032846     -1553.1166266512 -8.90E-04

 *** WARNING in fm/cp_fm_elpa.F:521 :: Setting real_kernel for ELPA failed ***

     7 Broy./Diag. 0.40E+00    1.8     0.00023699     -1553.1163650921  2.62E-04

 *** WARNING in fm/cp_fm_elpa.F:521 :: Setting real_kernel for ELPA failed ***

     8 Broy./Diag. 0.40E+00    1.8     0.00009062     -1553.1165318588 -1.67E-04

 *** WARNING in fm/cp_fm_elpa.F:521 :: Setting real_kernel for ELPA failed ***

     9 Broy./Diag. 0.40E+00    1.8     0.00005880     -1553.1164467640  8.51E-05

 *** WARNING in fm/cp_fm_elpa.F:521 :: Setting real_kernel for ELPA failed ***

    10 Broy./Diag. 0.40E+00    1.8     0.00002583     -1553.1165743493 -1.28E-04

 *** WARNING in fm/cp_fm_elpa.F:521 :: Setting real_kernel for ELPA failed ***

    11 Broy./Diag. 0.40E+00    1.8     0.00003041     -1553.1165709202  3.43E-06

 *** WARNING in fm/cp_fm_elpa.F:521 :: Setting real_kernel for ELPA failed ***

    12 Broy./Diag. 0.40E+00    1.8     0.00002443     -1553.1166151140 -4.42E-05

 *** WARNING in fm/cp_fm_elpa.F:521 :: Setting real_kernel for ELPA failed ***

    13 Broy./Diag. 0.40E+00    1.8     0.00002884     -1553.1166157406 -6.27E-07

 *** WARNING in fm/cp_fm_elpa.F:521 :: Setting real_kernel for ELPA failed ***

    14 Broy./Diag. 0.40E+00    1.8     0.00001499     -1553.1166377756 -2.20E-05

 *** WARNING in fm/cp_fm_elpa.F:521 :: Setting real_kernel for ELPA failed ***

    15 Broy./Diag. 0.40E+00    1.8     0.00000628     -1553.1166236775  1.41E-05

  *** SCF run converged in    15 steps ***


  Electronic density on regular grids:       -615.9999999342        0.0000000658
  Core density on regular grids:              616.9999999712       -0.0000000288
  Total charge density on r-space grids:        1.0000000369
  Total charge density g-space grids:           1.0000000369

  Overlap energy of the core charge distribution:               0.00001750383787
  Self energy of the core charge distribution:              -3596.65937952835657
  Core Hamiltonian energy:                                   1016.39071853494193
  Hartree energy:                                            1353.02651687838920
  Exchange-correlation energy:                               -325.69238698448169
  Dispersion energy:                                           -0.17687867959177
  Electronic entropic energy:                                  -0.00523107221339
  Fermi energy:                                                -0.06313393238022

  Total energy:                                             -1553.11662367750478

 !-----------------------------------------------------------------------------!
                     Mulliken Population Analysis

 #  Atom  Element  Kind  Atomic population                           Net charge
       1     Ti       1         10.908285                              1.091715
       2     Ti       1         10.905179                              1.094821
       3     Ti       1         10.886295                              1.113705
       4     Ti       1         10.899566                              1.100434
       5     Ti       1         10.910406                              1.089594
       6     Ti       1         10.914072                              1.085928
       7     Ti       1         10.903378                              1.096622
       8     Ti       1         10.909059                              1.090941
       9     H        2          0.933314                              0.066686
      10     H        2          0.923410                              0.076590
      11     H        2          0.935147                              0.064853
      12     H        2          0.921035                              0.078965
      13     H        2          0.925512                              0.074488
      14     H        2          0.927740                              0.072260
      15     H        2          0.919594                              0.080406
      16     H        2          0.925012                              0.074988
      17     H        2          0.921030                              0.078970
      18     H        2          0.928514                              0.071486
      19     H        2          0.933946                              0.066054
      20     H        2          0.926380                              0.073620
      21     H        2          0.813031                              0.186969
      22     H        2          0.812151                              0.187849
      23     H        2          0.922794                              0.077206
      24     H        2          0.926933                              0.073067
      25     H        2          0.928889                              0.071111
      26     H        2          0.923166                              0.076834
      27     H        2          0.920443                              0.079557
      28     H        2          0.923549                              0.076451
      29     H        2          0.887063                              0.112937
      30     H        2          0.874511                              0.125489
      31     H        2          0.829114                              0.170886
      32     H        2          0.832090                              0.167910
      33     H        2          0.875911                              0.124089
      34     H        2          0.887183                              0.112817
      35     H        2          0.875545                              0.124455
      36     H        2          0.885187                              0.114813
      37     H        2          0.877554                              0.122446
      38     H        2          0.890839                              0.109161
      39     H        2          0.941622                              0.058378
      40     H        2          0.925051                              0.074949
      41     H        2          0.943119                              0.056881
      42     H        2          0.933292                              0.066708
      43     C        3          3.764775                              0.235225
      44     C        3          3.762937                              0.237063
      45     C        3          3.765926                              0.234074
      46     C        3          3.761287                              0.238713
      47     C        3          4.048921                             -0.048921
      48     C        3          4.020657                             -0.020657
      49     C        3          4.050102                             -0.050102
      50     C        3          4.023688                             -0.023688
      51     C        3          3.975135                              0.024865
      52     C        3          4.028943                             -0.028943
      53     C        3          3.975851                              0.024149
      54     C        3          4.023189                             -0.023189
      55     C        3          4.040935                             -0.040935
      56     C        3          3.979590                              0.020410
      57     C        3          4.006455                             -0.006455
      58     C        3          4.039227                             -0.039227
      59     C        3          4.032101                             -0.032101
      60     C        3          4.020101                             -0.020101
      61     C        3          4.024505                             -0.024505
      62     C        3          4.026406                             -0.026406
      63     C        3          4.011277                             -0.011277
      64     C        3          4.036572                             -0.036572
      65     C        3          4.037495                             -0.037495
      66     C        3          4.008589                             -0.008589
      67     C        3          3.771488                              0.228512
      68     C        3          3.765780                              0.234220
      69     C        3          3.764050                              0.235950
      70     C        3          3.772395                              0.227605
      71     C        3          3.773383                              0.226617
      72     C        3          3.763365                              0.236635
      73     C        3          4.012437                             -0.012437
      74     C        3          4.027850                             -0.027850
      75     C        3          4.034256                             -0.034256
      76     C        3          4.002547                             -0.002547
      77     C        3          4.012570                             -0.012570
      78     C        3          3.989622                              0.010378
      79     C        3          3.983881                              0.016119
      80     C        3          4.020890                             -0.020890
      81     C        3          4.029089                             -0.029089
      82     C        3          4.012182                             -0.012182
      83     C        3          4.016059                             -0.016059
      84     C        3          4.029920                             -0.029920
      85     C        3          3.963316                              0.036684
      86     C        3          4.001585                             -0.001585
      87     C        3          4.014492                             -0.014492
      88     C        3          3.959732                              0.040268
      89     N        4          4.996798                              0.003202
      90     N        4          5.012782                             -0.012782
      91     N        4          5.021782                             -0.021782
      92     N        4          5.040027                             -0.040027
      93     O        5          6.345693                             -0.345693
      94     O        5          6.298944                             -0.298944
      95     O        5          6.326462                             -0.326462
      96     O        5          6.282644                             -0.282644
      97     O        5          6.305805                             -0.305805
      98     O        5          6.301647                             -0.301647
      99     O        5          6.289331                             -0.289331
     100     O        5          6.280000                             -0.280000
     101     O        5          6.444057                             -0.444057
     102     O        5          6.475560                             -0.475560
     103     O        5          6.467610                             -0.467610
     104     O        5          6.447470                             -0.447470
     105     O        5          6.445472                             -0.445472
     106     O        5          6.469726                             -0.469726
     107     O        5          6.470632                             -0.470632
     108     O        5          6.445882                             -0.445882
     109     O        5          6.359777                             -0.359777
     110     O        5          6.351528                             -0.351528
     111     O        5          6.305363                             -0.305363
     112     O        5          6.334168                             -0.334168
     113     O        5          6.334524                             -0.334524
     114     O        5          6.286352                             -0.286352
     115     O        5          6.346957                             -0.346957
     116     O        5          6.350580                             -0.350580
     117     O        5          6.301503                             -0.301503
     118     O        5          6.292706                             -0.292706
     119     O        5          6.293355                             -0.293355
     120     O        5          6.304353                             -0.304353
     121     O        5          6.536944                             -0.536944
     122     O        5          6.531218                             -0.531218
     123     O        5          6.491872                             -0.491872
     124     O        5          6.490626                             -0.490626
     125     S        6          5.308022                              0.691978
     126     S        6          5.303799                              0.696201
     127     F        7          7.120747                             -0.120747
     128     F        7          7.115117                             -0.115117
     129     F        7          7.099660                             -0.099660
     130     F        7          7.125651                             -0.125651
     131     F        7          7.114093                             -0.114093
     132     F        7          7.097255                             -0.097255
     133     O        5          6.332014                             -0.332014
     134     O        5          6.361173                             -0.361173
     135     O        5          6.357150                             -0.357150
     136     O        5          6.321219                             -0.321219
     137     N        4          5.431970                             -0.431970
     138     C        3          3.827997                              0.172003
     139     C        3          3.832521                              0.167479
 # Total charge                            616.000000                  1.000000

 !-----------------------------------------------------------------------------!

 !-----------------------------------------------------------------------------!
                           Hirshfeld Charges

  #Atom  Element  Kind  Ref Charge     Population                    Net charge
      1       Ti     1      12.000         13.279                        -1.279
      2       Ti     1      12.000         13.276                        -1.276
      3       Ti     1      12.000         13.118                        -1.118
      4       Ti     1      12.000         13.139                        -1.139
      5       Ti     1      12.000         13.297                        -1.297
      6       Ti     1      12.000         13.313                        -1.313
      7       Ti     1      12.000         13.153                        -1.153
      8       Ti     1      12.000         13.185                        -1.185
      9       H      2       1.000          0.547                         0.453
     10       H      2       1.000          0.542                         0.458
     11       H      2       1.000          0.548                         0.452
     12       H      2       1.000          0.540                         0.460
     13       H      2       1.000          0.540                         0.460
     14       H      2       1.000          0.542                         0.458
     15       H      2       1.000          0.540                         0.460
     16       H      2       1.000          0.541                         0.459
     17       H      2       1.000          0.538                         0.462
     18       H      2       1.000          0.545                         0.455
     19       H      2       1.000          0.546                         0.454
     20       H      2       1.000          0.544                         0.456
     21       H      2       1.000          0.413                         0.587
     22       H      2       1.000          0.412                         0.588
     23       H      2       1.000          0.533                         0.467
     24       H      2       1.000          0.543                         0.457
     25       H      2       1.000          0.543                         0.457
     26       H      2       1.000          0.542                         0.458
     27       H      2       1.000          0.539                         0.461
     28       H      2       1.000          0.538                         0.462
     29       H      2       1.000          0.462                         0.538
     30       H      2       1.000          0.476                         0.524
     31       H      2       1.000          0.417                         0.583
     32       H      2       1.000          0.417                         0.583
     33       H      2       1.000          0.477                         0.523
     34       H      2       1.000          0.463                         0.537
     35       H      2       1.000          0.474                         0.526
     36       H      2       1.000          0.462                         0.538
     37       H      2       1.000          0.476                         0.524
     38       H      2       1.000          0.463                         0.537
     39       H      2       1.000          0.546                         0.454
     40       H      2       1.000          0.544                         0.456
     41       H      2       1.000          0.546                         0.454
     42       H      2       1.000          0.546                         0.454
     43       C      3       4.000          3.464                         0.536
     44       C      3       4.000          3.449                         0.551
     45       C      3       4.000          3.465                         0.535
     46       C      3       4.000          3.450                         0.550
     47       C      3       4.000          4.020                        -0.020
     48       C      3       4.000          3.981                         0.019
     49       C      3       4.000          4.019                        -0.019
     50       C      3       4.000          3.985                         0.015
     51       C      3       4.000          3.853                         0.147
     52       C      3       4.000          4.410                        -0.410
     53       C      3       4.000          3.858                         0.142
     54       C      3       4.000          4.392                        -0.392
     55       C      3       4.000          4.415                        -0.415
     56       C      3       4.000          4.327                        -0.327
     57       C      3       4.000          4.370                        -0.370
     58       C      3       4.000          4.409                        -0.409
     59       C      3       4.000          3.992                         0.008
     60       C      3       4.000          4.316                        -0.316
     61       C      3       4.000          4.313                        -0.313
     62       C      3       4.000          3.991                         0.009
     63       C      3       4.000          3.969                         0.031
     64       C      3       4.000          4.005                        -0.005
     65       C      3       4.000          4.006                        -0.006
     66       C      3       4.000          3.966                         0.034
     67       C      3       4.000          3.457                         0.543
     68       C      3       4.000          3.451                         0.549
     69       C      3       4.000          3.453                         0.547
     70       C      3       4.000          3.465                         0.535
     71       C      3       4.000          3.466                         0.534
     72       C      3       4.000          3.450                         0.550
     73       C      3       4.000          4.369                        -0.369
     74       C      3       4.000          4.382                        -0.382
     75       C      3       4.000          4.392                        -0.392
     76       C      3       4.000          4.359                        -0.359
     77       C      3       4.000          4.376                        -0.376
     78       C      3       4.000          4.350                        -0.350
     79       C      3       4.000          4.344                        -0.344
     80       C      3       4.000          4.387                        -0.387
     81       C      3       4.000          4.373                        -0.373
     82       C      3       4.000          4.369                        -0.369
     83       C      3       4.000          4.369                        -0.369
     84       C      3       4.000          4.374                        -0.374
     85       C      3       4.000          3.846                         0.154
     86       C      3       4.000          4.375                        -0.375
     87       C      3       4.000          4.390                        -0.390
     88       C      3       4.000          3.840                         0.160
     89       N      4       5.000          5.859                        -0.859
     90       N      4       5.000          5.872                        -0.872
     91       N      4       5.000          5.892                        -0.892
     92       N      4       5.000          5.906                        -0.906
     93       O      5       6.000          6.157                        -0.157
     94       O      5       6.000          6.101                        -0.101
     95       O      5       6.000          6.168                        -0.168
     96       O      5       6.000          6.118                        -0.118
     97       O      5       6.000          6.107                        -0.107
     98       O      5       6.000          6.097                        -0.097
     99       O      5       6.000          6.100                        -0.100
    100       O      5       6.000          6.103                        -0.103
    101       O      5       6.000          5.693                         0.307
    102       O      5       6.000          5.704                         0.296
    103       O      5       6.000          5.698                         0.302
    104       O      5       6.000          5.695                         0.305
    105       O      5       6.000          5.674                         0.326
    106       O      5       6.000          5.703                         0.297
    107       O      5       6.000          5.704                         0.296
    108       O      5       6.000          5.674                         0.326
    109       O      5       6.000          6.122                        -0.122
    110       O      5       6.000          6.105                        -0.105
    111       O      5       6.000          6.108                        -0.108
    112       O      5       6.000          6.063                        -0.063
    113       O      5       6.000          6.070                        -0.070
    114       O      5       6.000          6.069                        -0.069
    115       O      5       6.000          6.101                        -0.101
    116       O      5       6.000          6.111                        -0.111
    117       O      5       6.000          6.017                        -0.017
    118       O      5       6.000          6.087                        -0.087
    119       O      5       6.000          6.075                        -0.075
    120       O      5       6.000          6.018                        -0.018
    121       O      5       6.000          5.984                         0.016
    122       O      5       6.000          5.984                         0.016
    123       O      5       6.000          6.005                        -0.005
    124       O      5       6.000          6.005                        -0.005
    125       S      6       6.000          5.541                         0.459
    126       S      6       6.000          5.539                         0.461
    127       F      7       7.000          7.306                        -0.306
    128       F      7       7.000          7.299                        -0.299
    129       F      7       7.000          7.292                        -0.292
    130       F      7       7.000          7.328                        -0.328
    131       F      7       7.000          7.309                        -0.309
    132       F      7       7.000          7.306                        -0.306
    133       O      5       6.000          6.366                        -0.366
    134       O      5       6.000          6.376                        -0.376
    135       O      5       6.000          6.415                        -0.415
    136       O      5       6.000          6.363                        -0.363
    137       N      4       5.000          5.206                        -0.206
    138       C      3       4.000          3.090                         0.910
    139       C      3       4.000          3.091                         0.909

  Total Charge                                                            1.051
 !-----------------------------------------------------------------------------!

 ENERGY| Total FORCE_EVAL ( QS ) energy [hartree]          -1553.116635651703746

 MD_VEL| Centre of mass motion (COM)
 MD_VEL| VCOM [a.u.]             -0.0000000453    -0.0000000180    -0.0000000145

 MD| ***************************************************************************
 MD| Step number                                                               1
 MD| Time [fs]                                                          1.000000
 MD| Conserved quantity [hartree]                            -0.155309774271E+04
 MD| ---------------------------------------------------------------------------
 MD|                                          Instantaneous             Averages
 MD| CPU time per MD step [s]                     98.265551            98.265551
 MD| Energy drift per atom [K]           0.243713055387E-01   0.000000000000E+00
 MD| Potential energy [hartree]         -0.155311663565E+04  -0.155311663565E+04
 MD| Kinetic energy [hartree]            0.188029490984E-01   0.188029490984E-01
 MD| Temperature [K]                             282.737840           282.737840
 MD| ***************************************************************************
 MD| Estimated peak process memory after this step [MiB]                    2203

 Number of electrons:                                                        616
 Number of occupied orbitals:                                                328
 Number of molecular orbitals:                                               338

 Number of orbital functions:                                               1639
 Number of independent orbital functions:                                   1639

 Parameters for the always stable predictor-corrector (ASPC) method:

  ASPC order: 0

  B(1) =   2.000000
  B(2) =  -1.000000

 *** WARNING in fm/cp_fm_elpa.F:521 :: Setting real_kernel for ELPA failed ***


 Extrapolation method: ASPC


 SCF WAVEFUNCTION OPTIMIZATION

  Step     Update method      Time    Convergence         Total energy    Change
  ------------------------------------------------------------------------------

 *** WARNING in fm/cp_fm_elpa.F:521 :: Setting real_kernel for ELPA failed ***

     1 Broy./Diag. 0.40E+00    1.2     0.01180622     -1553.1152270566 -1.55E+03

 *** WARNING in fm/cp_fm_elpa.F:521 :: Setting real_kernel for ELPA failed ***

     2 Broy./Diag. 0.40E+00    1.7     0.01819750     -1553.1224167919 -7.19E-03

 *** WARNING in fm/cp_fm_elpa.F:521 :: Setting real_kernel for ELPA failed ***

     3 Broy./Diag. 0.40E+00    1.7     0.00785078     -1553.1177426220  4.67E-03

 *** WARNING in fm/cp_fm_elpa.F:521 :: Setting real_kernel for ELPA failed ***

     4 Broy./Diag. 0.40E+00    1.7     0.00183049     -1553.1157429724  2.00E-03

 *** WARNING in fm/cp_fm_elpa.F:521 :: Setting real_kernel for ELPA failed ***

     5 Broy./Diag. 0.40E+00    1.8     0.00035863     -1553.1163689126 -6.26E-04

 *** WARNING in fm/cp_fm_elpa.F:521 :: Setting real_kernel for ELPA failed ***

     6 Broy./Diag. 0.40E+00    1.8     0.00013248     -1553.1142763639  2.09E-03

 *** WARNING in fm/cp_fm_elpa.F:521 :: Setting real_kernel for ELPA failed ***

     7 Broy./Diag. 0.40E+00    1.8     0.00008743     -1553.1142171559  5.92E-05

 *** WARNING in fm/cp_fm_elpa.F:521 :: Setting real_kernel for ELPA failed ***

     8 Broy./Diag. 0.40E+00    1.8     0.00003325     -1553.1145812111 -3.64E-04

 *** WARNING in fm/cp_fm_elpa.F:521 :: Setting real_kernel for ELPA failed ***

     9 Broy./Diag. 0.40E+00    1.8     0.00003384     -1553.1149815993 -4.00E-04

 *** WARNING in fm/cp_fm_elpa.F:521 :: Setting real_kernel for ELPA failed ***

    10 Broy./Diag. 0.40E+00    1.8     0.00004012     -1553.1151617176 -1.80E-04

 *** WARNING in fm/cp_fm_elpa.F:521 :: Setting real_kernel for ELPA failed ***

    11 Broy./Diag. 0.40E+00    1.8     0.00004218     -1553.1152129817 -5.13E-05

 *** WARNING in fm/cp_fm_elpa.F:521 :: Setting real_kernel for ELPA failed ***

    12 Broy./Diag. 0.40E+00    1.8     0.00003661     -1553.1151477666  6.52E-05

 *** WARNING in fm/cp_fm_elpa.F:521 :: Setting real_kernel for ELPA failed ***

    13 Broy./Diag. 0.40E+00    1.8     0.00001075     -1553.1151953170 -4.76E-05

 *** WARNING in fm/cp_fm_elpa.F:521 :: Setting real_kernel for ELPA failed ***

    14 Broy./Diag. 0.40E+00    1.8     0.00000683     -1553.1151967416 -1.42E-06

  *** SCF run converged in    14 steps ***


  Electronic density on regular grids:       -615.9999999342        0.0000000658
  Core density on regular grids:              616.9999999712       -0.0000000288
  Total charge density on r-space grids:        1.0000000369
  Total charge density g-space grids:           1.0000000369

  Overlap energy of the core charge distribution:               0.00001751525363
  Self energy of the core charge distribution:              -3596.65937952835657
  Core Hamiltonian energy:                                   1016.41031206759158
  Hartree energy:                                            1353.01225191059234
  Exchange-correlation energy:                               -325.69624726290590
  Dispersion energy:                                           -0.17689328581282
  Electronic entropic energy:                                  -0.00525826945278
  Fermi energy:                                                -0.06305390765610

  Total energy:                                             -1553.11519674157080

 !-----------------------------------------------------------------------------!
                     Mulliken Population Analysis

 #  Atom  Element  Kind  Atomic population                           Net charge
       1     Ti       1         10.908337                              1.091663
       2     Ti       1         10.905225                              1.094775
       3     Ti       1         10.886152                              1.113848
       4     Ti       1         10.899642                              1.100358
       5     Ti       1         10.910474                              1.089526
       6     Ti       1         10.914119                              1.085881
       7     Ti       1         10.903377                              1.096623
       8     Ti       1         10.909192                              1.090808
       9     H        2          0.933261                              0.066739
      10     H        2          0.923419                              0.076581
      11     H        2          0.935151                              0.064849
      12     H        2          0.921042                              0.078958
      13     H        2          0.925528                              0.074472
      14     H        2          0.927740                              0.072260
      15     H        2          0.919614                              0.080386
      16     H        2          0.925013                              0.074987
      17     H        2          0.921059                              0.078941
      18     H        2          0.928510                              0.071490
      19     H        2          0.933925                              0.066075
      20     H        2          0.926386                              0.073614
      21     H        2          0.813021                              0.186979
      22     H        2          0.812137                              0.187863
      23     H        2          0.922718                              0.077282
      24     H        2          0.926932                              0.073068
      25     H        2          0.928889                              0.071111
      26     H        2          0.923181                              0.076819
      27     H        2          0.920476                              0.079524
      28     H        2          0.923598                              0.076402
      29     H        2          0.887070                              0.112930
      30     H        2          0.874533                              0.125467
      31     H        2          0.829090                              0.170910
      32     H        2          0.832102                              0.167898
      33     H        2          0.875913                              0.124087
      34     H        2          0.887172                              0.112828
      35     H        2          0.875544                              0.124456
      36     H        2          0.885193                              0.114807
      37     H        2          0.877559                              0.122441
      38     H        2          0.890838                              0.109162
      39     H        2          0.941581                              0.058419
      40     H        2          0.925052                              0.074948
      41     H        2          0.943125                              0.056875
      42     H        2          0.933310                              0.066690
      43     C        3          3.764785                              0.235215
      44     C        3          3.762950                              0.237050
      45     C        3          3.765899                              0.234101
      46     C        3          3.761297                              0.238703
      47     C        3          4.048935                             -0.048935
      48     C        3          4.020661                             -0.020661
      49     C        3          4.050086                             -0.050086
      50     C        3          4.023709                             -0.023709
      51     C        3          3.975140                              0.024860
      52     C        3          4.029016                             -0.029016
      53     C        3          3.975852                              0.024148
      54     C        3          4.023370                             -0.023370
      55     C        3          4.040944                             -0.040944
      56     C        3          3.979586                              0.020414
      57     C        3          4.006495                             -0.006495
      58     C        3          4.039225                             -0.039225
      59     C        3          4.032355                             -0.032355
      60     C        3          4.019962                             -0.019962
      61     C        3          4.024523                             -0.024523
      62     C        3          4.026369                             -0.026369
      63     C        3          4.011294                             -0.011294
      64     C        3          4.036583                             -0.036583
      65     C        3          4.037522                             -0.037522
      66     C        3          4.008641                             -0.008641
      67     C        3          3.771642                              0.228358
      68     C        3          3.765726                              0.234274
      69     C        3          3.764080                              0.235920
      70     C        3          3.772423                              0.227577
      71     C        3          3.773409                              0.226591
      72     C        3          3.763416                              0.236584
      73     C        3          4.012572                             -0.012572
      74     C        3          4.027586                             -0.027586
      75     C        3          4.034260                             -0.034260
      76     C        3          4.002573                             -0.002573
      77     C        3          4.012640                             -0.012640
      78     C        3          3.989639                              0.010361
      79     C        3          3.983978                              0.016022
      80     C        3          4.020911                             -0.020911
      81     C        3          4.029139                             -0.029139
      82     C        3          4.012183                             -0.012183
      83     C        3          4.016290                             -0.016290
      84     C        3          4.029907                             -0.029907
      85     C        3          3.963336                              0.036664
      86     C        3          4.001724                             -0.001724
      87     C        3          4.014494                             -0.014494
      88     C        3          3.959763                              0.040237
      89     N        4          4.996867                              0.003133
      90     N        4          5.012795                             -0.012795
      91     N        4          5.021785                             -0.021785
      92     N        4          5.040062                             -0.040062
      93     O        5          6.345714                             -0.345714
      94     O        5          6.298979                             -0.298979
      95     O        5          6.326480                             -0.326480
      96     O        5          6.282676                             -0.282676
      97     O        5          6.305829                             -0.305829
      98     O        5          6.301463                             -0.301463
      99     O        5          6.289345                             -0.289345
     100     O        5          6.280009                             -0.280009
     101     O        5          6.444104                             -0.444104
     102     O        5          6.475609                             -0.475609
     103     O        5          6.467607                             -0.467607
     104     O        5          6.447471                             -0.447471
     105     O        5          6.445461                             -0.445461
     106     O        5          6.469712                             -0.469712
     107     O        5          6.470654                             -0.470654
     108     O        5          6.445917                             -0.445917
     109     O        5          6.359807                             -0.359807
     110     O        5          6.351547                             -0.351547
     111     O        5          6.305366                             -0.305366
     112     O        5          6.334175                             -0.334175
     113     O        5          6.334527                             -0.334527
     114     O        5          6.286400                             -0.286400
     115     O        5          6.346912                             -0.346912
     116     O        5          6.350599                             -0.350599
     117     O        5          6.301525                             -0.301525
     118     O        5          6.292720                             -0.292720
     119     O        5          6.293387                             -0.293387
     120     O        5          6.304362                             -0.304362
     121     O        5          6.536949                             -0.536949
     122     O        5          6.531218                             -0.531218
     123     O        5          6.491880                             -0.491880
     124     O        5          6.490626                             -0.490626
     125     S        6          5.308302                              0.691698
     126     S        6          5.306438                              0.693562
     127     F        7          7.124350                             -0.124350
     128     F        7          7.112453                             -0.112453
     129     F        7          7.096202                             -0.096202
     130     F        7          7.131946                             -0.131946
     131     F        7          7.114489                             -0.114489
     132     F        7          7.089663                             -0.089663
     133     O        5          6.337875                             -0.337875
     134     O        5          6.362157                             -0.362157
     135     O        5          6.349119                             -0.349119
     136     O        5          6.324255                             -0.324255
     137     N        4          5.429907                             -0.429907
     138     C        3          3.828559                              0.171441
     139     C        3          3.830662                              0.169338
 # Total charge                            616.000000                  1.000000

 !-----------------------------------------------------------------------------!

 !-----------------------------------------------------------------------------!
                           Hirshfeld Charges

  #Atom  Element  Kind  Ref Charge     Population                    Net charge
      1       Ti     1      12.000         13.279                        -1.279
      2       Ti     1      12.000         13.276                        -1.276
      3       Ti     1      12.000         13.118                        -1.118
      4       Ti     1      12.000         13.139                        -1.139
      5       Ti     1      12.000         13.297                        -1.297
      6       Ti     1      12.000         13.313                        -1.313
      7       Ti     1      12.000         13.153                        -1.153
      8       Ti     1      12.000         13.185                        -1.185
      9       H      2       1.000          0.547                         0.453
     10       H      2       1.000          0.542                         0.458
     11       H      2       1.000          0.548                         0.452
     12       H      2       1.000          0.540                         0.460
     13       H      2       1.000          0.540                         0.460
     14       H      2       1.000          0.542                         0.458
     15       H      2       1.000          0.540                         0.460
     16       H      2       1.000          0.541                         0.459
     17       H      2       1.000          0.538                         0.462
     18       H      2       1.000          0.545                         0.455
     19       H      2       1.000          0.546                         0.454
     20       H      2       1.000          0.544                         0.456
     21       H      2       1.000          0.413                         0.587
     22       H      2       1.000          0.412                         0.588
     23       H      2       1.000          0.533                         0.467
     24       H      2       1.000          0.543                         0.457
     25       H      2       1.000          0.543                         0.457
     26       H      2       1.000          0.542                         0.458
     27       H      2       1.000          0.539                         0.461
     28       H      2       1.000          0.538                         0.462
     29       H      2       1.000          0.462                         0.538
     30       H      2       1.000          0.476                         0.524
     31       H      2       1.000          0.417                         0.583
     32       H      2       1.000          0.417                         0.583
     33       H      2       1.000          0.477                         0.523
     34       H      2       1.000          0.463                         0.537
     35       H      2       1.000          0.474                         0.526
     36       H      2       1.000          0.462                         0.538
     37       H      2       1.000          0.476                         0.524
     38       H      2       1.000          0.463                         0.537
     39       H      2       1.000          0.546                         0.454
     40       H      2       1.000          0.544                         0.456
     41       H      2       1.000          0.546                         0.454
     42       H      2       1.000          0.546                         0.454
     43       C      3       4.000          3.464                         0.536
     44       C      3       4.000          3.449                         0.551
     45       C      3       4.000          3.464                         0.536
     46       C      3       4.000          3.450                         0.550
     47       C      3       4.000          4.020                        -0.020
     48       C      3       4.000          3.981                         0.019
     49       C      3       4.000          4.019                        -0.019
     50       C      3       4.000          3.985                         0.015
     51       C      3       4.000          3.853                         0.147
     52       C      3       4.000          4.410                        -0.410
     53       C      3       4.000          3.858                         0.142
     54       C      3       4.000          4.393                        -0.393
     55       C      3       4.000          4.415                        -0.415
     56       C      3       4.000          4.327                        -0.327
     57       C      3       4.000          4.370                        -0.370
     58       C      3       4.000          4.409                        -0.409
     59       C      3       4.000          3.993                         0.007
     60       C      3       4.000          4.316                        -0.316
     61       C      3       4.000          4.313                        -0.313
     62       C      3       4.000          3.991                         0.009
     63       C      3       4.000          3.969                         0.031
     64       C      3       4.000          4.005                        -0.005
     65       C      3       4.000          4.006                        -0.006
     66       C      3       4.000          3.966                         0.034
     67       C      3       4.000          3.457                         0.543
     68       C      3       4.000          3.451                         0.549
     69       C      3       4.000          3.453                         0.547
     70       C      3       4.000          3.465                         0.535
     71       C      3       4.000          3.466                         0.534
     72       C      3       4.000          3.450                         0.550
     73       C      3       4.000          4.370                        -0.370
     74       C      3       4.000          4.381                        -0.381
     75       C      3       4.000          4.392                        -0.392
     76       C      3       4.000          4.359                        -0.359
     77       C      3       4.000          4.377                        -0.377
     78       C      3       4.000          4.350                        -0.350
     79       C      3       4.000          4.344                        -0.344
     80       C      3       4.000          4.387                        -0.387
     81       C      3       4.000          4.373                        -0.373
     82       C      3       4.000          4.369                        -0.369
     83       C      3       4.000          4.369                        -0.369
     84       C      3       4.000          4.374                        -0.374
     85       C      3       4.000          3.846                         0.154
     86       C      3       4.000          4.375                        -0.375
     87       C      3       4.000          4.390                        -0.390
     88       C      3       4.000          3.841                         0.159
     89       N      4       5.000          5.859                        -0.859
     90       N      4       5.000          5.872                        -0.872
     91       N      4       5.000          5.892                        -0.892
     92       N      4       5.000          5.906                        -0.906
     93       O      5       6.000          6.157                        -0.157
     94       O      5       6.000          6.101                        -0.101
     95       O      5       6.000          6.168                        -0.168
     96       O      5       6.000          6.119                        -0.119
     97       O      5       6.000          6.107                        -0.107
     98       O      5       6.000          6.097                        -0.097
     99       O      5       6.000          6.100                        -0.100
    100       O      5       6.000          6.103                        -0.103
    101       O      5       6.000          5.693                         0.307
    102       O      5       6.000          5.704                         0.296
    103       O      5       6.000          5.698                         0.302
    104       O      5       6.000          5.695                         0.305
    105       O      5       6.000          5.674                         0.326
    106       O      5       6.000          5.703                         0.297
    107       O      5       6.000          5.704                         0.296
    108       O      5       6.000          5.674                         0.326
    109       O      5       6.000          6.122                        -0.122
    110       O      5       6.000          6.105                        -0.105
    111       O      5       6.000          6.108                        -0.108
    112       O      5       6.000          6.063                        -0.063
    113       O      5       6.000          6.070                        -0.070
    114       O      5       6.000          6.069                        -0.069
    115       O      5       6.000          6.101                        -0.101
    116       O      5       6.000          6.111                        -0.111
    117       O      5       6.000          6.017                        -0.017
    118       O      5       6.000          6.087                        -0.087
    119       O      5       6.000          6.075                        -0.075
    120       O      5       6.000          6.018                        -0.018
    121       O      5       6.000          5.984                         0.016
    122       O      5       6.000          5.984                         0.016
    123       O      5       6.000          6.005                        -0.005
    124       O      5       6.000          6.005                        -0.005
    125       S      6       6.000          5.543                         0.457
    126       S      6       6.000          5.538                         0.462
    127       F      7       7.000          7.309                        -0.309
    128       F      7       7.000          7.297                        -0.297
    129       F      7       7.000          7.289                        -0.289
    130       F      7       7.000          7.332                        -0.332
    131       F      7       7.000          7.309                        -0.309
    132       F      7       7.000          7.301                        -0.301
    133       O      5       6.000          6.368                        -0.368
    134       O      5       6.000          6.376                        -0.376
    135       O      5       6.000          6.412                        -0.412
    136       O      5       6.000          6.365                        -0.365
    137       N      4       5.000          5.205                        -0.205
    138       C      3       4.000          3.090                         0.910
    139       C      3       4.000          3.091                         0.909

  Total Charge                                                            1.051
 !-----------------------------------------------------------------------------!

 ENERGY| Total FORCE_EVAL ( QS ) energy [hartree]          -1553.115245230168057

 MD_VEL| Centre of mass motion (COM)
 MD_VEL| VCOM [a.u.]             -0.0000001082    -0.0000000585     0.0000000004

 MD| ***************************************************************************
 MD| Step number                                                               2
 MD| Time [fs]                                                          2.000000
 MD| Conserved quantity [hartree]                            -0.155309772738E+04
 MD| ---------------------------------------------------------------------------
 MD|                                          Instantaneous             Averages
 MD| CPU time per MD step [s]                     30.233337            64.249444
 MD| Energy drift per atom [K]           0.592061006893E-01   0.296030503446E-01
 MD| Potential energy [hartree]         -0.155311524523E+04  -0.155311594044E+04
 MD| Kinetic energy [hartree]            0.173008857609E-01   0.180519174297E-01
 MD| Temperature [K]                             260.151481           271.444660
 MD| ***************************************************************************
 MD| Estimated peak process memory after this step [MiB]                    2463

 Number of electrons:                                                        616
 Number of occupied orbitals:                                                328
 Number of molecular orbitals:                                               338

 Number of orbital functions:                                               1639
 Number of independent orbital functions:                                   1639

 Parameters for the always stable predictor-corrector (ASPC) method:

  ASPC order: 1

  B(1) =   2.500000
  B(2) =  -2.000000
  B(3) =   0.500000

 *** WARNING in fm/cp_fm_elpa.F:521 :: Setting real_kernel for ELPA failed ***


 Extrapolation method: ASPC


 SCF WAVEFUNCTION OPTIMIZATION

  Step     Update method      Time    Convergence         Total energy    Change
  ------------------------------------------------------------------------------

 *** WARNING in fm/cp_fm_elpa.F:521 :: Setting real_kernel for ELPA failed ***

     1 Broy./Diag. 0.40E+00    1.2     0.00887255     -1553.1137738799 -1.55E+03

 *** WARNING in fm/cp_fm_elpa.F:521 :: Setting real_kernel for ELPA failed ***

     2 Broy./Diag. 0.40E+00    1.8     0.01346317     -1553.1206197348 -6.85E-03

 *** WARNING in fm/cp_fm_elpa.F:521 :: Setting real_kernel for ELPA failed ***

     3 Broy./Diag. 0.40E+00    1.8     0.00599080     -1553.1130911510  7.53E-03

 *** WARNING in fm/cp_fm_elpa.F:521 :: Setting real_kernel for ELPA failed ***

     4 Broy./Diag. 0.40E+00    1.8     0.00160401     -1553.1136799730 -5.89E-04

 *** WARNING in fm/cp_fm_elpa.F:521 :: Setting real_kernel for ELPA failed ***

     5 Broy./Diag. 0.40E+00    1.9     0.00035947     -1553.1143299412 -6.50E-04

 *** WARNING in fm/cp_fm_elpa.F:521 :: Setting real_kernel for ELPA failed ***

     6 Broy./Diag. 0.40E+00    1.8     0.00009075     -1553.1129965453  1.33E-03

 *** WARNING in fm/cp_fm_elpa.F:521 :: Setting real_kernel for ELPA failed ***

     7 Broy./Diag. 0.40E+00    1.8     0.00007759     -1553.1130739070 -7.74E-05

 *** WARNING in fm/cp_fm_elpa.F:521 :: Setting real_kernel for ELPA failed ***

     8 Broy./Diag. 0.40E+00    1.8     0.00003200     -1553.1132832716 -2.09E-04

 *** WARNING in fm/cp_fm_elpa.F:521 :: Setting real_kernel for ELPA failed ***

     9 Broy./Diag. 0.40E+00    1.8     0.00002449     -1553.1135452033 -2.62E-04

 *** WARNING in fm/cp_fm_elpa.F:521 :: Setting real_kernel for ELPA failed ***

    10 Broy./Diag. 0.40E+00    1.8     0.00003574     -1553.1136899510 -1.45E-04

 *** WARNING in fm/cp_fm_elpa.F:521 :: Setting real_kernel for ELPA failed ***

    11 Broy./Diag. 0.40E+00    1.9     0.00003773     -1553.1137163229 -2.64E-05

 *** WARNING in fm/cp_fm_elpa.F:521 :: Setting real_kernel for ELPA failed ***

    12 Broy./Diag. 0.40E+00    1.8     0.00003040     -1553.1136951137  2.12E-05

 *** WARNING in fm/cp_fm_elpa.F:521 :: Setting real_kernel for ELPA failed ***

    13 Broy./Diag. 0.40E+00    1.8     0.00000991     -1553.1137442575 -4.91E-05

  *** SCF run converged in    13 steps ***


  Electronic density on regular grids:       -615.9999999343        0.0000000657
  Core density on regular grids:              616.9999999712       -0.0000000288
  Total charge density on r-space grids:        1.0000000369
  Total charge density g-space grids:           1.0000000369

  Overlap energy of the core charge distribution:               0.00001751124380
  Self energy of the core charge distribution:              -3596.65937952835657
  Core Hamiltonian energy:                                   1016.40961224056582
  Hartree energy:                                            1353.01338409099571
  Exchange-correlation energy:                               -325.69518923876353
  Dispersion energy:                                           -0.17691037112662
  Electronic entropic energy:                                  -0.00527925171325
  Fermi energy:                                                -0.06300190823094

  Total energy:                                             -1553.11374425753229

 !-----------------------------------------------------------------------------!
                     Mulliken Population Analysis

 #  Atom  Element  Kind  Atomic population                           Net charge
       1     Ti       1         10.908381                              1.091619
       2     Ti       1         10.905255                              1.094745
       3     Ti       1         10.886025                              1.113975
       4     Ti       1         10.899713                              1.100287
       5     Ti       1         10.910520                              1.089480
       6     Ti       1         10.914153                              1.085847
       7     Ti       1         10.903376                              1.096624
       8     Ti       1         10.909308                              1.090692
       9     H        2          0.933213                              0.066787
      10     H        2          0.923425                              0.076575
      11     H        2          0.935156                              0.064844
      12     H        2          0.921046                              0.078954
      13     H        2          0.925540                              0.074460
      14     H        2          0.927738                              0.072262
      15     H        2          0.919628                              0.080372
      16     H        2          0.925012                              0.074988
      17     H        2          0.921080                              0.078920
      18     H        2          0.928506                              0.071494
      19     H        2          0.933909                              0.066091
      20     H        2          0.926391                              0.073609
      21     H        2          0.813006                              0.186994
      22     H        2          0.812120                              0.187880
      23     H        2          0.922639                              0.077361
      24     H        2          0.926932                              0.073068
      25     H        2          0.928888                              0.071112
      26     H        2          0.923193                              0.076807
      27     H        2          0.920502                              0.079498
      28     H        2          0.923639                              0.076361
      29     H        2          0.887074                              0.112926
      30     H        2          0.874549                              0.125451
      31     H        2          0.829070                              0.170930
      32     H        2          0.832114                              0.167886
      33     H        2          0.875911                              0.124089
      34     H        2          0.887160                              0.112840
      35     H        2          0.875542                              0.124458
      36     H        2          0.885198                              0.114802
      37     H        2          0.877562                              0.122438
      38     H        2          0.890837                              0.109163
      39     H        2          0.941548                              0.058452
      40     H        2          0.925053                              0.074947
      41     H        2          0.943133                              0.056867
      42     H        2          0.933327                              0.066673
      43     C        3          3.764791                              0.235209
      44     C        3          3.762960                              0.237040
      45     C        3          3.765872                              0.234128
      46     C        3          3.761304                              0.238696
      47     C        3          4.048945                             -0.048945
      48     C        3          4.020662                             -0.020662
      49     C        3          4.050067                             -0.050067
      50     C        3          4.023726                             -0.023726
      51     C        3          3.975142                              0.024858
      52     C        3          4.029073                             -0.029073
      53     C        3          3.975852                              0.024148
      54     C        3          4.023508                             -0.023508
      55     C        3          4.040952                             -0.040952
      56     C        3          3.979548                              0.020452
      57     C        3          4.006526                             -0.006526
      58     C        3          4.039221                             -0.039221
      59     C        3          4.032583                             -0.032583
      60     C        3          4.019837                             -0.019837
      61     C        3          4.024542                             -0.024542
      62     C        3          4.026330                             -0.026330
      63     C        3          4.011304                             -0.011304
      64     C        3          4.036590                             -0.036590
      65     C        3          4.037543                             -0.037543
      66     C        3          4.008681                             -0.008681
      67     C        3          3.771778                              0.228222
      68     C        3          3.765670                              0.234330
      69     C        3          3.764097                              0.235903
      70     C        3          3.772440                              0.227560
      71     C        3          3.773424                              0.226576
      72     C        3          3.763451                              0.236549
      73     C        3          4.012695                             -0.012695
      74     C        3          4.027339                             -0.027339
      75     C        3          4.034267                             -0.034267
      76     C        3          4.002583                             -0.002583
      77     C        3          4.012689                             -0.012689
      78     C        3          3.989647                              0.010353
      79     C        3          3.984052                              0.015948
      80     C        3          4.020924                             -0.020924
      81     C        3          4.029183                             -0.029183
      82     C        3          4.012183                             -0.012183
      83     C        3          4.016488                             -0.016488
      84     C        3          4.029898                             -0.029898
      85     C        3          3.963351                              0.036649
      86     C        3          4.001832                             -0.001832
      87     C        3          4.014490                             -0.014490
      88     C        3          3.959784                              0.040216
      89     N        4          4.996909                              0.003091
      90     N        4          5.012794                             -0.012794
      91     N        4          5.021778                             -0.021778
      92     N        4          5.040085                             -0.040085
      93     O        5          6.345728                             -0.345728
      94     O        5          6.299003                             -0.299003
      95     O        5          6.326499                             -0.326499
      96     O        5          6.282701                             -0.282701
      97     O        5          6.305846                             -0.305846
      98     O        5          6.301267                             -0.301267
      99     O        5          6.289356                             -0.289356
     100     O        5          6.280016                             -0.280016
     101     O        5          6.444132                             -0.444132
     102     O        5          6.475633                             -0.475633
     103     O        5          6.467588                             -0.467588
     104     O        5          6.447456                             -0.447456
     105     O        5          6.445436                             -0.445436
     106     O        5          6.469682                             -0.469682
     107     O        5          6.470654                             -0.470654
     108     O        5          6.445923                             -0.445923
     109     O        5          6.359832                             -0.359832
     110     O        5          6.351562                             -0.351562
     111     O        5          6.305364                             -0.305364
     112     O        5          6.334180                             -0.334180
     113     O        5          6.334529                             -0.334529
     114     O        5          6.286435                             -0.286435
     115     O        5          6.346862                             -0.346862
     116     O        5          6.350613                             -0.350613
     117     O        5          6.301542                             -0.301542
     118     O        5          6.292729                             -0.292729
     119     O        5          6.293411                             -0.293411
     120     O        5          6.304368                             -0.304368
     121     O        5          6.536950                             -0.536950
     122     O        5          6.531215                             -0.531215
     123     O        5          6.491885                             -0.491885
     124     O        5          6.490623                             -0.490623
     125     S        6          5.307502                              0.692498
     126     S        6          5.307895                              0.692105
     127     F        7          7.127758                             -0.127758
     128     F        7          7.110035                             -0.110035
     129     F        7          7.093404                             -0.093404
     130     F        7          7.137864                             -0.137864
     131     F        7          7.114992                             -0.114992
     132     F        7          7.082959                             -0.082959
     133     O        5          6.343514                             -0.343514
     134     O        5          6.363686                             -0.363686
     135     O        5          6.342937                             -0.342937
     136     O        5          6.327419                             -0.327419
     137     N        4          5.427663                             -0.427663
     138     C        3          3.828929                              0.171071
     139     C        3          3.828657                              0.171343
 # Total charge                            616.000000                  1.000000

 !-----------------------------------------------------------------------------!

 !-----------------------------------------------------------------------------!
                           Hirshfeld Charges

  #Atom  Element  Kind  Ref Charge     Population                    Net charge
      1       Ti     1      12.000         13.279                        -1.279
      2       Ti     1      12.000         13.276                        -1.276
      3       Ti     1      12.000         13.118                        -1.118
      4       Ti     1      12.000         13.139                        -1.139
      5       Ti     1      12.000         13.297                        -1.297
      6       Ti     1      12.000         13.313                        -1.313
      7       Ti     1      12.000         13.153                        -1.153
      8       Ti     1      12.000         13.185                        -1.185
      9       H      2       1.000          0.547                         0.453
     10       H      2       1.000          0.542                         0.458
     11       H      2       1.000          0.548                         0.452
     12       H      2       1.000          0.540                         0.460
     13       H      2       1.000          0.540                         0.460
     14       H      2       1.000          0.542                         0.458
     15       H      2       1.000          0.540                         0.460
     16       H      2       1.000          0.541                         0.459
     17       H      2       1.000          0.538                         0.462
     18       H      2       1.000          0.545                         0.455
     19       H      2       1.000          0.546                         0.454
     20       H      2       1.000          0.544                         0.456
     21       H      2       1.000          0.413                         0.587
     22       H      2       1.000          0.412                         0.588
     23       H      2       1.000          0.533                         0.467
     24       H      2       1.000          0.543                         0.457
     25       H      2       1.000          0.543                         0.457
     26       H      2       1.000          0.542                         0.458
     27       H      2       1.000          0.539                         0.461
     28       H      2       1.000          0.538                         0.462
     29       H      2       1.000          0.462                         0.538
     30       H      2       1.000          0.476                         0.524
     31       H      2       1.000          0.417                         0.583
     32       H      2       1.000          0.417                         0.583
     33       H      2       1.000          0.477                         0.523
     34       H      2       1.000          0.463                         0.537
     35       H      2       1.000          0.474                         0.526
     36       H      2       1.000          0.462                         0.538
     37       H      2       1.000          0.476                         0.524
     38       H      2       1.000          0.463                         0.537
     39       H      2       1.000          0.546                         0.454
     40       H      2       1.000          0.544                         0.456
     41       H      2       1.000          0.546                         0.454
     42       H      2       1.000          0.546                         0.454
     43       C      3       4.000          3.464                         0.536
     44       C      3       4.000          3.449                         0.551
     45       C      3       4.000          3.464                         0.536
     46       C      3       4.000          3.450                         0.550
     47       C      3       4.000          4.020                        -0.020
     48       C      3       4.000          3.981                         0.019
     49       C      3       4.000          4.019                        -0.019
     50       C      3       4.000          3.985                         0.015
     51       C      3       4.000          3.853                         0.147
     52       C      3       4.000          4.410                        -0.410
     53       C      3       4.000          3.858                         0.142
     54       C      3       4.000          4.393                        -0.393
     55       C      3       4.000          4.415                        -0.415
     56       C      3       4.000          4.327                        -0.327
     57       C      3       4.000          4.370                        -0.370
     58       C      3       4.000          4.409                        -0.409
     59       C      3       4.000          3.993                         0.007
     60       C      3       4.000          4.316                        -0.316
     61       C      3       4.000          4.313                        -0.313
     62       C      3       4.000          3.991                         0.009
     63       C      3       4.000          3.969                         0.031
     64       C      3       4.000          4.005                        -0.005
     65       C      3       4.000          4.006                        -0.006
     66       C      3       4.000          3.966                         0.034
     67       C      3       4.000          3.457                         0.543
     68       C      3       4.000          3.451                         0.549
     69       C      3       4.000          3.453                         0.547
     70       C      3       4.000          3.465                         0.535
     71       C      3       4.000          3.466                         0.534
     72       C      3       4.000          3.450                         0.550
     73       C      3       4.000          4.370                        -0.370
     74       C      3       4.000          4.381                        -0.381
     75       C      3       4.000          4.392                        -0.392
     76       C      3       4.000          4.359                        -0.359
     77       C      3       4.000          4.377                        -0.377
     78       C      3       4.000          4.350                        -0.350
     79       C      3       4.000          4.344                        -0.344
     80       C      3       4.000          4.387                        -0.387
     81       C      3       4.000          4.373                        -0.373
     82       C      3       4.000          4.369                        -0.369
     83       C      3       4.000          4.369                        -0.369
     84       C      3       4.000          4.374                        -0.374
     85       C      3       4.000          3.846                         0.154
     86       C      3       4.000          4.375                        -0.375
     87       C      3       4.000          4.390                        -0.390
     88       C      3       4.000          3.841                         0.159
     89       N      4       5.000          5.859                        -0.859
     90       N      4       5.000          5.872                        -0.872
     91       N      4       5.000          5.892                        -0.892
     92       N      4       5.000          5.906                        -0.906
     93       O      5       6.000          6.157                        -0.157
     94       O      5       6.000          6.101                        -0.101
     95       O      5       6.000          6.168                        -0.168
     96       O      5       6.000          6.119                        -0.119
     97       O      5       6.000          6.107                        -0.107
     98       O      5       6.000          6.096                        -0.096
     99       O      5       6.000          6.100                        -0.100
    100       O      5       6.000          6.103                        -0.103
