143

Ti      -2.8683596624      2.1154984190     11.2651731741                 
Ti       7.8027001852      5.3832739627      1.8444188659                 
Ti       1.3526220015     -1.6734803798      9.4169916596                 
Ti       2.5116529475      7.5426182059      3.6484318681                 
Ti       1.4446180525      9.1874274868      1.7519521050                 
Ti       3.2594317236     -1.8642750725     11.3595015939                 
Ti      -1.8699068111      0.4159912746      9.3660320254                 
Ti       5.8159210415      5.6142235888      3.7032983638                 
H       -2.5036770380      6.0279670186     11.0483554664                 
H        8.7487386710      1.5073682506      2.1551716852                 
H       -6.8016015566      1.2219426436     10.9036442645                 
H       11.1141076655      7.5038713859      2.0290901823                 
H        4.3726996561     -5.8619347678     10.9625487246                 
H       -2.5890483714      8.4561992660      2.0957034834                 
H       -2.3272666991      0.3318858497     12.9841529405                 
H        5.9272717104      5.0774706484      0.1545832381                 
H        3.7614125017     -2.5066207004      5.8447304821                 
H        0.7455815753      9.3141856522      7.2794664029                 
H       -6.0599388140      3.6611978350      9.0374492338                 
H       10.6411938136      3.3933572038      4.1321878601                 
H       -3.7285340755      2.2987423679      5.6888755475                 
H       -1.7039834882     10.9034220605      4.1249116581                 
H        1.7333993922     12.3010046218      2.6095606639                 
H        8.6680082337     -0.5171821437      3.3557056753                 
H        4.6066152530      7.2974001117      2.2977721330                 
H        0.2154863421      0.1346130999     10.7191696022                 
H        7.4151790747      0.2187679618      9.7283868823                 
H        5.9554843113     -0.3024696835     10.4832764462                 
H        7.8284593693      4.6710198609      8.6324859872                 
H        7.2375713108      5.0114872062      7.0176280151                 
H        7.0980735965     -4.7498388690      9.5341712866                 
H        5.7839813853     -3.6950206906     10.0001890782                 
C        8.4221948016      4.6591850339      4.7036515836                 
C       -3.8533282266      2.3467095092      8.4238753109                 
C        3.9615119518     -2.5926267157      8.4765655012                 
C        0.5135183167      9.4433739343      4.6212666232                 
C        9.3442726684      4.0852320619      5.6930183940                 
C       -4.8118827430      2.9400718450      7.4528891044                 
C        4.9172219626     -3.1727325314      7.5233174951                 
C       -0.3926779207     10.0576086971      5.6268770628                 
C        9.1009181004      4.1497635036      7.1009044741                 
C       -4.5992083357      2.8293622445      6.0635147309                 
C        6.0749749045     -3.8937961258      7.9690536931                 
C       -1.5161128217     10.7925150308      5.1891119112                 
C       -0.1248110118      9.8941919571      6.9800933012                 
C        4.6573229860     -3.0476465171      6.1409702283                 
C       10.4989116534      3.4267260569      5.2100490184                 
C       -5.9326672146      3.5931630088      7.9586310255                 
C        8.7150353213      1.5882918862      0.0113272765                 
C        1.8390157687     13.1474448044      0.0886647815                 
C        6.6840803642      0.1953632169     12.9898296891                 
C       -6.7197535432      1.2718078098     13.0467282773                 
C        3.3504501304      5.2245090273      5.6055859782                 
C       -1.1449987883     -2.0334356336      7.5402035277                 
C        4.2159574565     -4.2016337744     13.1011752443                 
C        1.7960021696     11.7116183083      0.0496879376                 
C        5.4087835811     -0.4663416330     13.0430442903                 
C       -5.3326022360      1.7346886741     13.0639813976                 
C        8.7845272353      0.9194814460      1.2398385908                 
C       -2.5081226286      6.6153030081     11.9629937163                 
C       -4.3605480209      7.7305308352      1.1102435346                 
C       -7.3513641879      1.0220193645     11.8218485088                 
C        7.3616958857      0.4895806191     11.7533866592                 
C       -3.0891782663      8.2549915060      1.1524586161                 
C        4.4379809358     -6.3884711526     11.9106181725                 
C        8.8554352349     -0.4796167428      1.3188935417                 
N        8.9382448902     -1.0776614390      2.5558872031                 
N        6.7824601911      0.2881628504     10.5174024888                 
N        8.0011812381      4.7573414038      7.6390812125                 
N        6.4186515886     -4.0420063045      9.2843681301                 
O        7.2345455071      5.0226381514      5.0765339903                 
O       -3.0539444890      1.4236655800      8.0200133273                 
O        4.3452346180     -2.4563928338      9.6957029697                 
O        0.4260153079      9.8719326747      3.4226467331                 
O        1.3189707700      8.5131060110      5.0021069661                 
O        2.7767320510     -2.2646715898      8.0780656196                 
O        8.8242260622      4.7556770374      3.4897582246                 
O       -3.9037904893      2.7797888050      9.6244093010                 
O        6.1566650311      4.4091070956      2.5052422155                 
O       -1.3679406981      1.9937399301     10.1096467539                 
O        7.0177631861      6.7271635582      2.9531809396                 
O       -3.0562343854      0.2085101961     10.6096332648                 
O        1.6596144675     -2.8372235727     10.6743193556                 
O        2.9693970950      9.1218563492      2.9092746327                 
O        2.5316415509     -0.5433361577     10.2080131380                 
O        1.3224899569      7.3070290109      2.3988785644                 
O        4.5750876590      5.0876900938      5.2443192741                 
O       -1.8361671464     -1.0224913532      7.9235217123                 
O        4.0663713370     -3.6099488714     11.9620104457                 
O        1.7434950312     11.0063996035      1.1443564669                 
O        4.7709303249     -0.7955221781     11.9563205869                 
O       -0.4274905708      9.0940110076      1.0941310081                 
O        0.0289054576     -2.2879056460      7.9911576147                 
O        2.5742601208      6.1196021056      5.1176478089                 
O        9.1991786962      6.4527235133      1.0833150322                 
O       -4.7481440293      1.9890049354     11.9439838193                 
O        8.5001497254      3.6723260575      1.1132982284                 
O       -2.5429379887      3.8491317723     12.0151463853                 
O        4.2691439566      6.7355536240      3.0196631379                 
O       -0.1470283096     -0.4360779582     10.0169177875                 
O        6.7479555173      5.6001305076      0.0715952051                 
O       -2.2382943037      1.3022797914     13.0447879568     
H        5.7409145542      9.0693699735      3.8453350699                 
C        6.1613287174      9.7262427768      4.6051147659                 
H        4.4315148642     11.0106644050      4.6503452105                 
H        7.9990077367      8.6100043183      4.7445818584                 
C        5.4239805303     10.8275679291      5.0586646872                 
C        7.4412504694      9.4696413114      5.1126790151                 
C       12.9911106654     -2.6946051623      6.0173927877                 
C       -8.0188288955     10.3195709280      6.0733998773                 
H       12.4408813937     -1.8281982178      6.3784628377                 
H       -7.0248306495     10.1428065218      6.4782451314                 
C       -1.7300728649     -2.9447209062      6.5282083848                 
C        2.8136073331      4.3073812752      6.6395539400                 
H        0.8637697319      5.2270311717      6.6485213672                 
H        4.6569025972      3.2041839765      6.8268997522                 
C        1.4828215777      4.4425756107      7.0787481114                 
C        3.6325885254      3.2980288898      7.1811917907                 
C        0.9805575700      3.5786797567      8.0528938939                 
C        3.1251726964      2.4367956921      8.1545771773                 
H       -0.0452970312      3.6703727199      8.4060060078                 
H        3.7469048369      1.6526690445      8.5834011222                 
C        1.8020384712      2.5801314421      8.5908477577                 
H        1.4114396265      1.9115851535      9.3560026660  
H        4.4228542887      3.7484499405     10.4884943352                 
H        5.2470820702      3.8227950514     12.0703930790                 
H        5.5590691275      2.4651102416     10.9543810240                 
H        1.8523740557      4.0479022372     10.6059754984                 
H        0.1321435949      5.3855081123     12.3532341254                 
H        3.2304472757      1.6168297314     11.2433707888                 
H        4.0201845947      1.7521917549     12.8174033684                 
C        0.9252178835      4.6712618625     12.5385216247                 
C        3.6651621222      2.3301528885     11.9568187773                 
C        1.7653520761      4.0103793368     11.6837579952                 
C        4.7889051628      3.1516079571     11.3334383696                 
N        2.5715007684      3.1917174200     12.4563726492                 
H        5.6364964450     12.1009473954      2.7163176233                 
H        4.3469080760     12.8590406582      1.7375439141                 
H        4.1752828691     11.1586526150      2.2624399452                 
H        7.0076428687     10.0877788355      1.4820246783                 
C        4.8852011873     11.9301105166      1.9400845337                 
C        6.5504197992     10.5932525497      0.6398731321                 
N        5.5521544498     11.4941164745      0.7088987235                 
