139
Final Frame from Quantum Espresso Output
Ti -2.9611432554 2.1915785714 11.1531434070
Ti 7.8613874312 5.1753693683 1.8573738261
Ti 1.2282420362 -1.5863661003 9.2157245406
Ti 2.6420503693 7.3743476056 3.6612748671
Ti 1.6777118130 9.0355194502 1.7682855005
Ti 3.0391361811 -1.7710396794 11.2273130434
Ti -1.9883953298 0.5291290326 9.2329354588
Ti 5.9280031698 5.4427745383 3.7510489776
H 3.7158285004 1.6667188803 8.7291596665
H -6.9559582230 10.0852900919 6.4062225204
H 4.7198905898 11.0029937271 4.6364473546
H -2.1841841454 6.1230298630 10.9502866662
H 8.6042538697 1.3180015313 2.1330264419
H -6.8372617307 1.1749119868 10.8179683835
H 11.2143953554 7.2210868191 2.0641705518
H 4.4444557774 -5.7832281387 10.8741735965
H -2.4563364499 8.4705685987 2.0829923288
H 4.6759126535 3.1439388872 6.9311324455
H -0.0758460490 3.6514840150 8.3460475096
H 12.4076496694 -2.0003477134 6.3990116492
H -2.4358823123 0.4787743236 12.9627361816
H 5.9983925486 4.8944517589 0.0776945791
H 3.7231012821 -2.2747704157 5.8030351343
H 0.9472711332 9.2258708431 7.2270526473
H -6.0512602000 4.0005181174 8.9319662042
H 10.7207606394 3.1426635312 4.1338762305
H -3.7989543108 2.4675456512 5.5947663575
H -1.3970344722 10.9825434494 4.0648507229
H 1.8254716963 12.1570948100 2.6322173850
H 8.3933661245 -0.6408567392 3.3559900939
H 4.7540501960 7.1823585070 2.3585105706
H 0.1720529290 0.2594390035 10.4896472145
H 7.3851868313 -0.0052797969 9.6853724328
H 5.8057924696 -0.3483106775 10.3558296689
H 8.1447017837 4.8442082083 8.6466198048
H 7.5386732346 5.2267745297 7.0488390590
H 7.0717250868 -4.5751791281 9.4920564137
H 5.8446450453 -3.4173039340 9.9671404592
H 1.3670542409 1.9515458083 9.4258270970
H 0.8715698295 5.1244637838 6.5491679746
H 5.7659966339 8.8864200906 3.8881639407
H 7.9231926551 8.1413541880 4.8314762435
C 8.5681256420 4.5601670289 4.6975586807
C -3.9601479338 2.4982345910 8.3416348562
C 3.9129119901 -2.3659614666 8.4103906909
C 0.6746447439 9.3260312454 4.5726657863
C 9.4720897481 3.9620529236 5.6854904409
C -4.8513207286 3.1725911540 7.3598989240
C 4.8439511431 -3.0008487338 7.4853625652
C -0.1544615558 10.0347945978 5.5758937956
C 9.2506251437 4.0787118369 7.0948397314
C -4.6335824817 3.0543987403 5.9706817301
C 5.9548600594 -3.7964264716 7.9430930354
C -1.2000938934 10.8729250108 5.1288323172
C 0.1329348247 9.8859253832 6.9248968992
C 4.5722096196 -2.8869917009 6.1037243194
C 10.5727583650 3.2094778204 5.2114750714
C -5.9119144560 3.9227303337 7.8530784079
C 2.8300795025 4.2093242161 6.6317659407
C 1.7685518520 2.5780651486 8.6301773157
C 6.2558176647 9.4880968879 4.6505492936
C -1.9700245467 -2.8277409521 6.4664099404
C 4.1501106748 -5.5654675848 13.0182538056
C 2.1878998916 12.9695588181 0.0622204963
C 6.5188775020 0.1012803656 12.9352655381
C -6.8807793875 1.4059962070 12.9416417755
C 3.3992101237 5.0696954838 5.5767757950
C -1.3050901605 -1.9550250315 7.4512384995
C 4.0404708275 -4.0848000083 13.0051574862
C 2.0569466011 11.5281735628 0.0241102674
C 5.1560116143 -0.3938623155 12.9624754259
C -5.4622129985 1.8308392037 12.9652828817
C 1.4856722839 4.3599399432 7.0243534636
C 3.1024809888 2.4223529578 8.2399885526
C 5.6672042101 10.6857228189 5.0700232617
C -7.9263269167 10.3728068304 6.0096062935
C 8.7038774443 0.7182039812 1.2267989545
C -2.2968211773 6.7242613862 11.8518656399
C -4.2501784889 7.8346538851 1.0590305165
C -7.4556071865 1.1178256784 11.7145025643
C 7.4813553657 9.0738555860 5.1803069711
C 12.8519153156 -2.9307605566 6.0514731142
C 3.6362199645 3.2366150308 7.2459552696
C 0.9596806739 3.5423665338 8.0215870315
C 7.2608858457 0.2233149240 11.7139500051
C -2.9367969062 8.2389746846 1.1343319660
C 4.2952215280 -6.3006699373 11.8181691201
C 8.6405312899 -0.6897026785 1.3194396583
N 8.4578356574 -1.2425867568 2.5451463943
N 6.7585613205 -0.0286275167 10.4772459035
N 8.2415537380 4.8046190727 7.6415633698
N 6.3295666315 -3.9262547601 9.2372108476
O 7.4007795532 4.9860584113 5.0783678918
O -3.1664152867 1.5741250957 7.9328969969
O 4.2550515574 -2.2431288796 9.6406362829
O 0.6080341312 9.7354277918 3.3671043474
O 1.4155741388 8.3483994119 4.9499418544
O 2.7480858455 -1.9859266997 7.9819430220
O 8.9385111177 4.6078743967 3.4753866966
O -4.0441464103 2.8627598900 9.5604945728
O 6.2886663709 4.1981312977 2.5870563360
O -1.4989685250 2.1179873492 10.0205423890
O 7.0996764634 6.5329250502 2.8751744655
O -3.1409416149 0.3222635677 10.5187060658
O 1.5689474195 -2.8003446329 10.4285056449
O 3.1300647262 8.9802734709 2.9404543342
O 2.3123070986 -0.4442824187 10.1880043261
O 1.5225812703 7.1733403502 2.3389296965
O 4.6304348419 4.9411014190 5.2414776231
O -1.9455665490 -0.9240589090 7.8577301763
O 3.9648700041 -3.5037186772 11.8710498535
O 1.9581168838 10.8734681289 1.1310187917
O 4.5278761590 -0.6061992205 11.8609893273
O -0.2348029456 8.9224959914 1.0949270331
O -0.1256996271 -2.2333324677 7.8720140010
O 2.6307640701 5.9257919861 5.0196671951
O 9.2734569518 6.2901433699 1.0840315217
O -4.8770356554 2.0312570106 11.8547544689
O 8.6677691367 3.4578851691 1.1197512929
O -2.6607619134 3.9763802152 11.9009456544
O 4.4147657552 6.5980962217 3.0603032902
O -0.2449787127 -0.3010214828 9.8108482096
O 6.8751587170 5.3156639432 0.0438756645
O -2.3504168599 1.4502085782 12.9665887080
O 2.1674737925 6.5374373908 14.4042508128
F 2.9563359996 9.4281965359 13.6947665573
O 0.8555789779 8.0210145779 12.0396045310
F 4.8795658607 5.3996153360 15.1604452239
F 2.4643519466 10.6104929656 11.9114194232
S 2.9689857385 5.9115598748 13.3691209091
C 3.0588169170 9.4598023234 12.3487608190
F 5.0912970786 7.3654028654 14.2089000543
C 4.7513170033 6.0727305748 13.9857785321
O 2.8331296697 4.4860961194 13.1321180549
S 2.2206647822 7.9657869503 11.5407092111
N 3.0773732630 6.7000488189 11.9704555108
F 4.3725777222 9.5261944649 12.0244727616
F 5.6441271877 5.5477148516 13.1106176816
O 2.4266043862 8.2140560987 10.1195869727
