40
Wrapped structure real coordinates
N 3.601238 3.141761 11.920157
N 1.740017 3.270487 13.054666
C 4.888740 2.593345 11.433892
C 5.855568 3.628469 10.868926
C 6.428057 4.622037 11.889798
C 2.929544 2.646233 12.976198
C 2.814131 4.100361 11.306376
C 1.646095 4.182867 12.018076
C -8.463923 6.051319 11.192298
C 5.326211 10.043210 0.942339
H 5.342862 2.079600 12.289192
H 4.643160 1.831487 10.684772
H 5.397181 4.155053 10.017702
H 6.675969 3.031057 10.438348
H 5.628399 5.260579 12.291590
H -9.171344 4.622544 12.660585
H 7.913293 8.930631 0.546183
H 3.134994 4.619941 10.414635
H 0.761284 4.790718 11.875013
H -8.824568 6.616939 10.321463
H -7.611949 5.435017 10.867592
H -8.071391 6.781015 11.914695
H 4.907856 10.977059 1.330773
H 4.531713 9.457771 0.466217
H 5.763336 9.481339 1.771351
S 3.303325 3.351474 1.558159
S 4.730081 0.869403 1.862645
F 0.867284 2.258840 1.642104
F 1.092563 3.814401 0.108546
F -2.662438 -5.241081 12.880108
F -2.342873 12.878834 1.880885
F 3.084795 -0.582829 3.467485
F 2.448516 -0.484831 1.375500
O 4.139443 3.825213 0.452192
O 2.803331 4.316619 2.530182
O 5.806955 0.617893 2.813019
O 4.998382 0.796828 0.431993
N 3.819798 2.088251 2.379948
C 1.724544 2.776735 0.723713
C 3.540193 -0.549368 2.188048
