         874
  Built with Packmol                                             
  Ti          -2.868335        2.115442       11.265214
  Ti           7.802788        5.383210        1.844391
  Ti           1.352572       -1.673500        9.417113
  Ti           2.511792        7.542652        3.648414
  Ti           1.444672        9.187418        1.751989
  Ti           3.259458       -1.864257       11.359530
  Ti          -1.869782        0.416024        9.366140
  Ti           5.815984        5.614284        3.703281
  H            3.746896        1.652626        8.583439
  H           -7.024875       10.142785        6.478257
  H            4.431630       11.010612        4.650438
  H           -2.503694        6.028051       11.048460
  H            8.748737        1.507342        2.155250
  H           -6.801542        1.221893       10.903644
  H           11.114246        7.503838        2.029089
  H            4.372721       -5.862020       10.962653
  H           -2.589143        8.456181        2.095703
  H            4.656966        3.204147        6.826953
  H           -0.045224        3.670268        8.406030
  H           12.440918       -1.828167        6.378540
  H           -2.327232        0.331938       12.984230
  H            5.927385        5.077403        0.154584
  H            3.761426       -2.506617        5.844726
  H            0.745560        9.314262        7.279431
  H           -6.059913        3.661213        9.037490
  H           10.641247        3.393379        4.132134
  H           -3.728587        2.298708        5.688870
  H           -1.703972       10.903386        4.124923
  H            1.733452       12.300945        2.609537
  H            8.667985       -0.517063        3.355831
  H            4.606680        7.297451        2.297825
  H            0.215487        0.134620       10.719246
  H            7.415332        0.218685        9.728366
  H            5.955496       -0.302534       10.483299
  H            7.828656        4.670987        8.632537
  H            7.237651        5.011538        7.017709
  H            7.098177       -4.749977        9.534320
  H            5.784030       -3.695029       10.000157
  H            1.411485        1.911548        9.356085
  H            0.863759        5.227040        6.648574
  H            5.741023        9.069333        3.845371
  H            7.999135        8.609993        4.744623
  C            8.422325        4.659191        4.703706
  C           -3.853328        2.346718        8.423899
  C            3.961595       -2.592630        8.476524
  C            0.513540        9.443357        4.621320
  C            9.344336        4.085192        5.693105
  C           -4.811926        2.940026        7.452907
  C            4.917315       -3.172748        7.523270
  C           -0.392661       10.057561        5.626884
  C            9.101042        4.149763        7.100999
  C           -4.599256        2.829342        6.063538
  C            6.075072       -3.893771        7.969088
  C           -1.516055       10.792469        5.189090
  C           -0.124811        9.894234        6.980095
  C            4.657405       -3.047644        6.140915
  C           10.498947        3.426687        5.210054
  C           -5.932679        3.593124        7.958691
  C            2.813684        4.307411        6.639567
  C            1.802100        2.580168        8.590925
  C            6.161473        9.726276        4.605129
  C           -1.730084       -2.944720        6.528234
  C            8.715175        1.588330        0.011262
  C            1.839040       13.147429        0.088587
  C            6.684170        0.195343       12.990012
  C           -6.719779        1.271810       13.046845
  C            3.350517        5.224492        5.605606
  C           -1.145018       -2.033515        7.540248
  C            4.215985       -4.201651       13.101266
  C            1.796086       11.711651        0.049701
  C            5.408882       -0.466276       13.043122
  C           -5.332575        1.734605       13.064020
  C            1.482906        4.442604        7.078738
  C            3.125222        2.436827        8.154613
  C            5.424120       10.827594        5.058747
  C           -8.018869       10.319594        6.073436
  C            8.784652        0.919515        1.239780
  C           -2.508142        6.615249       11.963065
  C           -4.360552        7.730507        1.110303
  C           -7.351366        1.022025       11.821932
  C            7.441371        9.469644        5.112723
  C           12.991193       -2.694552        6.017481
  C            3.632637        3.298056        7.181208
  C            0.980621        3.578705        8.052889
  C            7.361766        0.489528       11.753548
  C           -3.089201        8.254946        1.152479
  C            4.438003       -6.388560       11.910676
  C            8.855538       -0.479663        1.318796
  N            8.938305       -1.077634        2.555968
  N            6.782516        0.288157       10.517426
  N            8.001283        4.757340        7.639127
  N            6.418775       -4.042078        9.284423
  O            7.234665        5.022637        5.076604
  O           -3.053924        1.423703        8.020113
  O            4.345224       -2.456407        9.695708
  O            0.426054        9.871897        3.422680
  O            1.318961        8.513079        5.002228
  O            2.776776       -2.264724        8.078087
  O            8.824398        4.755701        3.489805
  O           -3.903766        2.779752        9.624467
  O            6.156697        4.409127        2.505218
  O           -1.367975        1.993658       10.109628
  O            7.017801        6.727170        2.953185
  O           -3.056279        0.208461       10.609657
  O            1.659621       -2.837312       10.674383
  O            2.969458        9.121937        2.909279
  O            2.531624       -0.543378       10.208048
  O            1.322575        7.306972        2.398893
  O            4.575167        5.087631        5.244337
  O           -1.836144       -1.022528        7.923516
  O            4.066391       -3.610049       11.962095
  O            1.743514       11.006429        1.144350
  O            4.771026       -0.795498       11.956418
  O           -0.427504        9.094025        1.094098
  O            0.028867       -2.288059        7.991258
  O            2.574295        6.119616        5.117796
  O            9.199419        6.452785        1.083295
  O           -4.748114        1.988975       11.944029
  O            8.500254        3.672420        1.113292
  O           -2.542975        3.849240       12.015231
  O            4.269171        6.735574        3.019668
  O           -0.147093       -0.436062       10.017030
  O            6.748057        5.600086        0.071530
  O           -2.238358        1.302347       13.044892
  S           -1.378784        4.579311       17.923063
  S           -3.927586        5.814441       17.944538
  F           -2.232441        2.188066       17.103364
  F           -0.797087        2.125698       18.730536
  F           -2.854024        2.693863       19.118307
  F           -6.457905        5.225439       17.478264
  F           -5.197025        5.030039       15.724279
  F           -5.127750        3.522719       17.282451
  O           -1.056739        5.090666       19.228834
  O           -0.335742        4.461121       16.939092
  O           -4.168180        7.166477       17.512123
  O           -4.121559        5.484500       19.332332
  N           -2.648883        5.209908       17.236586
  C           -1.853953        2.798410       18.237601
  C           -5.242632        4.837534       17.049515
  S            9.836201        0.579845       11.636498
  S            9.468318       -1.532339        9.785623
  F           12.309723        1.207763       10.857974
  F           12.034221        1.122472       13.009403
  F           12.169534       -0.710934       11.858543
  F           10.786938       -2.796896        7.880633
  F           10.451189       -0.699628        7.441082
  F           11.967602       -1.276172        8.880804
  O            9.344034       -0.215933       12.729541
  O            9.550599        1.989767       11.610927
  O            8.232925       -1.784739        9.090662
  O            9.940487       -2.503801       10.737345
  N            9.588883       -0.009746       10.196612
  C           11.693894        0.538186       11.845238
  C           10.742209       -1.565367        8.421485
  S           24.351880        6.527931        2.609948
  S           21.630291        7.212498        2.226906
  F           25.348153        8.464638        1.068748
  F           26.259407        6.516721        0.773698
  F           24.289323        6.927561       -0.035092
  F           20.156812        8.958542        0.905149
  F           21.465481        9.878721        2.369773
  F           22.280126        9.142228        0.499307
  O           24.095833        5.134388        2.359527
  O           25.345265        6.894690        3.584000
  O           20.637948        7.172175        3.269259
  O           21.513099        6.298267        1.121056
  N           23.077524        7.428354        2.827457
  C           25.093794        7.147805        1.009433
  C           21.380485        8.896890        1.461933
  S           10.314794        6.209739       12.002288
  S           10.705705        9.008815       11.815829
  F           11.923261        5.840633       14.098781
  F           12.159611        4.379787       12.510736
  F           12.971059        6.377652       12.277814
  F           12.075803       10.936175       12.988417
  F           10.648676        9.975664       14.309474
  F           12.498442        8.966774       13.794483
  O           10.518474        6.029585       10.589386
  O            9.358354        5.379289       12.684693
  O            9.657443        9.947222       11.510202
  O           11.780647        8.837616       10.873678
  N           10.120023        7.698299       12.480105
  C           11.938441        5.683087       12.765658
  C           11.523685        9.754245       13.319160
  S          -15.160373       14.614958       16.702374
  S          -17.597513       15.650847       17.707205
  F          -16.125079       12.216052       16.044134
  F          -14.207211       12.170712       17.059785
  F          -16.021650       12.559122       18.182777
  F          -20.096299       14.899597       18.105377
  F          -19.526186       14.899132       16.012666
  F          -18.835547       13.315966       17.324655
  O          -14.425350       15.074797       17.850644
  O          -14.526410       14.631522       15.410895
  O          -18.043622       17.003054       17.494149
  O          -17.272912       15.229533       19.044959
  N          -16.621281       15.185483       16.553019
  C          -15.402803       12.788368       17.020371
  C          -19.091991       14.629375       17.251252
  S          -15.553723       16.155879       -0.754877
  S          -12.926328       15.288223       -0.149595
  F          -16.788898       13.982236        0.176956
  F          -17.523125       14.686097       -1.740675
  F          -15.634348       13.626372       -1.623756
  F          -11.678022       13.201403        0.876935
  F          -13.008499       14.179190        2.283430
  F          -13.823636       12.925451        0.712315
  O          -15.177373       16.552966       -2.085634
  O          -16.537808       16.928297       -0.044208
  O          -11.893976       16.151093        0.362827
  O          -12.767361       14.719286       -1.462416
  N          -14.362463       15.835022        0.224922
  C          -16.413876       14.513447       -0.997540
  C          -12.867306       13.819064        1.000557
  S            6.437606       -2.882928       16.762091
  S            8.207758       -1.103215       18.074181
  F            7.767706       -2.948246       14.450109
  F            5.616471       -2.739558       14.248969
  F            6.819792       -1.041277       14.858907
  F           10.409845        0.270312       17.593469
  F           10.693959       -1.875777       17.459145
  F            9.677561       -0.814918       15.863456
  O            5.282408       -2.137921       17.187198
  O            6.352318       -4.316068       16.667534
  O            8.593317       -1.227598       19.455754
  O            7.426136        0.036673       17.671464
  N            7.792921       -2.505298       17.471014
  C            6.681774       -2.365097       14.982045
  C            9.837944       -0.880035       17.192452
  S           -8.998477       -0.009235       -4.829501
  S           -7.211711        2.075627       -4.134362
  F           -7.230824       -1.991202       -4.572789
  F           -8.470360       -2.111047       -6.350712
  F           -6.839266       -0.684452       -6.258397
  F           -4.680252        2.425577       -3.473983
  F           -5.776737        1.214346       -2.047412
  F           -5.168955        0.365814       -3.948807
  O           -9.479010        0.708873       -5.979997
  O           -9.914064       -0.829238       -4.081571
  O           -7.574877        3.205985       -3.319948
  O           -6.867158        2.296495       -5.514564
  N           -8.129202        0.827152       -3.816153
  C           -7.807981       -1.262952       -5.541711
  C           -5.626045        1.475841       -3.352901
  S           -8.691405      -12.646370        1.096078
  S          -11.440170      -12.659624        0.413058
  F           -8.155738      -10.247522        0.058157
  F           -6.687799      -11.778981       -0.401854
  F           -8.598512      -11.763210       -1.428056
  F          -13.218437      -11.150117       -0.822257
  F          -12.393911      -10.219777        0.955126
  F          -11.212745      -10.323919       -0.861109
  O           -8.500253      -13.979123        0.588670
  O           -7.954123      -12.225529        2.257719
  O          -12.477827      -13.171592        1.269812
  O          -11.170505      -13.333945       -0.829934
  N          -10.189136      -12.184648        1.256296
  C           -8.004977      -11.545349       -0.250361
  C          -12.093990      -10.988303       -0.100717
  S          -11.871522      -10.904250        5.710680
  S           -9.707592       -9.163657        5.153776
  F          -11.577467      -10.878320        8.362387
  F          -11.924871      -12.844737        7.511308
  F           -9.979644      -11.905453        7.316371
  F           -7.812756       -7.832544        6.420499
  F           -9.813614       -7.182751        6.948515
  F           -9.036688       -9.048526        7.735903
  O          -11.450097      -11.842652        4.704679
  O          -13.278030      -10.705757        5.939674
  O           -9.739166       -8.142640        4.139183
  O           -8.802833      -10.272144        4.995267
  N          -11.164736       -9.496794        5.670967
  C          -11.295552      -11.670722        7.316017
  C           -9.068222       -8.256816        6.654979
  S           23.508283       -2.808132        9.110545
  S           21.746922       -1.535858        7.293590
  F           22.302070       -5.187264        9.051637
  F           22.850539       -4.501533       11.036776
  F           21.135673       -3.640462       10.025859
  F           19.580450       -2.063043        5.881030
  F           21.291414       -3.264486        5.303446
  F           20.216103       -3.717866        7.131796
  O           23.431619       -1.712891       10.040494
  O           24.751050       -3.518129        8.963786
  O           22.172405       -0.602943        6.282895
  O           20.913691       -1.063093        8.368148
  N           22.915286       -2.530438        7.677612
  C           22.375711       -4.104109        9.841333
  C           20.656042       -2.721543        6.350778
  S           14.591984       14.882763       -2.063852
  S           15.395953       17.197958       -0.644026
  F           12.261515       15.867871       -2.910708
  F           12.160748       13.837595       -2.149364
  F           12.331978       15.505779       -0.773861
  F           14.504014       19.609846       -0.048970
  F           14.793222       19.305826       -2.176972
  F           13.083120       18.421176       -1.178144
  O           14.929226       14.020568       -0.962434
  O           14.798059       14.415677       -3.409016
  O           16.746060       17.697539       -0.621622
  O           14.819857       16.699337        0.577427
  N           15.120079       16.363362       -1.958970
  C           12.731735       15.042350       -1.962196
  C           14.384239       18.714303       -1.046387
  S           13.207958       15.492821        8.788291
  S           11.085181       15.770760        6.933846
  F           12.411392       13.146322        9.777291
  F           13.038177       14.590472       11.271745
  F           11.110883       14.801076       10.299455
  F            8.903171       14.502278        6.161424
  F           10.721245       13.377590        5.795161
  F            9.927163       13.528949        7.807929
  O           13.046540       16.841754        9.262165
  O           14.529416       14.928514        8.714745
  O           11.245777       16.294257        5.602294
  O           10.299023       16.515449        7.882450
  N           12.434618       15.137323        7.462538
  C           12.385155       14.448424       10.103038
  C           10.114836       14.199250        6.662647
  S           18.433604       -6.480230       17.408903
  S           20.748527       -8.030112       17.920177
  F           19.638137       -4.106764       17.594506
  F           17.728654       -4.233196       18.619061
  F           19.488369       -5.160405       19.483845
  F           23.307769       -7.708192       18.480082
  F           22.752741       -6.925286       16.534969
  F           22.216972       -5.838503       18.334015
  O           17.649467       -7.237681       18.347855
  O           17.808689       -5.985659       16.210995
  O           21.057820       -9.260079       17.238716
  O           20.460116       -8.071100       19.329998
  N           19.830677       -7.100890       17.028081
  C           18.856386       -4.910526       18.332815
  C           22.340648       -7.062604       17.802530
  S           -4.278155      -11.147269       12.996878
  S           -2.235276      -11.991648       14.767772
  F           -4.201044       -8.571170       13.687139
  F           -6.199704       -9.398965       13.508430
  F           -4.980790       -9.868550       15.239876
  F           -0.632321      -11.001319       16.616187
  F           -0.287383      -10.162104       14.646110
  F           -2.013840       -9.539831       15.802326
  O           -5.145880      -12.224376       13.393273
  O           -4.291462      -10.703040       11.628453
  O           -1.233329      -12.968842       14.430035
  O           -3.196530      -12.308249       15.791594
  N           -2.780989      -11.265649       13.472836
  C           -4.945376       -9.664004       13.919414
  C           -1.238805      -10.587198       15.488417
  S          -16.789174       -9.363012       10.907795
  S          -14.416781       -8.087393       10.032038
  F          -16.025280       -9.664340       13.446369
  F          -16.966753      -11.414205       12.572629
  F          -14.924308      -10.905109       12.049751
  F          -12.068766       -7.331633       10.971454
  F          -13.735721       -6.318481       11.919741
  F          -13.284454       -8.377029       12.433014
  O          -16.784976      -10.266152        9.787726
  O          -18.046467       -8.887549       11.420874
  O          -14.392438       -6.988524        9.102110
  O          -13.837641       -9.344595        9.636443
  N          -15.794040       -8.145751       10.807597
  C          -16.127821      -10.391410       12.322481
  C          -13.325215       -7.494279       11.425401
  S           15.576568        9.956565        2.703995
  S           13.258919       10.638159        4.182620
  F           17.331122       10.853069        4.503026
  F           17.780476       11.402136        2.451581
  F           16.199501       12.424952        3.527932
  F           12.586544       11.782696        6.464021
  F           13.723544        9.954408        6.726814
  F           14.725850       11.774072        6.103181
  O           15.049468       10.540882        1.499432
  O           16.388969        8.772643        2.612151
  O           12.081869        9.812318        4.256188
  O           13.169063       11.918451        3.530520
  N           14.545442        9.769136        3.880305
  C           16.782152       11.236783        3.339556
  C           13.603819       11.053374        5.969629
  S          -15.602597       14.862029       -4.787344
  S          -17.426848       17.028465       -4.819980
  F          -13.417378       16.340952       -4.392006
  F          -13.200142       14.793070       -5.898223
  F          -14.306242       16.602576       -6.352532
  F          -17.434184       19.661538       -4.636343
  F          -16.716308       18.680882       -2.839837
  F          -15.442984       18.801286       -4.591653
  O          -16.174332       14.288278       -5.976530
  O          -15.107987       13.989791       -3.755519
  O          -18.732316       16.987915       -4.214192
  O          -17.329127       17.143042       -6.251685
  N          -16.440320       16.013749       -4.113685
  C          -14.049014       15.707921       -5.393293
  C          -16.705933       18.626493       -4.178614
  S           14.657450        4.824638        0.534867
  S           14.866253        7.638264        0.285241
  F           12.172991        4.641597       -0.420461
  F           12.545824        3.456644        1.359624
  F           12.294517        5.605086        1.518382
  F           13.417673        9.707958       -0.479503
  F           13.803619        8.295947       -2.080045
  F           12.337520        7.827804       -0.551613
  O           15.172884        4.848259        1.877999
  O           14.989331        3.719498       -0.324565
  O           16.058466        8.319555       -0.147589
  O           14.406376        7.833645        1.635351
  N           14.816911        6.162496       -0.281690
  C           12.811222        4.632738        0.760577
  C           13.529526        8.399215       -0.772529
  S            2.387906      -11.261818        9.617123
  S           -0.054932      -12.128522       10.758949
  F            3.164829      -13.665457        8.758286
  F            4.722256      -12.506343        9.729212
  F            3.179883      -13.462394       10.917158
  F           -1.430083      -14.350233       11.132857
  F           -1.153958      -13.857473        9.038721
  F            0.494005      -14.678171       10.185623
  O            2.731701      -10.501008       10.788962
  O            2.761025      -10.760810        8.321023
  O           -1.285994      -11.386129       10.680155
  O            0.563906      -12.312128       12.045723
  N            0.900299      -11.776001        9.548578
  C            3.413175      -12.818075        9.769491
  C           -0.557852      -13.849332       10.238713
  S           -6.050538        5.539578       -2.630521
  S           -4.533559        4.173387       -0.667183
  F           -3.964932        6.625231       -3.891591
  F           -5.621782        7.985324       -3.549810
  F           -4.309178        7.439769       -1.911638
  F           -2.021304        3.846506        0.073472
  F           -2.432024        3.087406       -1.916387
  F           -2.256998        5.223977       -1.586025
  O           -6.959258        6.063724       -1.645771
  O           -6.554325        5.181340       -3.929739
  O           -4.839738        2.848377       -0.194452
  O           -4.644120        5.279601        0.247434
  N           -5.087468        4.396868       -2.131757
  C           -4.914282        6.975453       -3.009351
  C           -2.710812        4.078444       -1.058768
  S           -8.522753       10.867335       10.218764
  S           -8.163501       13.402884        9.008669
  F           -9.113399        9.562926        7.967465
  F          -10.400073        9.088855        9.650185
  F          -10.644535       10.965945        8.591443
  F           -8.307675       14.541647        6.631847
  F           -6.781012       13.005728        6.753163
  F           -8.872490       12.446962        6.618211
  O           -9.351711       11.417319       11.258273
  O           -7.638055        9.776351       10.530479
  O           -7.132005       14.333687        9.386147
  O           -9.538640       13.756843        9.245656
  N           -7.738611       11.916552        9.343367
  C           -9.739776       10.086705        9.033099
  C           -8.018578       13.333215        7.148855
  S            2.280268       -5.315314        1.281528
  S            0.737884       -7.408540        2.404851
  F            2.397529       -6.341877       -1.178372
  F            4.281916       -5.562999       -0.433889
  F            3.530377       -7.463916        0.291279
  F           -0.345218       -9.712710        1.708762
  F           -1.164726       -8.020890        0.626813
  F            0.800412       -8.784595        0.117209
  O            3.211267       -5.335692        2.378369
  O            1.954865       -4.058756        0.660823
  O           -0.324054       -7.202489        3.354957
  O            1.921885       -8.109510        2.828219
  N            0.948500       -6.127980        1.500670
  C            3.167950       -6.233354       -0.084324
  C           -0.036391       -8.535630        1.134053
  S          -13.243372       -4.295351        6.343077
  S          -15.052762       -6.201507        5.287106
  F          -14.932137       -2.231252        6.263943
  F          -12.932115       -1.790039        5.544871
  F          -14.305849       -2.922963        4.306524
  F          -17.525625       -6.345660        4.375506
  F          -17.416320       -5.774669        6.465120
  F          -16.925239       -4.333322        4.920430
  O          -12.193338       -4.714513        5.453153
  O          -12.905857       -3.871802        7.676041
  O          -15.151664       -7.559598        5.754738
  O          -14.587786       -5.961163        3.946029
  N          -14.494990       -5.249074        6.420022
  C          -13.898898       -2.726754        5.564541
  C          -16.827598       -5.623182        5.271032
  S           12.613778       15.386003       16.211543
  S            9.879382       14.652753       16.123085
  F           13.574540       12.898474       16.123068
  F           14.535271       14.186445       17.582501
  F           12.562125       13.378291       17.979672
  F            8.374137       12.486039       16.042866
  F            9.648530       12.707064       14.301735
  F           10.495443       12.055286       16.189230
  O           12.393731       16.294470       17.305390
  O           13.590304       15.718925       15.208716
  O            8.880220       15.368173       15.372939
  O            9.793133       14.641904       17.560061
  N           11.316198       14.854494       15.493324
  C           13.352820       13.871257       17.021289
  C            9.594570       12.874971       15.629999
  S           16.754340       18.292826        5.787559
  S           14.415457       16.802673        5.211821
  F           18.344685       16.184195        6.165939
  F           18.560796       17.755930        7.647414
  F           16.842692       16.433670        7.709950
  F           13.611158       14.293808        5.051988
  F           15.142457       14.795209        3.600029
  F           15.677678       14.496657        5.680682
  O           16.052500       19.146663        6.708762
  O           17.807599       18.847974        4.979747
  O           13.459910       17.167946        4.198720
  O           14.008267       16.830091        6.592365
  N           15.849047       17.380601        4.876325
  C           17.668769       17.090585        6.889723
  C           14.742127       14.998222        4.862531
  S            3.229149       20.146697        4.082887
  S            0.539167       19.260022        4.068613
  F            4.003493       18.661017        6.159384
  F            4.701608       20.715776        6.208590
  F            2.636743       20.258756        6.689869
  F           -1.061512       17.652623        5.418037
  F            0.584312       16.614112        4.460319
  F            0.935868       17.779747        6.255427
  O            2.834761       21.526632        3.980553
  O            4.427555       19.708445        3.418162
  O           -0.211522       18.992249        2.869599
  O            0.131422       20.351832        4.913690
  N            2.091502       19.089575        3.817733
  C            3.656105       19.929562        5.890341
  C            0.245265       17.737247        5.107622
  S           18.612507       10.840282       16.057756
  S           17.841343       13.269592       14.822377
  F           16.267750        9.607307       15.740614
  F           17.156738        9.365742       17.706108
  F           16.209990       11.240766       17.165628
  F           15.724998       14.378580       13.700735
  F           16.436585       12.626522       12.638473
  F           15.338912       12.396963       14.495117
  O           19.193933       11.528872       17.179371
  O           19.228381        9.630388       15.581357
  O           18.696512       14.035010       13.953072
  O           17.450344       13.836408       16.086614
  N           18.247345       11.740907       14.817760
  C           16.962572       10.238997       16.700018
  C           16.247572       13.148393       13.858028
  S          -11.069562       20.197822       13.584652
  S          -13.420429       19.458333       12.188595
  F          -10.075611       21.752142       11.657260
  F           -8.630260       20.420752       12.579313
  F          -10.076194       19.640685       11.163357
  F          -14.584361       19.846477        9.851619
  F          -14.357892       21.667879       11.007330
  F          -12.639618       20.794632       10.012502
  O          -10.795661       18.836133       13.960172
  O          -10.746108       21.257337       14.502753
  O          -14.714803       19.332147       12.806287
  O          -12.785425       18.279328       11.660227
  N          -12.503530       20.467364       12.990398
  C           -9.904968       20.517967       12.157223
  C          -13.763326       20.511006       10.685577
  S           13.590776       -5.564506        8.580015
  S           15.439129       -4.442995        6.750205
  F           15.397344       -6.247916       10.420655
  F           13.909527       -7.772966       10.005393
  F           15.521478       -7.417044        8.598590
  F           18.036711       -4.052009        6.492238
  F           17.176115       -2.995128        8.179497
  F           17.504404       -5.136086        8.294552
  O           12.937794       -6.320998        7.544849
  O           12.804548       -5.027918        9.658914
  O           15.188890       -3.247990        5.987176
  O           15.573222       -5.695889        6.053978
  N           14.591819       -4.452895        8.085760
  C           14.675588       -6.819135        9.443391
  C           17.129138       -4.138356        7.482207
  S          -17.643626       10.834879        6.915851
  S          -16.718859        8.210004        7.442385
  F          -19.397637       10.922819        8.924433
  F          -20.146496       11.690183        7.037058
  F          -19.952878        9.551188        7.339338
  F          -17.159028        6.213885        9.112298
  F          -16.419322        8.001750       10.092522
  F          -18.481002        7.905390        9.425514
  O          -17.800526       10.559482        5.512365
  O          -17.216720       12.144886        7.330260
  O          -15.341035        7.807065        7.332327
  O          -17.682316        7.644041        6.534700
  N          -16.836487        9.759556        7.736986
  C          -19.382547       10.732618        7.595575
  C          -17.223821        7.558118        9.117145
  S           16.897893       -5.069948       -1.652180
  S           19.317324       -6.128830       -2.675664
  F           16.369006       -7.109468       -0.015316
  F           14.664449       -6.403839       -1.159167
  F           16.191961       -7.608533       -2.118119
  F           20.831471       -8.279250       -2.452269
  F           20.660736       -7.157633       -0.603678
  F           19.007137       -8.386011       -1.282947
  O           16.417687       -4.742679       -2.968437
  O           16.575929       -4.200749       -0.551755
  O           20.489857       -5.337655       -2.944139
  O           18.628698       -6.746020       -3.778989
  N           18.421990       -5.457609       -1.557820
  C           15.987947       -6.643993       -1.215480
  C           19.985792       -7.564488       -1.687333
  S           -4.532315       10.902160       -3.617233
  S           -1.722164       10.855269       -3.266158
  F           -4.715756       13.526218       -4.063730
  F           -6.215081       12.733522       -2.708932
  F           -4.177452       13.022721       -2.024390
  F            0.334232       12.509711       -3.236044
  F           -0.670067       12.428462       -5.156785
  F           -1.571535       13.510450       -3.507129
  O           -4.750403       10.109151       -2.436637
  O           -5.399044       10.724271       -4.751798
  O           -0.867712        9.810855       -3.768135
  O           -1.855828       11.018491       -1.842097
  N           -3.043484       10.972374       -4.127633
  C           -4.920944       12.647351       -3.069871
  C           -0.868924       12.416307       -3.831758
  S           15.295167        6.371935       17.890525
  S           15.032803        3.908286       16.517936
  F           17.636614        7.049788       16.805708
  F           17.506857        7.371869       18.948428
  F           17.758987        5.365016       18.165398
  F           16.353313        2.411396       14.790967
  F           15.775174        4.340043       13.984404
  F           17.430424        4.200462       15.379171
  O           14.957601        5.769935       19.153014
  O           14.863977        7.717089       17.617142
  O           13.789086        3.412904       15.988186
  O           15.661819        3.192671       17.597145
  N           15.020487        5.486855       16.616461
  C           17.156589        6.538760       17.950563
  C           16.215219        3.717154       15.086111
  S            7.330760      -11.998045        7.114070
  S            8.707626      -11.624364        9.560906
  F            6.192880      -14.316638        7.783435
  F            7.041941      -14.270500        5.786240
  F            8.340870      -14.443272        7.514562
  F            9.081049      -12.844493       11.871466
  F            7.013906      -12.288214       11.522265
  F            7.870030      -13.987261       10.480631
  O            8.504252      -11.689624        6.340749
  O            6.040563      -11.592278        6.623308
  O            8.847230      -10.350485       10.217117
  O            9.885118      -12.272253        9.044948
  N            7.415206      -11.656133        8.649655
  C            7.226724      -13.864103        7.056354
  C            8.123585      -12.750485       10.930398
  S            0.941801       15.888740        8.977139
  S           -1.814020       16.439971        8.625004
  F            0.717469       13.233884        8.835360
  F            1.998628       13.947926       10.435546
  F           -0.157282       14.090038       10.625332
  F           -4.101422       15.162212        8.305681
  F           -2.696429       14.817678        6.689589
  F           -2.409575       13.836980        8.602873
  O            1.037232       16.788215       10.096099
  O            2.057885       15.767616        8.077257
  O           -2.319725       17.531835        7.834457
  O           -2.035766       16.451685       10.047379
  N           -0.380614       15.993504        8.127257
  C            0.858671       14.194059        9.762933
  C           -2.800326       14.976741        8.015972
  S           11.173777       -6.289899       -3.420284
  S           11.869039       -8.737456       -4.664662
  F            8.946108       -7.188288       -2.258786
  F            8.748593       -5.247990       -3.211705
  F            8.810088       -7.049116       -4.418490
  F           10.955128      -11.200352       -4.921100
  F           11.440029      -10.676947       -2.872836
  F            9.632389       -9.904997       -3.790027
  O           11.394784       -5.545432       -4.631547
  O           11.500015       -5.685550       -2.155992
  O           13.217142       -9.233065       -4.763961
  O           11.174070       -8.369472       -5.870508
  N           11.708073       -7.771986       -3.422207
  C            9.314376       -6.464117       -3.327535
  C           10.918829      -10.206710       -4.014158
  S          -10.059376        0.553995       -0.701645
  S          -10.063026        3.372965       -0.426338
  F          -12.712101        0.268105       -0.698240
  F          -11.647694       -1.163963        0.537899
  F          -11.897187        0.881241        1.215440
  F          -11.767367        5.371490       -0.165639
  F          -11.968429        4.316238       -2.049911
  F          -12.725068        3.425605       -0.222624
  O           -9.073048        0.396938        0.334078
  O          -10.039615       -0.338110       -1.830299
  O           -9.150495        4.248047       -1.115097
  O           -9.981573        3.274423        1.007577
  N          -10.270925        2.024396       -1.226261
  C          -11.672768        0.121555        0.138766
  C          -11.728158        4.155754       -0.741514
  S          -14.066314       -7.653830       -1.119798
  S          -15.585567       -9.499655        0.399149
  F          -13.293776       -6.156438        0.948944
  F          -13.958680       -5.029765       -0.783203
  F          -15.410023       -6.002947        0.501586
  F          -16.304854       -9.944526        2.899462
  F          -14.161650      -10.070353        2.590741
  F          -15.136531       -8.133632        2.649280
  O          -15.121539       -7.491753       -2.084404
  O          -12.698188       -7.614105       -1.563369
  O          -15.616439      -10.916247        0.143839
  O          -16.788341       -8.732830        0.204797
  N          -14.235585       -8.857831       -0.117908
  C          -14.196518       -6.129768       -0.044340
  C          -15.267348       -9.401803        2.235973
  S          -16.241476       15.361652        4.546693
  S          -14.207436       13.577828        5.385176
  F          -14.801657       17.588329        4.842530
  F          -16.827714       17.713963        5.611379
  F          -15.312887       16.623367        6.715944
  F          -11.720453       13.626645        6.268002
  F          -11.927913       14.400712        4.252501
  F          -12.557983       15.601799        5.945166
  O          -17.221868       14.730307        5.389585
  O          -16.646632       15.882761        3.268257
  O          -13.959543       12.298261        4.773516
  O          -14.675921       13.617791        6.745831
  N          -14.889347       14.574129        4.363355
  C          -15.759540       16.903897        5.487727
  C          -12.511339       14.354189        5.457839
  S           22.811389        2.842326       14.931341
  S           21.926662        5.485470       14.427907
  F           20.429722        1.882165       15.655525
  F           22.074931        1.276613       16.935530
  F           21.273553        3.287183       17.075407
  F           19.720961        6.930462       14.545081
  F           19.599006        5.297333       13.122941
  F           19.455270        4.895780       15.249630
  O           23.936911        3.304374       15.699419
  O           22.954238        1.665742       14.115652
  O           22.389861        6.291398       13.328454
  O           22.247621        5.892836       15.770849
  N           22.055129        3.944132       14.096985
  C           21.571796        2.301930       16.222739
  C           20.069828        5.649072       14.327098
  S          -12.259635       -3.899766       -5.534450
  S          -11.114061       -5.305069       -3.358402
  F          -13.505449       -2.060731       -4.056415
  F          -14.705060       -2.892778       -5.662794
  F          -14.344996       -4.050849       -3.864631
  F          -11.061480       -5.241531       -0.720212
  F          -10.201996       -3.472986       -1.635635
  F          -12.354891       -3.733422       -1.591764
  O          -12.722545       -5.115218       -6.149775
  O          -11.811777       -2.817114       -6.369550
  O           -9.781097       -5.849136       -3.366540
  O          -12.232662       -6.209374       -3.299902
  N          -11.234495       -4.080187       -4.351829
  C          -13.788069       -3.191065       -4.723302
  C          -11.187559       -4.374533       -1.741781
  S           -4.128149       -1.627709       -0.917400
  S           -2.450955       -0.744969       -3.022202
  F           -2.885229       -3.955862       -0.525552
  F           -5.052181       -4.081141       -0.546677
  F           -3.960050       -3.845089       -2.405627
  F           -0.380064       -1.573811       -4.433328
  F            0.062024       -1.338522       -2.322958
  F           -1.092054       -3.043629       -3.005177
  O           -5.320042       -1.283661       -1.646273
  O           -4.107125       -1.461357        0.511582
  O           -2.005106        0.615247       -3.176795
  O           -3.332094       -1.303712       -4.014099
  N           -2.779866       -1.067195       -1.509018
  C           -3.991699       -3.481563       -1.119719
  C           -0.877077       -1.734161       -3.192985
  S            7.248349       16.117892       -1.241377
  S            8.764184       18.037623        0.186656
  F            8.432436       13.976913       -0.177027
  F            8.144805       13.875073       -2.326147
  F            9.717271       15.118903       -1.498862
  F           10.730261       18.153308        1.943929
  F            8.956980       17.165531        2.708283
  F           10.257351       16.131976        1.313467
  O            7.445926       16.806232       -2.489329
  O            5.995666       15.453578       -0.997300
  O            8.214200       19.252173        0.730031
  O            9.729440       18.127883       -0.877577
  N            7.652916       16.920081        0.052793
  C            8.462916       14.697833       -1.309111
  C            9.722653       17.322103        1.619880
  S           15.330024      -11.938005        8.402346
  S           16.695008      -10.881776        6.156549
  F           13.424511      -13.184787        7.011934
  F           12.708205      -12.085636        8.741267
  F           13.284245      -11.022039        6.940961
  F           16.505374      -10.825383        3.524495
  F           16.798031      -12.822548        4.318314
  F           14.859557      -11.863575        4.483846
  O           15.351632      -10.670692        9.083290
  O           15.458337      -13.148660        9.169126
  O           18.128960      -10.809810        6.049439
  O           15.941429       -9.656946        6.222626
  N           16.255268      -12.046745        7.131852
  C           13.591286      -12.059875        7.725394
  C           16.182059      -11.652611        4.535606
  S           17.998581        0.631862       18.052139
  S           15.614799       -0.849488       18.433701
  F           18.880572       -0.786486       15.971497
  F           20.391728       -0.335926       17.463215
  F           18.912181       -1.874737       17.846837
  F           14.353674       -2.936254       17.422849
  F           14.579931       -1.306563       16.009563
  F           16.279663       -2.562951       16.496501
  O           18.319396        0.585507       19.453982
  O           18.331077        1.809235       17.294947
  O           14.348315       -0.257728       18.778241
  O           16.257514       -1.717299       19.385687
  N           16.536929        0.184529       17.670665
  C           19.099893       -0.673627       17.291129
  C           15.189582       -1.969197       17.001848
  S           -5.471687       15.730780       -2.308886
  S           -8.058516       14.642068       -1.927543
  F           -5.305115       16.902988        0.082112
  F           -4.637287       18.134386       -1.576045
  F           -6.757137       17.820723       -1.241362
  F           -9.976294       14.587381       -0.114815
  F           -8.135786       13.658400        0.558969
  F           -8.285332       15.819927        0.458237
  O           -5.815965       16.241379       -3.609268
  O           -4.138923       15.240278       -2.078124
  O           -8.452117       13.331697       -2.375733
  O           -8.677410       15.795615       -2.526507
  N           -6.497862       14.713756       -1.680648
  C           -5.558941       17.230060       -1.194941
  C           -8.634125       14.678880       -0.152133
  S          -17.323931       -4.351196       11.213799
  S          -18.518579       -2.175478        9.849442
  F          -18.327502       -6.255973        9.637930
  F          -18.442206       -6.687729       11.762136
  F          -19.814430       -5.266233       10.867421
  F          -20.125300       -1.713256        7.806981
  F          -18.258401       -2.654987        7.230531
  F          -19.810462       -3.824725        8.193615
  O          -17.736336       -3.847174       12.496810
  O          -16.059027       -5.027210       11.099230
  O          -17.857697       -0.919582        9.606891
  O          -19.661620       -2.200902       10.724239
  N          -17.469824       -3.348939       10.007046
  C          -18.553811       -5.710050       10.843343
  C          -19.208638       -2.627374        8.174817
  S           18.941138        3.362032        7.970193
  S           19.376054        5.723203        6.467489
  F           17.997865        4.583942       10.146397
  F           19.434793        3.007104       10.547194
  F           20.110509        4.927248        9.798451
  F           19.150100        8.341328        6.714905
  F           17.251701        7.301853        6.856467
  F           18.638215        7.258587        8.523926
  O           20.244340        2.846446        7.644509
  O           17.836583        2.448619        8.095637
  O           19.107196        5.838586        5.057782
  O           20.738467        5.812183        6.923965
  N           18.470100        4.608681        7.129928
  C           19.134557        4.018136        9.710436
  C           18.548451        7.233906        7.186941
  S           20.924876       -6.153409       13.677832
  S           19.823232       -3.650901       14.416909
  F           19.306325       -6.569462       11.597956
  F           19.595448       -8.298836       12.877603
  F           18.305685       -6.677214       13.518711
  F           17.900856       -1.997921       13.682758
  F           19.418847       -2.275218       12.158528
  F           17.950614       -3.829934       12.521653
  O           20.891980       -6.632839       15.034039
  O           22.008193       -6.551973       12.818952
  O           20.606856       -2.530599       14.868269
  O           18.912460       -4.277541       15.339013
  N           20.678909       -4.608253       13.493311
  C           19.442064       -6.961316       12.874785
  C           18.717404       -2.902840       13.112183
