         874
  Built with Packmol                                             
  Ti          -2.868335        2.115442       11.265214
  Ti           7.802788        5.383210        1.844391
  Ti           1.352572       -1.673500        9.417113
  Ti           2.511792        7.542652        3.648414
  Ti           1.444672        9.187418        1.751989
  Ti           3.259458       -1.864257       11.359530
  Ti          -1.869782        0.416024        9.366140
  Ti           5.815984        5.614284        3.703281
  H            3.746896        1.652626        8.583439
  H           -7.024875       10.142785        6.478257
  H            4.431630       11.010612        4.650438
  H           -2.503694        6.028051       11.048460
  H            8.748737        1.507342        2.155250
  H           -6.801542        1.221893       10.903644
  H           11.114246        7.503838        2.029089
  H            4.372721       -5.862020       10.962653
  H           -2.589143        8.456181        2.095703
  H            4.656966        3.204147        6.826953
  H           -0.045224        3.670268        8.406030
  H           12.440918       -1.828167        6.378540
  H           -2.327232        0.331938       12.984230
  H            5.927385        5.077403        0.154584
  H            3.761426       -2.506617        5.844726
  H            0.745560        9.314262        7.279431
  H           -6.059913        3.661213        9.037490
  H           10.641247        3.393379        4.132134
  H           -3.728587        2.298708        5.688870
  H           -1.703972       10.903386        4.124923
  H            1.733452       12.300945        2.609537
  H            8.667985       -0.517063        3.355831
  H            4.606680        7.297451        2.297825
  H            0.215487        0.134620       10.719246
  H            7.415332        0.218685        9.728366
  H            5.955496       -0.302534       10.483299
  H            7.828656        4.670987        8.632537
  H            7.237651        5.011538        7.017709
  H            7.098177       -4.749977        9.534320
  H            5.784030       -3.695029       10.000157
  H            1.411485        1.911548        9.356085
  H            0.863759        5.227040        6.648574
  H            5.741023        9.069333        3.845371
  H            7.999135        8.609993        4.744623
  C            8.422325        4.659191        4.703706
  C           -3.853328        2.346718        8.423899
  C            3.961595       -2.592630        8.476524
  C            0.513540        9.443357        4.621320
  C            9.344336        4.085192        5.693105
  C           -4.811926        2.940026        7.452907
  C            4.917315       -3.172748        7.523270
  C           -0.392661       10.057561        5.626884
  C            9.101042        4.149763        7.100999
  C           -4.599256        2.829342        6.063538
  C            6.075072       -3.893771        7.969088
  C           -1.516055       10.792469        5.189090
  C           -0.124811        9.894234        6.980095
  C            4.657405       -3.047644        6.140915
  C           10.498947        3.426687        5.210054
  C           -5.932679        3.593124        7.958691
  C            2.813684        4.307411        6.639567
  C            1.802100        2.580168        8.590925
  C            6.161473        9.726276        4.605129
  C           -1.730084       -2.944720        6.528234
  C            8.715175        1.588330        0.011262
  C            1.839040       13.147429        0.088587
  C            6.684170        0.195343       12.990012
  C           -6.719779        1.271810       13.046845
  C            3.350517        5.224492        5.605606
  C           -1.145018       -2.033515        7.540248
  C            4.215985       -4.201651       13.101266
  C            1.796086       11.711651        0.049701
  C            5.408882       -0.466276       13.043122
  C           -5.332575        1.734605       13.064020
  C            1.482906        4.442604        7.078738
  C            3.125222        2.436827        8.154613
  C            5.424120       10.827594        5.058747
  C           -8.018869       10.319594        6.073436
  C            8.784652        0.919515        1.239780
  C           -2.508142        6.615249       11.963065
  C           -4.360552        7.730507        1.110303
  C           -7.351366        1.022025       11.821932
  C            7.441371        9.469644        5.112723
  C           12.991193       -2.694552        6.017481
  C            3.632637        3.298056        7.181208
  C            0.980621        3.578705        8.052889
  C            7.361766        0.489528       11.753548
  C           -3.089201        8.254946        1.152479
  C            4.438003       -6.388560       11.910676
  C            8.855538       -0.479663        1.318796
  N            8.938305       -1.077634        2.555968
  N            6.782516        0.288157       10.517426
  N            8.001283        4.757340        7.639127
  N            6.418775       -4.042078        9.284423
  O            7.234665        5.022637        5.076604
  O           -3.053924        1.423703        8.020113
  O            4.345224       -2.456407        9.695708
  O            0.426054        9.871897        3.422680
  O            1.318961        8.513079        5.002228
  O            2.776776       -2.264724        8.078087
  O            8.824398        4.755701        3.489805
  O           -3.903766        2.779752        9.624467
  O            6.156697        4.409127        2.505218
  O           -1.367975        1.993658       10.109628
  O            7.017801        6.727170        2.953185
  O           -3.056279        0.208461       10.609657
  O            1.659621       -2.837312       10.674383
  O            2.969458        9.121937        2.909279
  O            2.531624       -0.543378       10.208048
  O            1.322575        7.306972        2.398893
  O            4.575167        5.087631        5.244337
  O           -1.836144       -1.022528        7.923516
  O            4.066391       -3.610049       11.962095
  O            1.743514       11.006429        1.144350
  O            4.771026       -0.795498       11.956418
  O           -0.427504        9.094025        1.094098
  O            0.028867       -2.288059        7.991258
  O            2.574295        6.119616        5.117796
  O            9.199419        6.452785        1.083295
  O           -4.748114        1.988975       11.944029
  O            8.500254        3.672420        1.113292
  O           -2.542975        3.849240       12.015231
  O            4.269171        6.735574        3.019668
  O           -0.147093       -0.436062       10.017030
  O            6.748057        5.600086        0.071530
  O           -2.238358        1.302347       13.044892
  S           23.241507       -0.672315        3.230512
  S           20.841878       -2.099448        2.753569
  F           22.095871        1.722665        3.495620
  F           23.888945        1.709541        2.272291
  F           22.024817        0.939278        1.474867
  F           18.250294       -1.662529        2.509350
  F           19.019793       -1.166097        4.475537
  F           19.405559        0.151311        2.796154
  O           23.905059       -1.304374        2.121263
  O           23.997335       -0.358764        4.413944
  O           20.565550       -3.407067        3.288960
  O           20.986802       -1.948874        1.329215
  N           21.871507       -1.317684        3.664857
  C           22.775691        1.016932        2.577986
  C           19.299047       -1.132611        3.165467
  S           19.203702        9.403968       10.312589
  S           21.047378       11.271029       11.379053
  F           17.114217       10.214362       11.760347
  F           17.353982        8.059912       11.647747
  F           18.656320        9.232001       12.926140
  F           21.147710       13.209597       13.167554
  F           19.780053       13.621726       11.535338
  F           19.222817       12.212015       13.086761
  O           20.125299        8.311820       10.480230
  O           18.322795        9.410218        9.175018
  O           22.047026       11.949234       10.595720
  O           21.472373       10.337085       12.388798
  N           19.814870       10.845950       10.483526
  C           18.021276        9.224714       11.749969
  C           20.243269       12.655164       12.339438
  S          -11.347453      -11.954215        8.841202
  S          -14.069443      -11.933932        9.623992
  F          -11.156426      -14.600348        8.558045
  F           -9.489928      -13.680983        9.601775
  F          -11.387303      -13.956486       10.615793
  F          -16.045585      -13.619751       10.092737
  F          -15.353795      -13.663031        8.037496
  F          -14.175533      -14.602040        9.597839
  O          -10.973133      -11.071509        9.914024
  O          -10.672658      -11.845146        7.575162
  O          -15.022395      -10.946002        9.189540
  O          -13.711980      -11.988074       11.017457
  N          -12.894570      -12.090127        8.576607
  C          -10.826352      -13.646191        9.442864
  C          -14.952577      -13.548473        9.310794
  S           -1.129144       -9.378950       -2.044397
  S            1.357085      -10.724583       -2.218577
  F           -2.518311      -11.172883       -3.448217
  F           -2.924518       -9.105684       -3.971196
  F           -1.089216      -10.052779       -4.633647
  F            2.403533      -12.896809       -3.292463
  F            0.870416      -13.324548       -1.819012
  F            0.311007      -12.613088       -3.790204
  O           -0.537798       -8.119244       -2.410025
  O           -2.209034       -9.397387       -1.093818
  O            2.299719      -10.813168       -1.133927
  O            1.722656       -9.983286       -3.397260
  N           -0.116059      -10.528260       -1.677244
  C           -1.952545       -9.967160       -3.616767
  C            1.215388      -12.489886       -2.808822
  S           -3.915267       14.323343       -2.054628
  S           -2.654328       11.826651       -1.608576
  F           -1.664800       15.725223       -2.352656
  F           -3.161580       16.675235       -1.100080
  F           -1.992530       15.019186       -0.328725
  F           -0.231702       10.798028       -1.409412
  F           -0.645965       11.638260       -3.365649
  F           -0.232881       12.949606       -1.688018
  O           -4.795816       14.143947       -0.930935
  O           -4.403213       14.999134       -3.227367
  O           -3.134897       10.578125       -2.140654
  O           -2.671120       12.026132       -0.182959
  N           -3.116133       13.043366       -2.507507
  C           -2.601986       15.493246       -1.419845
  C           -0.840920       11.811874       -2.051404
  S           22.915342      -12.269062       12.798916
  S           20.083018      -12.252607       12.790452
  F           23.198985      -13.078094       10.272317
  F           24.495429      -14.083529       11.693639
  F           22.391005      -14.598296       11.590780
  F           18.068010      -12.801999       11.176525
  F           19.312764      -11.173662       10.466898
  F           20.009201      -13.221309       10.303102
  O           22.964387      -12.980459       14.048613
  O           23.919576      -11.278386       12.515759
  O           19.284120      -11.243483       13.435666
  O           20.032490      -13.602064       13.289319
  N           21.507173      -11.686487       12.399263
  C           23.258174      -13.583947       11.514443
  C           19.336870      -12.363351       11.082892
  S           14.928235       16.704794       -2.408884
  S           15.202593       13.922610       -2.863396
  F           12.297194       16.659195       -1.968162
  F           12.968423       18.266977       -3.262885
  F           12.845933       16.239561       -4.023638
  F           13.719750       11.741999       -2.977241
  F           13.716395       12.677373       -1.020323
  F           12.567863       13.549402       -2.640554
  O           15.702998       17.029946       -3.576896
  O           15.033629       17.540208       -1.242232
  O           16.311787       13.137105       -2.388484
  O           15.031478       14.095594       -4.282287
  N           14.977685       15.197185       -1.954213
  C           13.158266       16.971473       -2.949643
  C           13.714652       12.925754       -2.337020
  S           19.361194       -8.833676        2.141871
  S           19.506857       -7.145772        4.411709
  F           21.187924      -10.588758        2.979387
  F           21.386977      -10.001064        0.899288
  F           22.009608       -8.646529        2.474639
  F           20.824366       -6.938548        6.689444
  F           19.612260       -8.732759        6.562680
  F           21.478888       -8.605855        5.465271
  O           19.442036       -7.718445        1.236355
  O           18.544331       -9.964790        1.790559
  O           18.362287       -6.522142        5.023195
  O           20.496605       -6.312729        3.780129
  N           19.094565       -8.470052        3.651421
  C           21.087595       -9.551857        2.132607
  C           20.403045       -7.910704        5.859634
  S           15.751004        3.664776        9.924216
  S           17.006048        5.106993        7.834413
  F           17.915871        3.471811       11.471732
  F           16.770207        1.637240       11.288372
  F           18.034213        2.295990        9.653593
  F           19.379465        6.062845        7.186272
  F           18.558008        6.958846        8.982618
  F           19.378647        4.952175        9.049957
  O           15.142832        2.744134        9.000755
  O           15.030350        4.049073       11.108731
  O           16.380914        6.186900        7.116167
  O           17.318341        3.892238        7.127800
  N           16.388777        4.954638        9.282688
  C           17.207792        2.718174       10.615623
  C           18.670867        5.810098        8.302154
  S          -15.965443       20.341725        5.634910
  S          -15.573136       18.617659        7.847621
  F          -15.628006       18.473606        3.760088
  F          -14.602958       20.345691        3.364620
  F          -13.812837       18.965667        4.839546
  F          -15.008052       16.090790        8.359933
  F          -16.892873       16.351606        7.318834
  F          -15.021760       16.557090        6.241140
  O          -15.074849       21.333390        6.176829
  O          -17.123708       20.768142        4.895522
  O          -16.337480       18.688125        9.065686
  O          -14.167566       18.925764        7.891215
  N          -16.395360       19.195005        6.626000
  C          -14.940723       19.474138        4.333538
  C          -15.634975       16.804750        7.406827
  S           -5.469168       18.202284        5.062232
  S           -2.678107       17.725665        5.134424
  F           -5.563991       19.654355        7.298566
  F           -7.138440       18.171094        7.117264
  F           -5.123733       17.558088        7.636245
  F           -0.581284       18.250097        6.649401
  F           -1.507461       20.029761        5.825110
  F           -2.446893       18.985180        7.477692
  O           -5.756759       16.816847        4.801293
  O           -6.292888       19.215589        4.458245
  O           -1.831883       17.733835        3.969646
  O           -2.865885       16.489226        5.847455
  N           -3.959242       18.626445        4.913009
  C           -5.833301       18.405893        6.884944
  C           -1.760957       18.818317        6.338463
  S            3.876888       12.243054       11.599746
  S            1.807655       10.688376       12.750248
  F            5.074999       12.863367       13.901578
  F            4.848545       14.525907       12.524443
  F            3.137638       13.802862       13.644340
  F            0.945702        9.917541       15.122947
  F            2.928455        9.175760       14.650806
  F            2.654430       11.250896       15.219517
  O            2.949933       12.967465       10.771364
  O            5.186125       11.938361       11.086752
  O            1.309830        9.464723       12.177785
  O            0.932305       11.829210       12.818922
  N            3.301601       10.957626       12.305987
  C            4.247042       13.421016       13.003925
  C            2.114127       10.233472       14.534597
  S          -13.847374       -0.023070        1.870983
  S          -13.968096        0.741412        4.595573
  F          -11.414383        0.969525        1.408380
  F          -12.875966        1.404131       -0.136519
  F          -12.927592        2.486375        1.742376
  F          -12.519065        2.010744        6.400000
  F          -11.578308        0.198580        5.668217
  F          -11.608116        1.980049        4.431208
  O          -15.163959        0.494444        1.608276
  O          -13.411126       -1.211083        1.186572
  O          -14.534949       -0.077913        5.634925
  O          -14.613791        1.983874        4.261172
  N          -13.451749       -0.144273        3.391129
  C          -12.700433        1.289031        1.193305
  C          -12.319320        1.254224        5.305028
  S           22.685460       17.885114        3.286381
  S           22.632191       15.121130        2.669975
  F           25.302988       18.010562        3.787882
  F           24.056517       19.052341        5.227613
  F           24.183136       16.887484        5.266672
  F           24.262463       13.048370        2.557154
  F           24.773788       14.616342        1.148440
  F           25.224693       14.863050        3.255696
  O           21.543503       17.771878        4.154334
  O           22.854524       19.079157        2.501663
  O           21.841120       14.549776        1.611376
  O           22.317434       14.781019        4.032952
  N           22.973915       16.636140        2.370459
  C           24.141240       17.950973        4.458001
  C           24.323171       14.382169        2.388398
  S           -6.852358       -5.830891       10.183373
  S           -5.609629       -3.314715        9.800116
  F           -4.817663       -7.291851        9.264513
  F           -6.770155       -7.908043        8.543470
  F           -5.823390       -6.133441        7.731936
  F           -3.357560       -2.298411        8.871589
  F           -3.072409       -3.562426       10.610962
  F           -3.473330       -4.455980        8.675623
  O           -8.073562       -5.385799        9.566293
  O           -6.918967       -6.753060       11.285765
  O           -5.717349       -2.216881       10.725333
  O           -6.193480       -3.179350        8.491204
  N           -5.813235       -4.700239       10.535375
  C           -6.012051       -6.838974        8.851465
  C           -3.774245       -3.425378        9.477810
  S           18.096382       -5.578704       12.129008
  S           17.944488       -7.979760       10.634264
  F           15.912184       -4.458456       11.083535
  F           17.619213       -3.127761       11.248219
  F           17.560497       -4.630161        9.685046
  F           16.450428       -9.104525        8.771595
  F           15.377446       -8.732347       10.619474
  F           15.824838       -7.089300        9.275991
  O           19.495600       -5.417170       11.835187
  O           17.598229       -5.171517       13.415921
  O           18.243057       -9.281087       11.173037
  O           18.796336       -7.442018        9.605845
  N           17.481592       -6.985024       11.773547
  C           17.247393       -4.389653       10.962088
  C           16.300810       -8.233434        9.786484
  S           19.739604       12.012714        0.306603
  S           20.983455       11.114696       -2.074322
  F           18.427405       14.048395       -0.812694
  F           19.398655       14.525278        1.069081
  F           20.576560       14.328109       -0.741397
  F           21.141435       11.751512       -4.630952
  F           19.136219       11.209094       -4.006969
  F           19.952456       13.145281       -3.468779
  O           20.974547       11.951835        1.042431
  O           18.508269       11.683708        0.974189
  O           21.157770        9.726685       -2.414778
  O           22.149921       11.918185       -1.816993
  N           19.749778       11.311792       -1.104305
  C           19.528911       13.830663       -0.076797
  C           20.250777       11.848259       -3.626685
  S           23.693090       -1.730201        9.130684
  S           22.839452       -0.284571       11.411880
  F           21.352807       -2.922732        8.662030
  F           23.078699       -4.230943        8.514719
  F           22.343116       -3.618938       10.461134
  F           20.688099        0.036965       12.906919
  F           20.411067        0.691144       10.857586
  F           20.427087       -1.426492       11.326705
  O           24.887814       -2.181739        9.793241
  O           23.740061       -1.435902        7.723103
  O           23.234114        1.070178       11.697833
  O           23.276879       -1.335750       12.292867
  N           22.901350       -0.579300        9.859127
  C           22.546916       -3.205627        9.206402
  C           20.985328       -0.245151       11.625026
  S           16.392663       -6.370361        0.932114
  S           13.641033       -5.714787        0.786656
  F           16.945059       -4.801968        3.018665
  F           18.397499       -4.707682        1.408278
  F           16.482690       -3.709866        1.203254
  F           11.870940       -4.165967        1.984476
  F           12.711112       -5.676590        3.294663
  F           13.883649       -3.931941        2.759811
  O           16.569928       -6.186389       -0.483854
  O           17.138513       -7.400780        1.604457
  O           12.602528       -6.669234        0.497854
  O           13.899506       -4.662125       -0.160736
  N           14.899746       -6.421890        1.432711
  C           17.083080       -4.803395        1.683294
  C           12.999799       -4.827790        2.298878
  S            3.920116      -10.070850       12.499952
  S            6.621868      -10.742376       11.978426
  F            3.066714      -12.577021       12.830857
  F            1.770240      -11.335022       11.610852
  F            3.623138      -12.106242       10.788567
  F            8.160547      -12.873914       11.742075
  F            7.305353      -12.651795       13.722926
  F            6.072201      -13.353471       12.082287
  O            3.865552       -9.176200       11.374403
  O            3.186160       -9.742694       13.693151
  O            7.745866       -9.992769       12.476008
  O            6.382895      -10.775367       10.559179
  N            5.358944      -10.561686       12.913365
  C            3.056169      -11.614772       11.894785
  C            7.054892      -12.504988       12.414834
  S           -8.777972       15.316588       18.088191
  S          -10.709023       17.382578       18.246707
  F          -10.039123       13.896649       16.214167
  F           -9.245964       12.720766       17.857341
  F          -11.046335       13.898054       18.134509
  F          -13.037834       18.050896       17.199406
  F          -11.435316       17.970131       15.739997
  F          -12.299800       16.133132       16.503419
  O           -8.719185       15.183680       19.519663
  O           -7.578183       15.129547       17.316424
  O          -10.382621       18.776744       18.397154
  O          -11.399298       16.711732       19.317194
  N           -9.527777       16.593757       17.550894
  C           -9.847805       13.883262       17.542883
  C          -11.930660       17.378061       16.835203
  S           -6.321026        0.425339       -3.621218
  S           -4.866956        2.855894       -3.643173
  F           -5.762381       -0.213227       -1.091626
  F           -5.582340       -1.856148       -2.498828
  F           -4.050770       -0.322522       -2.418515
  F           -3.343860        4.309078       -2.050916
  F           -5.377669        4.095310       -1.328149
  F           -3.986697        2.439866       -1.156648
  O           -5.744925        0.003085       -4.870235
  O           -7.687195        0.082758       -3.327406
  O           -5.319348        4.056170       -4.297045
  O           -3.689492        2.194978       -4.142400
  N           -6.087130        1.935158       -3.236778
  C           -5.367268       -0.537538       -2.332986
  C           -4.376159        3.452310       -1.943712
  S           23.985687      -12.122946        3.253671
  S           22.844617      -11.545724        5.780957
  F           22.243713      -14.031228        2.588330
  F           24.317978      -14.516480        2.171462
  F           23.573977      -14.588830        4.207486
  F           20.868635      -12.353482        7.333333
  F           20.189902      -11.512458        5.452784
  F           21.049745      -13.503166        5.502395
  O           25.314199      -12.181508        3.803087
  O           23.796935      -11.593087        1.929388
  O           22.717465      -10.216652        6.319725
  O           23.722284      -12.479623        6.436692
  N           22.881151      -11.517451        4.199943
  C           23.497461      -13.916906        3.054500
  C           21.140224      -12.269369        6.017906
  S           -7.320278       -0.502608        3.520163
  S           -8.073689       -0.198826        0.806773
  F           -7.500279       -3.164234        3.565258
  F           -8.377761       -2.170328        5.283977
  F           -9.414349       -2.162351        3.378830
  F           -8.816877       -1.667830       -1.256368
  F           -6.803729       -2.103789       -0.576930
  F           -8.509083       -2.821390        0.555115
  O           -8.226087        0.530713        3.946769
  O           -6.057963       -0.651237        4.194384
  O           -7.469924        0.749456       -0.092727
  O           -9.457328       -0.030392        1.166814
  N           -7.075211       -0.597731        1.966796
  C           -8.208330       -2.090775        3.950764
  C           -8.040048       -1.792637       -0.164514
  S           27.266005       -8.750096        7.658614
  S           25.501187       -7.221278        9.261901
  F           25.749053      -10.943737        7.584538
  F           27.856364      -11.314716        7.949825
  F           26.599964      -10.535693        9.536881
  F           23.179588       -7.458451       10.495098
  F           23.028049       -7.658651        8.340702
  F           23.830606       -9.287592        9.526941
  O           28.401506       -8.391929        8.466443
  O           27.437777       -8.911569        6.239275
  O           25.245130       -5.818804        9.060975
  O           26.167835       -7.639555       10.467340
  N           25.954699       -7.915328        7.914920
  C           26.835641      -10.480229        8.222311
  C           23.789929       -7.953762        9.402699
  S           -1.321935        6.835773       -2.010737
  S            1.102742        5.782912       -3.028000
  F           -2.650603        6.765771       -4.323404
  F           -2.905134        8.599846       -3.190620
  F           -1.060829        8.239654       -4.273654
  F            2.145004        4.963277       -5.310266
  F            0.456491        3.766005       -4.662246
  F            0.127062        5.733748       -5.513231
  O           -0.638544        7.900289       -1.325160
  O           -2.489319        6.248985       -1.408245
  O            1.929435        4.841564       -2.318556
  O            1.616666        7.103049       -3.284082
  N           -0.405324        5.679275       -2.562453
  C           -2.014488        7.653741       -3.542933
  C            0.935885        5.015821       -4.721662
  S           16.446833        1.112461       -0.321288
  S           18.579159        2.891270        0.236768
  F           14.833250        2.939816       -1.405639
  F           13.860555        1.588545       -0.012888
  F           15.123994        3.187818        0.728876
  F           19.179913        5.451849        0.014551
  F           18.851927        4.481254       -1.897211
  F           17.162913        4.981873       -0.631778
  O           16.503709        0.539925        0.997500
  O           16.118600        0.268114       -1.439074
  O           19.969202        2.556039        0.068628
  O           18.080280        3.138392        1.564362
  N           17.665570        2.026768       -0.722258
  C           14.990395        2.282669       -0.245582
  C           18.427830        4.538973       -0.627487
  S            4.244570       -3.778300       -5.100944
  S            1.568783       -3.386743       -4.258777
  F            4.075634       -6.429413       -5.349438
  F            5.873825       -5.728057       -4.356246
  F            3.981320       -5.736735       -3.296759
  F           -0.602066       -4.788923       -3.721972
  F            0.028781       -4.947739       -5.791096
  F            1.108639       -6.017100       -4.243490
  O            4.758224       -2.940908       -4.049674
  O            4.897579       -3.774722       -6.383001
  O            0.745442       -2.285844       -4.686564
  O            1.948917       -3.471836       -2.872878
  N            2.687259       -3.710091       -5.329382
  C            4.550467       -5.517501       -4.486179
  C            0.471822       -4.872862       -4.528758
  S           28.114742        3.763514        0.488386
  S           26.662421        2.399482       -1.524716
  F           26.352039        3.335641        2.445039
  F           27.124878        5.361971        2.352710
  F           25.643863        4.698135        0.913933
  F           24.383798        1.105467       -1.841344
  F           25.719296        0.151405       -0.423361
  F           24.631055        1.939115        0.146319
  O           28.346961        4.896904       -0.367029
  O           29.135119        3.369264        1.422999
  O           27.270644        1.562608       -2.526003
  O           26.012423        3.615737       -1.937853
  N           27.558828        2.472759       -0.223630
  C           26.721679        4.316571        1.606344
  C           25.277302        1.337791       -0.862130
  S           15.041900        7.716141       13.930850
  S           17.621822        6.561508       14.113126
  F           13.720112        5.601139       14.878654
  F           12.820203        6.519197       13.129610
  F           14.588596        5.281455       12.917601
  F           18.770421        4.292803       14.820622
  F           17.741573        5.277204       16.456743
  F           16.604639        4.232671       14.933246
  O           15.281595        8.179649       12.589977
  O           14.243276        8.518998       14.818388
  O           18.795408        7.281006       14.534897
  O           17.549712        6.085169       12.756528
  N           16.310536        7.209172       14.715452
  C           13.992596        6.185604       13.701190
  C           17.677377        5.007419       15.145833
  S           21.017477       -4.425225       -3.414071
  S           23.332043       -5.643158       -2.326953
  F           20.922254       -2.402499       -1.676774
  F           19.008243       -3.349354       -2.066450
  F           20.467121       -4.331575       -0.797166
  F           25.040132       -5.314757       -0.341649
  F           25.060782       -3.679956       -1.766942
  F           23.433111       -3.857231       -0.344280
  O           20.314468       -5.679344       -3.470614
  O           20.795706       -3.449453       -4.447893
  O           24.377642       -6.232708       -3.121952
  O           22.537049       -6.496190       -1.482691
  N           22.565371       -4.521628       -3.136966
  C           20.322928       -3.583680       -1.895608
  C           24.264367       -4.551688       -1.133543
  S           16.206063        8.095166        1.958913
  S           14.657806       10.123652        0.729871
  F           15.504086        6.147554        0.275841
  F           15.487749        5.580249        2.371007
  F           13.892304        6.809702        1.566541
  F           12.971661       10.436802       -1.276544
  F           14.958894        9.845685       -1.913687
  F           13.628969        8.385591       -1.016950
  O           15.733842        8.450171        3.270862
  O           17.562144        7.641243        1.800480
  O           15.103576       11.482105        0.560273
  O           13.545149        9.862258        1.605157
  N           15.884572        9.128835        0.814261
  C           15.207724        6.578547        1.512240
  C           14.028781        9.663793       -0.966484
  S          -16.477459       14.037151       11.660112
  S          -17.755475       11.738802       12.712094
  F          -18.634858       15.024044       10.439308
  F          -16.819368       15.080596        9.250772
  F          -17.873767       13.206517        9.534030
  F          -20.120284       10.566409       12.707288
  F          -20.137889       12.523637       13.641855
  F          -20.043876       12.354811       11.481445
  O          -15.364631       13.265757       11.173492
  O          -16.244684       15.366008       12.160169
  O          -17.502233       11.210614       14.027296
  O          -17.380304       10.954293       11.564815
  N          -17.445705       13.288706       12.652274
  C          -17.516985       14.345051       10.136658
  C          -19.618999       11.813054       12.631303
  S           -8.324440       -8.248899        5.377931
  S          -11.031597       -7.493312        5.728346
  F           -8.748668      -10.880011        5.504318
  F           -7.039644      -10.184691        6.647816
  F           -9.050305       -9.854984        7.391253
  F          -13.397300       -8.594301        6.125990
  F          -12.506457       -9.144121        4.226369
  F          -11.776777      -10.035481        6.064236
  O           -7.872632       -7.298583        6.359258
  O           -7.503242       -8.512178        4.226228
  O          -11.660963       -6.409902        5.019126
  O          -10.859471       -7.383055        7.153363
  N           -9.817771       -8.083732        4.903865
  C           -8.300716       -9.883877        6.284910
  C          -12.237601       -8.902381        5.516589
  S            8.426319      -12.313369       17.753068
  S           11.219847      -12.545665       17.347306
  F            8.121246      -10.075998       16.331873
  F            7.071403      -10.089480       18.231733
  F            9.219443       -9.793781       18.180252
  F           13.198171      -11.265660       16.157908
  F           11.687607      -11.979768       14.774900
  F           11.293579      -10.237883       16.005870
  O            8.554737      -12.545344       19.167256
  O            7.272006      -12.821676       17.060762
  O           11.896274      -13.795338       17.115720
  O           11.497976      -11.819842       18.559034
  N            9.707561      -12.624346       16.890647
  C            8.208803      -10.461365       17.614875
  C           11.875118      -11.445247       15.989196
  S            5.539169      -13.233514       -2.954218
  S            4.941913      -10.584459       -2.149115
  F            6.612061      -13.997077       -0.633751
  F            7.731081      -14.607746       -2.390651
  F            7.809550      -12.548252       -1.715008
  F            5.207755       -9.006276       -0.050183
  F            3.940131      -10.725304        0.327357
  F            6.093448      -10.966929        0.229630
  O            6.130683      -12.786265       -4.187227
  O            4.805388      -14.470993       -2.936482
  O            3.736552       -9.886866       -2.514272
  O            6.202003      -10.103384       -2.652300
  N            4.717842      -12.150170       -2.158077
  C            7.006022      -13.607052       -1.856429
  C            5.049368      -10.318293       -0.304563
  S            0.519859       -1.599949        0.085952
  S           -2.302823       -1.414458        0.228995
  F            1.016799        0.688091        1.365254
  F            2.216642        0.369852       -0.415455
  F            0.137137        0.958421       -0.598240
  F           -4.173747        0.219611        1.121358
  F           -2.908693       -0.572819        2.694939
  F           -2.162177        0.987826        1.386576
  O            0.484219       -1.932072       -1.313568
  O            1.523953       -2.199687        0.923933
  O           -3.169282       -2.536101        0.482047
  O           -2.366379       -0.763573       -1.053489
  N           -0.863505       -1.658964        0.837534
  C            0.987900        0.210199        0.111040
  C           -2.910149       -0.123303        1.432670
  S          -10.884330       15.085550       12.431701
  S          -11.690385       12.520969       13.323666
  F          -13.315090       16.183461       12.500153
  F          -12.165321       16.645120       10.717817
  F          -13.074852       14.689504       10.946908
  F          -13.882123       11.223650       14.016557
  F          -13.430451       12.897090       15.320419
  F          -14.258370       13.252840       13.347425
  O          -10.109103       14.530046       11.354356
  O          -10.412167       16.270462       13.097395
  O          -10.929128       11.714331       14.241649
  O          -11.861875       12.058930       11.971051
  N          -11.374846       14.058275       13.520809
  C          -12.454520       15.674164       11.604439
  C          -13.411378       12.484096       14.045875
  S           -2.460385      -10.051500       12.879635
  S           -0.144716       -8.433755       12.672326
  F           -2.493697      -10.153796       15.545552
  F           -2.850128      -12.056822       14.564089
  F           -0.843295      -11.238688       14.650357
  F            1.655725       -7.281785       14.220947
  F           -0.352665       -6.525629       14.535691
  F            0.209151       -8.468738       15.318889
  O           -1.974995      -10.973135       11.887053
  O           -3.870063       -9.771627       12.947323
  O            0.009529       -7.371988       11.712258
  O            0.705120       -9.591226       12.569880
  N           -1.671625       -8.692499       12.993786
  C           -2.132858      -10.919140       14.503290
  C            0.357955       -7.632873       14.281883
  S          -10.451653        6.447929        3.923686
  S          -10.624464        5.552615        1.242091
  F          -10.907064        9.022153        3.390145
  F           -9.283794        8.662373        4.785628
  F           -8.992812        8.305428        2.666174
  F          -11.006295        6.516690       -1.185174
  F          -12.706737        6.810121        0.128927
  F          -10.940180        8.049299        0.348987
  O           -9.236040        5.712505        4.150999
  O          -11.403106        6.578867        4.994991
  O          -11.255323        4.320493        0.846161
  O           -9.203611        5.695034        1.059465
  N          -11.229343        6.090224        2.601075
  C           -9.875672        8.207954        3.665058
  C          -11.367787        6.808383        0.077927
  S           23.429668       15.720244        9.861057
  S           21.195195       17.052664       10.980962
  F           22.756067       16.135388        7.312997
  F           23.430062       14.119278        7.752146
  F           21.444147       14.754517        8.349458
  F           19.006754       18.313646       10.214475
  F           20.829973       19.294024        9.567020
  F           20.151336       17.494981        8.563224
  O           23.259901       14.585185       10.728844
  O           24.759311       16.133775        9.498917
  O           21.263331       17.891932       12.148805
  O           20.446113       15.825289       11.050843
  N           22.589896       16.999153       10.236865
  C           22.713789       15.154742        8.228865
  C           20.253437       18.099201        9.755150
  S           28.387225        0.297110        5.078015
  S           28.189108       -2.208999        6.382839
  F           25.795883        0.908762        5.249823
  F           26.691220        1.306014        3.312716
  F           26.218610       -0.729531        3.893545
  F           26.365402       -3.780387        7.465282
  F           26.562956       -1.873805        8.480359
  F           25.534998       -1.985307        6.573638
  O           29.176669       -0.256905        4.010270
  O           28.656601        1.637176        5.527196
  O           29.165024       -2.707224        7.316772
  O           28.014783       -2.894583        5.129028
  N           28.198855       -0.627940        6.339306
  C           26.672792        0.443331        4.346123
  C           26.570501       -2.463659        7.277278
  S           14.831668       16.598742       15.653359
  S           14.319374       17.182665       12.929577
  F           17.231021       15.500563       15.258639
  F           15.948553       14.402651       16.623076
  F           15.589190       14.313284       14.486013
  F           15.442139       16.890403       10.558748
  F           16.587058       18.156277       11.897102
  F           16.592525       16.004593       12.170847
  O           13.526520       16.020678       15.834090
  O           15.429234       17.334180       16.736018
  O           13.683269       18.391046       12.473444
  O           13.638449       15.927671       12.745763
  N           15.041006       17.409239       14.318695
  C           15.963467       15.120009       15.483924
  C           15.827974       17.053712       11.837672
  S           24.003719       -7.625688        4.661668
  S           24.997585       -4.991849        4.349381
  F           26.057804       -8.843811        3.471876
  F           24.104103       -9.581760        2.880010
  F           24.825318       -7.684389        2.115812
  F           27.065216       -3.727401        3.303952
  F           27.610037       -5.067471        4.920073
  F           27.107722       -5.870473        2.968771
  O           22.699078       -7.251194        4.184280
  O           24.113382       -8.616918        5.698752
  O           24.886088       -3.967247        5.354681
  O           24.287398       -4.826741        3.108079
  N           24.975352       -6.432877        5.001058
  C           24.797808       -8.471928        3.195507
  C           26.798692       -4.921900        3.863703
  S           16.311957      -13.138690        3.703428
  S           15.574161      -12.768861        0.993947
  F           18.927199      -12.758241        3.336745
  F           18.429427      -14.446072        4.607679
  F           18.180046      -14.594611        2.458281
  F           16.685316      -12.282178       -1.350263
  F           16.969276      -10.677033        0.080590
  F           18.126740      -12.503006        0.256112
  O           15.519674      -14.334506        3.815439
  O           16.419003      -12.259330        4.837169
  O           14.390632      -12.065335        0.573020
  O           15.672764      -14.180864        0.731303
  N           16.057894      -12.269102        2.414504
  C           18.060630      -13.769941        3.503447
  C           16.919828      -12.009316       -0.053446
  S           19.677023        2.460378        4.201720
  S           17.182202        1.128980        4.041573
  F           18.793828        4.542411        5.617276
  F           20.105305        5.062764        3.967705
  F           18.049010        4.491294        3.581392
  F           14.671248        1.454338        4.787294
  F           16.046361        1.300064        6.457543
  F           15.946132        3.132726        5.301682
  O           19.923809        2.288260        2.794700
  O           20.782712        2.400291        5.120385
  O           17.024982       -0.297771        4.153524
  O           16.876712        1.764733        2.786602
  N           18.484424        1.618473        4.794137
  C           19.112953        4.236976        4.349547
  C           15.898476        1.795754        5.221497
  S           18.073780       20.226062       16.959762
  S           20.623686       19.071826       17.393487
  F           17.794406       19.355961       14.453058
  F           17.230110       21.429773       14.757513
  F           19.325358       20.874012       14.685214
  F           22.441778       17.656064       16.106239
  F           20.557261       16.610012       16.348799
  F           20.737461       18.191267       14.875073
  O           18.492594       21.493107       17.497746
  O           16.724948       19.779268       17.185878
  O           21.025015       18.453032       18.629974
  O           21.287077       20.278536       16.973702
  N           19.053084       19.018494       17.214316
  C           18.119494       20.481823       15.108053
  C           21.104655       17.808659       16.105916
  S           -4.300265       -8.448684        5.572318
  S           -3.017983       -9.648787        7.794458
  F           -5.756695      -10.581621        4.902925
  F           -4.804590       -9.577074        3.230739
  F           -3.630952      -10.831310        4.554986
  F           -2.924594      -11.962410        9.061453
  F           -4.883197      -11.032536        9.122062
  F           -4.195786      -11.994551        7.303628
  O           -3.058028       -7.932659        5.061634
  O           -5.500914       -7.672047        5.413012
  O           -2.752716       -8.965528        9.033676
  O           -1.906632      -10.066295        6.980182
  N           -4.254170       -9.007410        7.044649
  C           -4.636942       -9.952153        4.512809
  C           -3.811475      -11.245744        8.346599
  S          -17.541122        0.339132        7.875590
  S          -16.084937        2.634784        8.670514
  F          -19.123037        1.598834        6.135077
  F          -20.146552        0.188082        7.428914
  F          -19.517005        2.113276        8.204456
  F          -16.000590        5.231191        8.203176
  F          -15.552808        4.032009        6.452200
  F          -17.600079        4.217684        7.144239
  O          -17.745948       -0.073195        9.238772
  O          -17.348336       -0.662713        6.861074
  O          -14.667158        2.639227        8.921017
  O          -16.984621        2.876231        9.768116
  N          -16.480385        1.483895        7.660161
  C          -19.170714        1.114588        7.386276
  C          -16.326000        4.103801        7.544174
  S           -0.635447       -4.456816        2.152190
  S           -2.052804       -6.661646        3.225607
  F            1.530972       -5.838543        1.433753
  F            1.949657       -3.949922        2.418453
  F            1.283522       -5.655958        3.580290
  F           -1.743615       -9.250360        3.637684
  F           -1.712179       -8.708843        1.537628
  F            0.011412       -8.298403        2.788821
  O           -0.918938       -3.641153        3.303086
  O           -0.582596       -3.842008        0.852451
  O           -3.469052       -6.862308        3.061761
  O           -1.536032       -6.404688        4.544461
  N           -1.460648       -5.794402        2.042823
  C            1.128826       -5.017032        2.416437
  C           -1.328366       -8.318027        2.760469
