         874
  Built with Packmol                                             
  Ti          -2.868335        2.115442       11.265214
  Ti           7.802788        5.383210        1.844391
  Ti           1.352572       -1.673500        9.417113
  Ti           2.511792        7.542652        3.648414
  Ti           1.444672        9.187418        1.751989
  Ti           3.259458       -1.864257       11.359530
  Ti          -1.869782        0.416024        9.366140
  Ti           5.815984        5.614284        3.703281
  H            3.746896        1.652626        8.583439
  H           -7.024875       10.142785        6.478257
  H            4.431630       11.010612        4.650438
  H           -2.503694        6.028051       11.048460
  H            8.748737        1.507342        2.155250
  H           -6.801542        1.221893       10.903644
  H           11.114246        7.503838        2.029089
  H            4.372721       -5.862020       10.962653
  H           -2.589143        8.456181        2.095703
  H            4.656966        3.204147        6.826953
  H           -0.045224        3.670268        8.406030
  H           12.440918       -1.828167        6.378540
  H           -2.327232        0.331938       12.984230
  H            5.927385        5.077403        0.154584
  H            3.761426       -2.506617        5.844726
  H            0.745560        9.314262        7.279431
  H           -6.059913        3.661213        9.037490
  H           10.641247        3.393379        4.132134
  H           -3.728587        2.298708        5.688870
  H           -1.703972       10.903386        4.124923
  H            1.733452       12.300945        2.609537
  H            8.667985       -0.517063        3.355831
  H            4.606680        7.297451        2.297825
  H            0.215487        0.134620       10.719246
  H            7.415332        0.218685        9.728366
  H            5.955496       -0.302534       10.483299
  H            7.828656        4.670987        8.632537
  H            7.237651        5.011538        7.017709
  H            7.098177       -4.749977        9.534320
  H            5.784030       -3.695029       10.000157
  H            1.411485        1.911548        9.356085
  H            0.863759        5.227040        6.648574
  H            5.741023        9.069333        3.845371
  H            7.999135        8.609993        4.744623
  C            8.422325        4.659191        4.703706
  C           -3.853328        2.346718        8.423899
  C            3.961595       -2.592630        8.476524
  C            0.513540        9.443357        4.621320
  C            9.344336        4.085192        5.693105
  C           -4.811926        2.940026        7.452907
  C            4.917315       -3.172748        7.523270
  C           -0.392661       10.057561        5.626884
  C            9.101042        4.149763        7.100999
  C           -4.599256        2.829342        6.063538
  C            6.075072       -3.893771        7.969088
  C           -1.516055       10.792469        5.189090
  C           -0.124811        9.894234        6.980095
  C            4.657405       -3.047644        6.140915
  C           10.498947        3.426687        5.210054
  C           -5.932679        3.593124        7.958691
  C            2.813684        4.307411        6.639567
  C            1.802100        2.580168        8.590925
  C            6.161473        9.726276        4.605129
  C           -1.730084       -2.944720        6.528234
  C            8.715175        1.588330        0.011262
  C            1.839040       13.147429        0.088587
  C            6.684170        0.195343       12.990012
  C           -6.719779        1.271810       13.046845
  C            3.350517        5.224492        5.605606
  C           -1.145018       -2.033515        7.540248
  C            4.215985       -4.201651       13.101266
  C            1.796086       11.711651        0.049701
  C            5.408882       -0.466276       13.043122
  C           -5.332575        1.734605       13.064020
  C            1.482906        4.442604        7.078738
  C            3.125222        2.436827        8.154613
  C            5.424120       10.827594        5.058747
  C           -8.018869       10.319594        6.073436
  C            8.784652        0.919515        1.239780
  C           -2.508142        6.615249       11.963065
  C           -4.360552        7.730507        1.110303
  C           -7.351366        1.022025       11.821932
  C            7.441371        9.469644        5.112723
  C           12.991193       -2.694552        6.017481
  C            3.632637        3.298056        7.181208
  C            0.980621        3.578705        8.052889
  C            7.361766        0.489528       11.753548
  C           -3.089201        8.254946        1.152479
  C            4.438003       -6.388560       11.910676
  C            8.855538       -0.479663        1.318796
  N            8.938305       -1.077634        2.555968
  N            6.782516        0.288157       10.517426
  N            8.001283        4.757340        7.639127
  N            6.418775       -4.042078        9.284423
  O            7.234665        5.022637        5.076604
  O           -3.053924        1.423703        8.020113
  O            4.345224       -2.456407        9.695708
  O            0.426054        9.871897        3.422680
  O            1.318961        8.513079        5.002228
  O            2.776776       -2.264724        8.078087
  O            8.824398        4.755701        3.489805
  O           -3.903766        2.779752        9.624467
  O            6.156697        4.409127        2.505218
  O           -1.367975        1.993658       10.109628
  O            7.017801        6.727170        2.953185
  O           -3.056279        0.208461       10.609657
  O            1.659621       -2.837312       10.674383
  O            2.969458        9.121937        2.909279
  O            2.531624       -0.543378       10.208048
  O            1.322575        7.306972        2.398893
  O            4.575167        5.087631        5.244337
  O           -1.836144       -1.022528        7.923516
  O            4.066391       -3.610049       11.962095
  O            1.743514       11.006429        1.144350
  O            4.771026       -0.795498       11.956418
  O           -0.427504        9.094025        1.094098
  O            0.028867       -2.288059        7.991258
  O            2.574295        6.119616        5.117796
  O            9.199419        6.452785        1.083295
  O           -4.748114        1.988975       11.944029
  O            8.500254        3.672420        1.113292
  O           -2.542975        3.849240       12.015231
  O            4.269171        6.735574        3.019668
  O           -0.147093       -0.436062       10.017030
  O            6.748057        5.600086        0.071530
  O           -2.238358        1.302347       13.044892
  S            1.387629       -6.107378        3.755727
  S            0.805223       -6.800394        6.439555
  F            4.038048       -6.034270        4.053432
  F            3.210020       -4.376466        2.923000
  F            2.999141       -4.432041        5.080917
  F            2.051659       -7.247146        8.722899
  F            2.577953       -8.666206        7.169275
  F            3.384013       -6.653188        7.116986
  O            0.391028       -5.069616        3.747367
  O            1.618314       -6.868147        2.556512
  O           -0.220650       -7.735029        6.822847
  O            0.656611       -5.416716        6.808074
  N            1.330181       -7.099885        4.977891
  C            2.999835       -5.186554        3.977548
  C            2.294383       -7.378146        7.405664
  S           12.097556       -7.037849        3.365413
  S            9.523496       -6.728700        2.224781
  F           11.904895       -9.665650        3.785214
  F           12.741597       -8.544719        5.445113
  F           10.608654       -8.480567        5.057036
  F            7.386228       -8.167158        1.650524
  F            9.153532       -8.786852        0.556412
  F            8.941635       -9.299404        2.653339
  O           11.910104       -5.907764        4.236048
  O           13.404786       -7.296044        2.822653
  O            9.239527       -5.869494        1.104961
  O            8.948425       -6.412208        3.506023
  N           11.034298       -7.196777        2.213772
  C           11.810506       -8.516673        4.473117
  C            8.717441       -8.341970        1.742706
  S           -7.291082      -13.291545       11.145645
  S           -7.784765      -10.900435        9.709931
  F           -9.677032      -14.393291       10.685111
  F           -8.982234      -14.567089       12.734226
  F           -9.748871      -12.673947       12.004538
  F           -9.714673       -9.733590        8.338517
  F           -9.032868      -11.589268        7.446292
  F          -10.302147      -11.634035        9.204597
  O           -6.765001      -12.572115       12.275199
  O           -6.719092      -14.564761       10.796574
  O           -6.806825      -10.245367        8.880843
  O           -8.245874      -10.232818       10.899101
  N           -7.484304      -12.448778        9.828654
  C           -9.027877      -13.747697       11.666984
  C           -9.292356      -10.981791        8.612064
  S          -11.918501        2.315111        4.413598
  S          -14.686204        2.033201        4.945337
  F          -11.430986        4.054163        6.377451
  F          -10.510228        4.556395        4.476980
  F          -12.636627        4.868076        4.769294
  F          -16.528887        2.964623        6.589667
  F          -14.960114        1.859562        7.600734
  F          -14.578812        3.869799        6.880825
  O          -12.149172        2.494110        3.004703
  O          -10.742274        1.609367        4.847784
  O          -15.395336        0.782617        4.867595
  O          -15.014444        3.076748        4.009535
  N          -13.151434        1.798926        5.247554
  C          -11.618397        4.048213        5.048124
  C          -15.205832        2.718546        6.602156
  S           12.342667       18.136738        0.633030
  S            9.761489       17.445731       -0.306345
  F           13.186691       15.632766        1.002406
  F           13.665883       16.995725        2.622449
  F           11.642553       16.248407        2.394819
  F            8.285423       15.304162       -0.755524
  F           10.065364       15.390813       -1.991958
  F           10.225399       14.847876        0.101919
  O           11.811710       19.117459        1.542153
  O           13.604559       18.387701       -0.010981
  O            9.088983       18.128101       -1.381044
  O            9.210850       17.529046        1.021176
  N           11.331583       17.582069       -0.440332
  C           12.720358       16.665070        1.722926
  C            9.587324       15.644928       -0.766277
  S            8.059706       -7.958163       13.845317
  S            7.201529       -8.740290       11.261868
  F            8.978394      -10.354895       14.573588
  F            7.802142       -9.339663       16.089357
  F            6.819430      -10.265304       14.391821
  F            7.084715      -10.895207        9.742152
  F            9.112492      -10.311263       10.243743
  F            7.865968      -11.284224       11.728410
  O            6.819428       -7.280308       14.114494
  O            9.284721       -7.412999       14.367080
  O            7.352009       -7.924900       10.084853
  O            5.875349       -9.025859       11.743691
  N            8.295640       -8.381257       12.346190
  C            7.901726       -9.576881       14.767880
  C            7.863738      -10.399849       10.721400
  S           -6.635694       15.667026        7.505291
  S           -7.269871       18.385685        7.026629
  F           -4.497093       16.141532        9.028419
  F           -4.220130       14.583399        7.542709
  F           -4.218585       16.667841        6.943324
  F           -6.363283       20.798341        7.595872
  F           -6.976653       19.679325        9.349738
  F           -5.105928       19.204042        8.360189
  O           -6.770149       15.331179        6.112681
  O           -7.038644       14.708837        8.500081
  O           -8.612967       18.903403        6.996081
  O           -6.494093       18.396063        5.813980
  N           -7.182009       17.084764        7.921963
  C           -4.788009       15.783125        7.767792
  C           -6.377573       19.574625        8.155782
  S           17.858581       15.555007       14.718405
  S           15.614376       14.148677       13.714322
  F           19.446365       13.423086       14.947637
  F           19.490128       14.769139       16.650002
  F           17.799839       13.441671       16.358593
  F           14.877743       11.683569       13.124864
  F           16.530116       12.395264       11.913412
  F           16.870812       11.806634       13.973061
  O           17.055913       16.265005       15.678540
  O           18.972892       16.225485       14.102879
  O           14.752558       14.648990       12.675175
  O           15.077337       13.976979       15.038922
  N           17.061882       14.776638       13.604193
  C           18.687247       14.213351       15.723194
  C           16.007719       12.414212       13.147159
  S           10.819765        4.691284       10.677180
  S           10.574239        1.955531       11.368392
  F           11.569147        5.526346       13.097880
  F           10.072544        6.770404       12.136466
  F            9.506548        4.863992       13.002150
  F           10.821322        0.376206       13.468757
  F           12.678430        1.343190       12.902581
  F           11.136322        2.473263       13.927056
  O            9.545359        4.695827       10.009271
  O           11.890677        5.494958       10.150531
  O           10.980423        0.871595       10.512257
  O            9.175789        2.114786       11.670771
  N           11.391932        3.270875       11.047477
  C           10.470240        5.498423       12.327236
  C           11.354765        1.522625       13.007945
  S            6.718132        6.938890       -4.043615
  S            9.107873        5.512383       -3.517671
  F            5.213347        4.792374       -4.540383
  F            4.949023        6.425602       -5.945558
  F            6.717239        5.174377       -6.055168
  F           10.006873        3.031137       -3.472263
  F            8.445532        3.401962       -2.013097
  F            7.939303        3.185798       -4.111123
  O            7.394101        7.863039       -4.914964
  O            5.637677        7.413195       -3.220356
  O           10.040294        5.863572       -2.478379
  O            9.525022        5.623052       -4.891059
  N            7.650381        6.018141       -3.168865
  C            5.859767        5.758291       -5.212256
  C            8.848094        3.681828       -3.260096
  S           18.204457        1.190406       11.735506
  S           17.529554        3.187109        9.843396
  F           19.895337       -0.135309       10.153705
  F           18.524080       -1.396094       11.268109
  F           17.821374       -0.290092        9.539777
  F           18.056924        3.859450        7.346060
  F           19.800512        3.920687        8.634708
  F           19.016698        2.013606        7.961367
  O           16.824441        0.963757       12.073766
  O           19.204840        1.088558       12.764566
  O           17.346500        4.576570       10.173188
  O           16.396186        2.427401        9.384289
  N           18.494721        2.479467       10.877530
  C           18.633010       -0.232222       10.600254
  C           18.675040        3.243275        8.370484
  S          -15.057503       -3.801345        0.182839
  S          -14.307943       -1.275192        1.221642
  F          -14.805406       -5.135460        2.479636
  F          -13.958184       -6.141669        0.752910
  F          -12.918915       -4.462073        1.649037
  F          -13.521606       -0.180722        3.491148
  F          -15.523347       -1.010021        3.589931
  F          -13.801097       -2.328159        3.622706
  O          -14.180809       -3.659757       -0.949237
  O          -16.316478       -4.477286        0.014945
  O          -14.935673       -0.034797        0.847149
  O          -12.930007       -1.491285        0.865197
  N          -15.297222       -2.494182        1.028957
  C          -14.127415       -4.940746        1.337408
  C          -14.296640       -1.204036        3.087003
  S           23.667578       -4.712214        4.955557
  S           21.619811       -6.669009        4.953846
  F           25.021220       -5.720553        2.889257
  F           26.255113       -5.122166        4.571893
  F           25.099228       -6.954752        4.670508
  F           20.924431       -8.859109        3.655094
  F           20.940206       -7.089590        2.400894
  F           22.809924       -8.022187        2.983241
  O           23.855154       -4.827375        6.377452
  O           23.818214       -3.425304        4.330036
  O           20.230704       -6.377577        5.195339
  O           22.335123       -7.478038        5.905822
  N           22.374797       -5.403681        4.378801
  C           25.084686       -5.692843        4.229955
  C           21.576685       -7.708976        3.404211
  S           -1.666837       -1.681929       -3.243191
  S            0.645545       -0.110160       -3.695778
  F           -0.371416       -3.981827       -2.854545
  F           -2.118520       -4.134189       -4.133699
  F           -0.284711       -3.265214       -4.899329
  F            3.267575       -0.375714       -3.841674
  F            2.466870       -0.856188       -1.884002
  F            2.228636       -2.253885       -3.525464
  O           -2.333453       -1.135499       -4.395264
  O           -2.439608       -2.005984       -2.073612
  O            0.814315        1.230984       -3.200076
  O            0.559783       -0.319146       -5.117547
  N           -0.359269       -0.929233       -2.789573
  C           -1.065771       -3.356486       -3.818437
  C            2.235344       -0.953760       -3.200157
  S           22.775599      -11.497446        3.592799
  S           19.988562      -11.786133        4.006908
  F           23.283067      -14.097491        3.275100
  F           24.692317      -13.051648        4.552615
  F           22.719737      -13.558344        5.298505
  F           18.159608      -13.682339        4.168714
  F           19.112876      -13.577270        2.223282
  F           20.172132      -14.448166        3.903826
  O           22.911177      -10.621816        4.726432
  O           23.593445      -11.272275        2.430677
  O           19.000093      -10.885687        3.473058
  O           20.165902      -11.855490        5.433861
  N           21.299314      -11.781485        3.121671
  C           23.391799      -13.148334        4.218256
  C           19.330939      -13.469939        3.540977
  S           12.951516       16.439966       -2.535101
  S           12.663530       18.828428       -4.029996
  F           15.572504       16.692475       -2.104571
  F           14.941275       14.700082       -2.690865
  F           15.062560       16.280310       -4.171517
  F           14.130308       20.820075       -4.951273
  F           14.101287       20.709885       -2.785291
  F           15.289962       19.299500       -3.926596
  O           12.203572       15.678430       -3.499920
  O           12.829145       16.116256       -1.138555
  O           11.538375       19.718871       -3.911636
  O           12.865117       18.125474       -5.270027
  N           12.880289       18.005484       -2.696761
  C           14.734343       16.013255       -2.903579
  C           14.132073       19.974042       -3.904655
  S           22.874267        3.627337        5.088621
  S           22.505492        0.859120        4.615993
  F           20.288345        4.205986        5.399850
  F           21.384731        5.608733        4.158054
  F           20.824681        3.667664        3.368904
  F           20.556757       -0.908553        4.404775
  F           20.676515        0.001719        6.369852
  F           19.849460        1.120267        4.705658
  O           23.761512        3.759444        3.963642
  O           23.115546        4.414471        6.268582
  O           23.372269       -0.166452        5.135387
  O           22.451505        1.067194        3.192530
  N           22.543005        2.151029        5.527750
  C           21.246941        4.305219        4.465230
  C           20.799579        0.242991        5.057590
  S           20.372014       -0.641838       16.925907
  S           20.242699       -1.563904       14.250935
  F           21.496248       -2.844229       17.928036
  F           19.864299       -2.043288       19.114231
  F           19.445451       -3.126622       17.282533
  F           20.822738       -3.709455       12.827203
  F           22.564960       -2.785482       13.730198
  F           21.204338       -3.955367       14.948716
  O           19.007533       -0.186341       16.895120
  O           21.344539        0.106257       17.677340
  O           20.508628       -0.736756       13.102903
  O           18.910039       -2.071928       14.446856
  N           20.997414       -1.020694       15.530415
  C           20.288710       -2.262116       17.855469
  C           21.274746       -3.086168       13.931008
  S            7.461303       16.011302       16.467300
  S            6.650381       18.462209       15.302026
  F            6.475682       14.446380       14.544213
  F            6.068216       13.761707       16.563375
  F            4.954015       15.428760       15.736542
  F            5.349725       19.356538       13.186531
  F            7.173722       18.295960       12.683861
  F            5.413686       17.191208       13.305558
  O            6.948944       16.389451       17.757542
  O            8.660654       15.219997       16.393172
  O            7.452061       19.658095       15.308055
  O            5.414110       18.451440       16.039572
  N            7.556309       17.169656       15.403699
  C            6.160474       14.855205       15.783477
  C            6.124775       18.307283       13.517510
  S           -6.834829       -7.509339       13.478609
  S           -9.450637       -7.384431       12.399561
  F           -5.984758       -5.212125       12.420838
  F           -4.579664       -6.858192       12.253523
  F           -6.316890       -6.777529       10.957489
  F          -10.919880       -5.835778       10.847193
  F          -10.294823       -4.861708       12.681575
  F           -8.875372       -5.143633       11.065906
  O           -6.668858       -8.878076       13.067213
  O           -6.243926       -7.071978       14.715400
  O          -10.634721       -7.779618       13.116947
  O           -9.054173       -8.143613       11.242445
  N           -8.302998       -6.944068       13.394922
  C           -5.884740       -6.532268       12.198379
  C           -9.902161       -5.706153       11.718187
  S           16.633938       -4.890541        7.464913
  S           15.607324       -7.527663        7.346384
  F           14.390625       -3.755824        8.358588
  F           15.380549       -2.666253        6.763374
  F           14.255981       -4.465581        6.314008
  F           13.358373       -8.837800        7.785259
  F           14.169530       -7.909332        9.569758
  F           13.176083       -6.695032        8.072010
  O           17.202605       -4.991562        6.147094
  O           17.329062       -4.134976        8.472895
  O           16.356404       -8.698416        7.722000
  O           15.224413       -7.360923        5.968692
  N           16.140816       -6.244518        8.101805
  C           15.070023       -3.897947        7.209463
  C           13.989579       -7.744768        8.252213
  S           13.027522       -5.482592       13.205981
  S           10.674691       -6.650276       12.146216
  F           14.383845       -5.449376       10.908596
  F           15.525910       -6.136441       12.621911
  F           14.057790       -7.441065       11.701725
  F            9.736465       -7.575765        9.859286
  F           10.195841       -5.456809        9.800442
  F           11.799684       -6.915789        9.739011
  O           13.045048       -6.391814       14.320988
  O           13.468471       -4.126767       13.399385
  O            9.342533       -6.260751       12.528962
  O           11.133011       -7.974198       12.477319
  N           11.698062       -5.463525       12.360860
  C           14.313703       -6.172765       12.037337
  C           10.605581       -6.638662       10.280780
  S           13.308101        3.335003        3.850744
  S           15.757847        3.301311        5.272013
  F           14.396856        3.351957        1.414965
  F           12.752270        4.743888        1.678948
  F           14.700336        5.192750        2.520213
  F           18.356750        3.331262        4.811954
  F           17.367746        1.571974        4.017447
  F           17.161572        3.480408        3.007455
  O           12.778262        4.388196        4.675540
  O           12.421883        2.310491        3.365878
  O           15.983339        2.527324        6.464895
  O           15.772137        4.737931        5.363537
  N           14.626149        2.651817        4.378060
  C           13.830002        4.206828        2.281072
  C           17.236729        2.891634        4.209076
  S           22.919453      -12.494081       -0.494177
  S           23.260718       -9.686145       -0.347779
  F           20.322357      -12.429972       -1.102184
  F           20.860342      -13.892044        0.409352
  F           20.761818      -11.786778        0.921517
  F           21.848721       -7.468257       -0.580345
  F           21.929967       -8.626498       -2.412378
  F           20.658120       -9.271131       -0.777886
  O           23.611872      -12.700514        0.750080
  O           23.065587      -13.463220       -1.547513
  O           24.422258       -8.991877       -0.839398
  O           22.999733       -9.686684        1.067969
  N           23.047083      -11.052157       -1.115965
  C           21.112413      -12.647842       -0.038882
  C           21.841470       -8.718428       -1.078546
  S           23.595301       -1.469250       10.876513
  S           24.644855        0.967251        9.884394
  F           25.276680       -3.060211        9.549676
  F           23.203606       -3.702505        9.509126
  F           23.849646       -2.040238        8.274757
  F           26.508738        1.834513        8.228906
  F           27.310534        0.746342        9.925217
  F           26.359087       -0.328716        8.299269
  O           22.241771       -1.061674       10.608051
  O           23.868463       -2.273837       12.037601
  O           24.807953        2.154914       10.681718
  O           23.696290        0.982844        8.801601
  N           24.681977       -0.332199       10.785387
  C           24.009479       -2.624910        9.466111
  C           26.301713        0.783953        9.044165
  S            4.968031       -9.925020        4.082453
  S            6.690982       -7.760063        4.688097
  F            4.214462      -10.396409        6.598127
  F            4.703545      -12.174696        5.453439
  F            6.287048      -10.893950        6.199343
  F            7.578251       -6.412227        6.776863
  F            5.434354       -6.240821        6.496165
  F            6.278711       -8.066115        7.308614
  O            5.953960      -10.548482        3.240151
  O            3.577512      -10.023951        3.726402
  O            6.802487       -6.572802        3.881345
  O            7.826675       -8.638750        4.790895
  N            5.273960       -8.439229        4.507765
  C            5.055973      -10.895014        5.678606
  C            6.470908       -7.086013        6.414940
  S           -4.788601       -5.985602       -4.967060
  S           -5.835832       -4.109950       -3.121081
  F           -4.594984       -8.005968       -3.235204
  F           -2.864245       -7.748369       -4.519729
  F           -3.193949       -6.394533       -2.857625
  F           -6.481844       -3.938471       -0.567630
  F           -7.667914       -5.393576       -1.654079
  F           -5.619175       -5.853719       -1.110342
  O           -3.818514       -5.044421       -5.460359
  O           -5.383021       -6.924425       -5.881049
  O           -6.869344       -3.159965       -3.440849
  O           -4.518444       -3.622690       -2.805605
  N           -5.923861       -5.382496       -4.056289
  C           -3.807467       -7.089695       -3.820463
  C           -6.437229       -4.878469       -1.529710
  S           14.778779       10.058895       16.194495
  S           14.604184       11.789867       18.429591
  F           12.460631       10.787952       15.092971
  F           12.812126        8.646145       15.123509
  F           12.238059        9.678296       16.942651
  F           12.960126       13.567836       19.479710
  F           13.711355       14.145157       17.528603
  F           12.176275       12.621468       17.691730
  O           15.141874        8.937294       17.019363
  O           15.354892       10.179819       14.881645
  O           15.724256       12.510599       18.976267
  O           13.982078       10.765191       19.226761
  N           14.828059       11.468065       16.897253
  C           12.966218        9.783810       15.826692
  C           13.289814       13.104556       18.259931
  S          -12.732722       -2.500097       18.107144
  S          -11.398308       -4.767350       17.057714
  F          -10.858326       -0.729134       17.422293
  F          -11.638116       -0.486853       19.433524
  F          -10.242566       -2.088378       18.995662
  F           -9.140185       -5.395847       15.844158
  F          -10.389375       -4.054040       14.685045
  F           -9.272314       -3.298692       16.383967
  O          -13.016033       -3.170294       19.348436
  O          -13.696307       -1.574169       17.573981
  O          -12.062687       -5.841131       16.366001
  O          -10.775235       -5.039444       18.326651
  N          -12.217432       -3.419744       16.936341
  C          -11.277633       -1.396656       18.508969
  C           -9.975404       -4.343760       15.926044
  S          -18.947253      -10.448898       16.920543
  S          -17.692531       -8.006075       17.613861
  F          -16.695674      -11.855367       16.654219
  F          -18.151945      -12.174435       15.076470
  F          -16.974520      -10.353356       15.115259
  F          -15.272776       -7.002477       17.937006
  F          -15.732902       -8.593443       19.337568
  F          -15.266199       -9.067952       17.273170
  O          -19.798900       -9.803905       15.956741
  O          -19.461391      -11.557193       17.680443
  O          -18.195838       -7.100449       18.613558
  O          -17.670064       -7.579653       16.239046
  N          -18.169459       -9.487410       17.896572
  C          -17.609376      -11.243769       15.883917
  C          -15.891669       -8.190143       18.069683
  S           -7.532375       -8.696730       17.166038
  S           -6.132494       -6.467285       18.211176
  F           -9.733507       -7.351760       16.484300
  F          -10.103713       -9.245360       17.478809
  F           -9.445105       -7.526773       18.626352
  F           -6.476658       -3.883299       18.625198
  F           -6.536434       -4.428686       16.526759
  F           -8.230636       -4.865190       17.808888
  O           -7.215224       -9.505771       18.312817
  O           -7.598179       -9.314440       15.868268
  O           -4.722845       -6.243777       18.021957
  O           -6.621541       -6.730499       19.539336
  N           -6.731243       -7.346019       17.040251
  C           -9.300621       -8.164985       17.460796
  C           -6.892071       -4.823724       17.756742
  S           27.305537       -3.827831       14.749603
  S           27.885665       -1.251509       13.725681
  F           24.766343       -3.889437       13.932665
  F           25.079011       -4.589045       15.963578
  F           25.137117       -2.465613       15.525599
  F           26.693364        0.725611       12.446515
  F           26.782765       -1.108810       11.292666
  F           25.361373       -0.920101       12.920162
  O           27.899722       -3.518144       16.022895
  O           27.428809       -5.161369       14.223691
  O           29.132153       -0.899421       13.097052
  O           27.539868       -0.630756       14.977698
  N           27.598584       -2.801097       13.591157
  C           25.467607       -3.672964       15.056780
  C           26.605312       -0.614979       12.525561
  S           -0.628649       -4.231120        0.710071
  S           -2.532304       -2.294274        1.514510
  F           -2.328686       -6.286506        0.647152
  F           -0.423952       -6.718424        1.594389
  F           -1.919835       -5.552004        2.646037
  F           -5.090316       -2.119809        2.141396
  F           -4.752686       -2.739435        0.090413
  F           -4.445682       -4.146455        1.712373
  O            0.318416       -3.795393        1.701758
  O           -0.147529       -4.686678       -0.567071
  O           -2.569989       -0.947015        1.008206
  O           -2.221020       -2.505238        2.904134
  N           -1.857896       -3.274763        0.472612
  C           -1.376623       -5.778808        1.445956
  C           -4.301504       -2.865433        1.345781
  S           -4.760799       -4.557839        4.910291
  S           -3.044938       -6.468199        6.105594
  F           -6.960782       -6.065067        4.994137
  F           -6.649770       -5.024650        3.114609
  F           -5.466401       -6.777969        3.593855
  F           -3.115822       -8.933598        7.045611
  F           -4.389651       -7.563036        8.142600
  F           -5.000951       -8.284118        6.190405
  O           -3.819201       -4.287023        3.856590
  O           -5.568046       -3.482919        5.423125
  O           -2.018737       -6.139354        7.060393
  O           -2.656558       -6.985211        4.819391
  N           -4.205223       -5.393441        6.124853
  C           -6.025547       -5.679720        4.111464
  C           -3.949203       -7.884530        6.918657
  S           16.860964       -4.662086       17.938001
  S           14.194119       -3.906567       17.355307
  F           17.937526       -3.615788       15.732334
  F           18.652996       -5.603499       16.231261
  F           16.684926       -5.345613       15.356983
  F           12.810142       -2.688429       15.466499
  F           14.276470       -1.403020       16.416273
  F           14.915024       -2.904712       14.987328
  O           16.467716       -6.004890       18.273365
  O           17.936608       -4.043508       18.666323
  O           13.262660       -3.424166       18.341484
  O           13.933405       -5.168083       16.712608
  N           15.686475       -3.621779       17.795205
  C           17.563612       -4.812706       16.211754
  C           14.052927       -2.650578       15.981511
  S            2.120285       -9.718433       -2.195425
  S            1.489248       -7.019593       -2.778909
  F            4.739717       -9.499569       -2.652991
  F            3.818670      -11.270470       -3.505870
  F            3.523985       -9.335880       -4.441117
  F            2.673846       -4.796916       -3.568393
  F            3.385300       -5.509389       -1.647278
  F            4.015189       -6.499363       -3.471532
  O            1.038636      -10.206928       -3.008838
  O            2.465684      -10.424049       -0.990058
  O            0.533283       -6.240046       -2.036407
  O            1.206004       -7.339786       -4.153575
  N            2.098444       -8.173916       -1.885513
  C            3.635936       -9.958797       -3.263766
  C            2.981504       -5.901199       -2.863347
  S           16.437294       -8.860295        3.601018
  S           15.328383      -10.714623        5.432463
  F           18.872531       -8.812118        4.690050
  F           18.079290       -6.861092        4.164609
  F           17.345070       -7.893524        5.925055
  F           16.018148      -12.087805        7.578492
  F           17.158093      -12.628452        5.814210
  F           17.586908      -10.774885        6.855899
  O           15.309449       -7.975635        3.725824
  O           17.091644       -8.987156        2.325936
  O           14.418632      -11.766042        5.058644
  O           14.852450       -9.654125        6.281751
  N           16.248339      -10.298894        4.214847
  C           17.755271       -8.068232        4.664926
  C           16.603656      -11.599547        6.469453
  S          -17.638737        1.062212       -0.401116
  S          -15.385181        0.805216       -2.097536
  F          -18.851653       -1.174232       -1.204761
  F          -20.160510        0.547881       -1.022987
  F          -18.808037        0.385341       -2.710756
  F          -14.437169       -0.805783       -3.961082
  F          -14.638776       -1.762651       -2.025050
  F          -16.397963       -1.387156       -3.237063
  O          -17.825672        2.442065       -0.763461
  O          -17.926348        0.645384        0.945598
  O          -14.039688        1.127735       -1.699417
  O          -16.014543        1.596604       -3.122263
  N          -16.271394        0.418302       -0.845872
  C          -18.930463        0.151585       -1.400381
  C          -15.211481       -0.888295       -2.863441
  S            9.289099        7.328201       17.723930
  S           11.538524        5.903429       16.758263
  F            7.871591        5.177334       18.419007
  F            6.741130        6.702848       17.367015
  F            8.103746        5.415384       16.276199
  F           12.355190        3.417186       16.414030
  F           12.018497        3.926420       18.495323
  F           10.331306        3.559627       17.182478
  O            9.250683        8.170762       16.558233
  O            8.933595        7.883357       19.002805
  O           12.901549        6.316252       16.969479
  O           11.013579        5.901287       15.417784
  N           10.592591        6.460437       17.896987
  C            7.931874        6.077313       17.424687
  C           11.554588        4.102876       17.250718
  S           -1.489368       18.579672        5.473242
  S           -1.725754       18.692940        8.293472
  F           -2.924609       20.774719        4.982788
  F           -3.388741       19.086614        3.699548
  F           -4.095684       19.118661        5.749760
  F           -2.867545       20.164129       10.163970
  F           -1.389274       21.249431        9.005826
  F           -3.334937       20.819073        8.149149
  O           -1.828221       17.181620        5.443833
  O           -0.527939       19.088441        4.531484
  O           -0.654093       18.378851        9.202186
  O           -2.888483       17.844391        8.271467
  N           -1.163505       19.173858        6.895498
  C           -3.067600       19.440095        4.958282
  C           -2.360532       20.329624        8.928360
  S           15.057817      -11.438892        2.199345
  S           12.899348      -13.266765        2.050031
  F           15.434989      -11.234077       -0.433995
  F           17.256979      -11.455768        0.724896
  F           15.975494      -13.170841        0.377786
  F           11.496413      -14.587554        0.246108
  F           11.303201      -12.434287        0.071241
  F           13.112797      -13.418918       -0.607417
  O           15.722984      -12.218666        3.209166
  O           15.148205      -10.003788        2.248425
  O           11.741082      -13.212731        2.903478
  O           13.790588      -14.391989        2.159665
  N           13.563416      -11.838949        1.901394
  C           15.975828      -11.857220        0.624992
  C           12.165594      -13.423755        0.340727
  S            8.201948       -4.021322       15.214135
  S            9.849572       -3.040299       13.129590
  F            6.749734       -1.800509       15.492979
  F            7.399669       -2.695206       17.360845
  F            8.807991       -1.585307       16.140633
  F           10.225169       -0.839066       11.722341
  F            8.261462       -1.713841       11.434087
  F            8.707954       -0.629757       13.258947
  O            9.331924       -4.530527       15.944957
  O            6.960419       -4.747725       15.246481
  O           10.269045       -3.827841       11.999682
  O           10.842810       -2.591294       14.069979
  N            8.490194       -3.583686       13.728388
  C            7.772109       -2.428849       16.094814
  C            9.213047       -1.470354       12.345453
  S           -3.748314       15.239377       -0.061760
  S           -5.672558       14.222834       -1.874582
  F           -2.837057       17.163846       -1.669467
  F           -1.291625       16.040794       -0.638829
  F           -2.328756       15.161513       -2.328618
  F           -6.549474       14.640651       -4.328823
  F           -6.872380       16.329076       -3.006168
  F           -4.887104       15.921782       -3.779151
  O           -3.253146       13.922561        0.239964
  O           -3.785339       16.230750        0.980312
  O           -6.986422       13.780368       -1.486182
  O           -4.738108       13.255854       -2.388596
  N           -5.108265       15.292617       -0.855330
  C           -2.485935       15.937340       -1.251539
  C           -6.010877       15.352526       -3.321683
  S            9.237728        9.873307        8.273633
  S            8.125409       10.739508       10.730225
  F            8.458727        7.330973        8.493604
  F           10.506032        7.593449        7.821688
  F           10.000831        7.897593        9.908895
  F            6.801604        9.770067       12.797729
  F            5.704779        9.618840       10.932636
  F            7.345273        8.259217       11.338735
  O           10.492232       10.522678        8.547071
  O            8.752270        9.826749        6.920021
  O            7.468660       12.007886       10.911246
  O            9.362034       10.492667       11.424691
  N            8.043631       10.266659        9.223087
  C            9.565572        8.072845        8.657276
  C            6.923924        9.523575       11.480359
  S           15.183853       -5.199260        3.004180
  S           14.751107       -5.956303        0.309367
  F           14.605977       -2.616482        2.666531
  F           16.377279       -2.996947        3.862171
  F           16.450908       -3.231432        1.707232
  F           14.088105       -4.877801       -2.006688
  F           12.529645       -4.709681       -0.507553
  F           14.275961       -3.427330       -0.404267
  O           16.435879       -5.905931        3.061463
  O           14.348418       -5.156185        4.174776
  O           14.114794       -7.185497       -0.086938
  O           16.140227       -5.758447       -0.012586
  N           14.279888       -5.511364        1.752184
  C           15.682043       -3.410267        2.785925
  C           13.855173       -4.665334       -0.698336
  S           20.244887       -7.210756       14.262628
  S           23.023719       -7.279365       14.806491
  F           20.088843       -9.688396       13.285060
  F           19.020042       -8.192878       12.130542
  F           21.182319       -8.314589       12.012600
  F           25.087327       -8.906451       14.559595
  F           23.551563       -9.668400       15.888251
  F           23.249141       -9.717515       13.740965
  O           20.344285       -5.927100       13.620302
  O           19.069694       -7.520781       15.032633
  O           23.626816       -6.701013       15.978948
  O           23.331820       -6.716451       13.517826
  N           21.514343       -7.667764       15.076064
  C           20.139693       -8.422112       12.842107
  C           23.757776       -8.994753       14.748486
  S           12.193575       16.810888       11.511108
  S           11.163658       14.934273       13.365828
  F           11.615339       15.392750        9.326339
  F           13.596321       16.280176        9.329079
  F           13.190638       14.526157       10.538626
  F           10.034347       12.548903       13.404786
  F            8.846473       14.040799       12.371508
  F           10.602019       13.199912       11.414599
  O           13.411138       16.969826       12.261117
  O           11.636110       17.948573       10.829192
  O           10.427875       15.296054       14.549300
  O           12.452673       14.310466       13.513352
  N           11.030346       16.047919       12.250589
  C           12.672868       15.678662       10.102325
  C           10.098662       13.614601       12.585436
  S            4.111625      -12.078972        2.042865
  S            1.572626      -12.157944        3.295720
  F            3.431279      -13.567201       -0.064501
  F            5.343544      -14.081272        0.824764
  F            3.498621      -14.672254        1.800039
  F           -0.820891      -13.211387        2.937694
  F           -0.259048      -11.814394        1.376539
  F            0.613944      -13.799507        1.420370
  O            4.790574      -12.401198        3.269826
  O            4.736606      -11.178499        1.110850
  O            0.971719      -11.033026        3.963807
  O            1.946900      -13.309226        4.074775
  N            2.593931      -11.681268        2.186011
  C            4.084110      -13.694420        1.101644
  C            0.206225      -12.776737        2.184503
  S            2.358716       12.750468       12.268017
  S            2.421368       13.826545       14.887279
  F            0.491001       10.911018       12.764764
  F            2.180581       10.192858       11.606581
  F            2.386629       10.516919       13.741222
  F            1.303795       13.451290       17.248859
  F           -0.115287       14.026895       15.712842
  F            0.672425       12.006468       15.758634
  O            3.793996       12.672031       12.204367
  O            1.620055       13.070366       11.075478
  O            2.545245       15.231771       15.175142
  O            3.491503       12.942645       15.269364
  N            1.772914       13.592596       13.463723
  C            1.823761       10.995136       12.627130
  C            0.982188       13.296089       15.951298
  S           21.916204        5.596820        9.214684
  S           23.455230        7.961764        8.968024
  F           23.863828        4.102030       10.259221
  F           22.711949        3.124338        8.700659
  F           24.185858        4.628001        8.180317
  F           25.911153        8.824331        9.405368
  F           24.888627        8.201507       11.213957
  F           25.651591        6.713210        9.832809
  O           21.410148        5.718075        7.873253
  O           21.060070        5.066336       10.242169
  O           22.948739        9.281407        9.241667
  O           23.828475        7.627448        7.618440
  N           22.656986        6.865935        9.782704
  C           23.253714        4.297168        9.079411
  C           25.062172        7.913928        9.916818
