         874
  Built with Packmol                                             
  Ti          -2.868335        2.115442       11.265214
  Ti           7.802788        5.383210        1.844391
  Ti           1.352572       -1.673500        9.417113
  Ti           2.511792        7.542652        3.648414
  Ti           1.444672        9.187418        1.751989
  Ti           3.259458       -1.864257       11.359530
  Ti          -1.869782        0.416024        9.366140
  Ti           5.815984        5.614284        3.703281
  H            3.746896        1.652626        8.583439
  H           -7.024875       10.142785        6.478257
  H            4.431630       11.010612        4.650438
  H           -2.503694        6.028051       11.048460
  H            8.748737        1.507342        2.155250
  H           -6.801542        1.221893       10.903644
  H           11.114246        7.503838        2.029089
  H            4.372721       -5.862020       10.962653
  H           -2.589143        8.456181        2.095703
  H            4.656966        3.204147        6.826953
  H           -0.045224        3.670268        8.406030
  H           12.440918       -1.828167        6.378540
  H           -2.327232        0.331938       12.984230
  H            5.927385        5.077403        0.154584
  H            3.761426       -2.506617        5.844726
  H            0.745560        9.314262        7.279431
  H           -6.059913        3.661213        9.037490
  H           10.641247        3.393379        4.132134
  H           -3.728587        2.298708        5.688870
  H           -1.703972       10.903386        4.124923
  H            1.733452       12.300945        2.609537
  H            8.667985       -0.517063        3.355831
  H            4.606680        7.297451        2.297825
  H            0.215487        0.134620       10.719246
  H            7.415332        0.218685        9.728366
  H            5.955496       -0.302534       10.483299
  H            7.828656        4.670987        8.632537
  H            7.237651        5.011538        7.017709
  H            7.098177       -4.749977        9.534320
  H            5.784030       -3.695029       10.000157
  H            1.411485        1.911548        9.356085
  H            0.863759        5.227040        6.648574
  H            5.741023        9.069333        3.845371
  H            7.999135        8.609993        4.744623
  C            8.422325        4.659191        4.703706
  C           -3.853328        2.346718        8.423899
  C            3.961595       -2.592630        8.476524
  C            0.513540        9.443357        4.621320
  C            9.344336        4.085192        5.693105
  C           -4.811926        2.940026        7.452907
  C            4.917315       -3.172748        7.523270
  C           -0.392661       10.057561        5.626884
  C            9.101042        4.149763        7.100999
  C           -4.599256        2.829342        6.063538
  C            6.075072       -3.893771        7.969088
  C           -1.516055       10.792469        5.189090
  C           -0.124811        9.894234        6.980095
  C            4.657405       -3.047644        6.140915
  C           10.498947        3.426687        5.210054
  C           -5.932679        3.593124        7.958691
  C            2.813684        4.307411        6.639567
  C            1.802100        2.580168        8.590925
  C            6.161473        9.726276        4.605129
  C           -1.730084       -2.944720        6.528234
  C            8.715175        1.588330        0.011262
  C            1.839040       13.147429        0.088587
  C            6.684170        0.195343       12.990012
  C           -6.719779        1.271810       13.046845
  C            3.350517        5.224492        5.605606
  C           -1.145018       -2.033515        7.540248
  C            4.215985       -4.201651       13.101266
  C            1.796086       11.711651        0.049701
  C            5.408882       -0.466276       13.043122
  C           -5.332575        1.734605       13.064020
  C            1.482906        4.442604        7.078738
  C            3.125222        2.436827        8.154613
  C            5.424120       10.827594        5.058747
  C           -8.018869       10.319594        6.073436
  C            8.784652        0.919515        1.239780
  C           -2.508142        6.615249       11.963065
  C           -4.360552        7.730507        1.110303
  C           -7.351366        1.022025       11.821932
  C            7.441371        9.469644        5.112723
  C           12.991193       -2.694552        6.017481
  C            3.632637        3.298056        7.181208
  C            0.980621        3.578705        8.052889
  C            7.361766        0.489528       11.753548
  C           -3.089201        8.254946        1.152479
  C            4.438003       -6.388560       11.910676
  C            8.855538       -0.479663        1.318796
  N            8.938305       -1.077634        2.555968
  N            6.782516        0.288157       10.517426
  N            8.001283        4.757340        7.639127
  N            6.418775       -4.042078        9.284423
  O            7.234665        5.022637        5.076604
  O           -3.053924        1.423703        8.020113
  O            4.345224       -2.456407        9.695708
  O            0.426054        9.871897        3.422680
  O            1.318961        8.513079        5.002228
  O            2.776776       -2.264724        8.078087
  O            8.824398        4.755701        3.489805
  O           -3.903766        2.779752        9.624467
  O            6.156697        4.409127        2.505218
  O           -1.367975        1.993658       10.109628
  O            7.017801        6.727170        2.953185
  O           -3.056279        0.208461       10.609657
  O            1.659621       -2.837312       10.674383
  O            2.969458        9.121937        2.909279
  O            2.531624       -0.543378       10.208048
  O            1.322575        7.306972        2.398893
  O            4.575167        5.087631        5.244337
  O           -1.836144       -1.022528        7.923516
  O            4.066391       -3.610049       11.962095
  O            1.743514       11.006429        1.144350
  O            4.771026       -0.795498       11.956418
  O           -0.427504        9.094025        1.094098
  O            0.028867       -2.288059        7.991258
  O            2.574295        6.119616        5.117796
  O            9.199419        6.452785        1.083295
  O           -4.748114        1.988975       11.944029
  O            8.500254        3.672420        1.113292
  O           -2.542975        3.849240       12.015231
  O            4.269171        6.735574        3.019668
  O           -0.147093       -0.436062       10.017030
  O            6.748057        5.600086        0.071530
  O           -2.238358        1.302347       13.044892
  S            0.771171       -8.003709       -2.296821
  S            3.179331       -9.351369       -2.934771
  F           -0.775005      -10.178109       -2.293354
  F           -1.626046       -8.466257       -3.321515
  F           -0.051017       -9.624264       -4.260913
  F            4.046632      -11.785851       -3.471365
  F            3.237340      -11.588271       -1.468748
  F            1.900045      -11.683109       -3.173846
  O            1.006814       -6.991828       -3.292212
  O            0.130014       -7.637244       -1.062024
  O            4.457221       -9.029726       -2.354760
  O            2.979955       -9.127673       -4.342842
  N            1.996427       -8.938379       -1.969413
  C           -0.482989       -9.139645       -3.092471
  C            3.075573      -11.205296       -2.742542
  S           24.913352        4.363403       -3.085977
  S           23.050213        2.366553       -3.836781
  F           26.770402        2.683049       -2.165939
  F           26.400369        4.403845       -0.895601
  F           24.982060        2.763603       -0.942201
  F           22.778071       -0.258399       -3.787638
  F           24.435750        0.406719       -5.018160
  F           24.611045        0.434354       -2.856397
  O           23.900851        5.137985       -2.418822
  O           25.977572        5.044316       -3.774377
  O           22.253923        2.421323       -5.035027
  O           22.389617        2.444444       -2.560065
  N           24.386553        3.196087       -4.003535
  C           25.810611        3.494656       -1.694383
  C           23.771206        0.645182       -3.879342
  S           25.922284        1.769998       13.030045
  S           25.083031        4.431481       12.545724
  F           28.483780        2.361750       13.485301
  F           28.168863        0.638733       12.203170
  F           27.876054        2.641002       11.422565
  F           26.084640        6.870202       12.418196
  F           26.265963        5.972866       14.384506
  F           27.582185        5.342620       12.779806
  O           25.240327        1.281651       11.860992
  O           25.982644        0.941083       14.204506
  O           23.831962        4.975154       13.006286
  O           25.297069        4.285129       11.129664
  N           25.559201        3.238832       13.469082
  C           27.713285        1.869812       12.502142
  C           26.329061        5.718668       13.070432
  S           10.139136       19.482316       10.771135
  S            7.683617       20.749342       11.393609
  F            9.908756       17.524726       12.569316
  F           11.871320       18.448438       12.486137
  F           10.224115       19.483018       13.445576
  F            5.652373       20.501698       13.060812
  F            5.863022       18.815490       11.712926
  F            7.219721       19.038278       13.390556
  O           10.854507       20.730506       10.793503
  O           10.527271       18.468110        9.827292
  O            6.798834       21.313560       10.407866
  O            8.328363       21.629591       12.332716
  N            8.567748       19.595436       10.770272
  C           10.549538       18.694474       12.416493
  C            6.546103       19.706634       12.444124
  S           16.570390        1.302366        1.253414
  S           18.490268        3.384747        1.240903
  F           17.878631       -0.275439        2.961550
  F           17.052376       -1.301091        1.236105
  F           18.841951       -0.093613        1.027347
  F           20.839970        3.967633        2.292565
  F           19.271301        3.745503        3.773917
  F           20.124496        1.990436        2.827074
  O           16.479556        1.300074       -0.182545
  O           15.389087        1.039241        2.031484
  O           18.155768        4.785013        1.225528
  O           19.158337        2.817982        0.098573
  N           17.327836        2.529372        1.888068
  C           17.657227       -0.168793        1.641749
  C           19.743661        3.258371        2.618509
  S           12.790356      -12.327951       10.209874
  S           12.299854      -10.632726       12.425279
  F           15.183425      -11.314757        9.605432
  F           13.883776      -11.642306        7.897965
  F           13.537197       -9.957298        9.218871
  F           13.435203       -8.637740       13.728299
  F           14.581598      -10.477053       13.812985
  F           14.568393       -9.290616       11.997246
  O           11.479583      -12.091221        9.665755
  O           13.386859      -13.628878       10.061970
  O           11.676173      -11.068970       13.647401
  O           11.610238       -9.679404       11.595782
  N           13.014478      -11.837076       11.690032
  C           13.911519      -11.239978        9.182431
  C           13.814244       -9.717277       13.019701
  S           -7.321811       -6.703501       15.934553
  S           -4.621763       -6.017520       16.445995
  F           -8.184665       -4.203565       15.581714
  F           -9.474971       -5.438858       16.814995
  F           -7.623710       -4.653444       17.627473
  F           -3.090419       -3.878397       16.660439
  F           -3.947569       -4.121883       14.682947
  F           -5.180945       -3.409479       16.318788
  O           -7.371595       -7.587892       17.068399
  O           -8.056246       -7.045301       14.745485
  O           -3.495776       -6.767671       15.953760
  O           -4.858875       -5.972261       17.865215
  N           -5.885332       -6.211365       15.514569
  C           -8.190451       -5.157148       16.526655
  C           -4.195678       -4.257482       15.992697
  S            0.039274       16.669444        8.879234
  S           -1.749568       18.429292        7.565699
  F           -1.639366       14.598923        8.996716
  F           -0.544228       14.979125       10.831911
  F           -2.206150       16.256518       10.274732
  F           -4.229135       18.480244        6.662371
  F           -2.983943       17.013690        5.660782
  F           -3.716491       16.625947        7.665212
  O            0.402814       17.669919        9.847284
  O            1.037305       15.738466        8.423911
  O           -1.357211       19.343211        6.524700
  O           -2.211089       18.963052        8.820512
  N           -0.770988       17.188424        7.631760
  C           -1.165226       15.569706        9.793610
  C           -3.247563       17.578245        6.847025
  S           19.954231       -7.097009       10.118612
  S           19.467214       -5.931737        7.583389
  F           17.515407       -6.652476       11.105132
  F           19.139684       -6.185623       12.467333
  F           18.684921       -4.848649       10.821168
  F           17.538386       -4.702664        6.265872
  F           17.042286       -6.745494        6.799909
  F           17.007360       -5.190802        8.312001
  O           21.197300       -6.388247       10.269172
  O           19.840570       -8.432773       10.641029
  O           19.963795       -6.469848        6.343747
  O           19.956184       -4.653782        8.030824
  N           19.319866       -7.065015        8.676873
  C           18.751842       -6.134769       11.179123
  C           17.658620       -5.635568        7.228378
  S           12.843733        2.123031       -3.886347
  S           13.736966       -0.039852       -2.290580
  F           14.794308        1.958668       -5.699338
  F           14.347245        3.975892       -5.033934
  F           15.467084        2.632546       -3.751146
  F           15.706439       -1.794345       -2.191683
  F           14.469127       -1.996339       -3.961632
  F           15.900850       -0.373181       -3.819383
  O           12.666071        2.971472       -2.737949
  O           11.928661        2.236667       -4.990807
  O           12.858176       -0.999609       -1.674572
  O           14.500573        0.843116       -1.448126
  N           13.072845        0.595126       -3.578013
  C           14.460997        2.697045       -4.628838
  C           15.021182       -1.107655       -3.124455
  S            0.449640      -11.006535       15.065626
  S           -0.163923       -8.489806       16.211057
  F            0.301607      -10.202694       12.525819
  F           -0.677661      -12.096799       12.932291
  F           -1.612686      -10.237806       13.543876
  F           -0.778765       -6.032501       15.469119
  F            1.201301       -6.647921       14.832675
  F           -0.551876       -7.403229       13.802825
  O           -0.490497      -11.686904       15.916199
  O            1.676567      -11.666866       14.706856
  O            0.474100       -7.968023       17.391540
  O           -1.566619       -8.809383       16.263727
  N            0.777220       -9.517637       15.463027
  C           -0.439415      -10.867396       13.426555
  C           -0.058871       -7.069954       15.003686
  S           17.805787       18.708469       -2.433130
  S           20.123648       17.452332       -3.468525
  F           16.333229       16.489571       -2.269567
  F           15.294031       18.203984       -3.101839
  F           16.738334       17.121055       -4.304095
  F           20.961465       15.061291       -4.208682
  F           20.458347       15.177027       -2.102039
  F           18.882288       15.091174       -3.589781
  O           17.863148       19.755090       -3.418791
  O           17.348901       19.020006       -1.104859
  O           21.465786       17.795296       -3.076212
  O           19.708848       17.710269       -4.822728
  N           19.089607       17.801873       -2.323833
  C           16.475196       17.558808       -3.068845
  C           20.096917       15.591379       -3.323952
  S          -11.514894        8.481551        1.332143
  S          -12.484361       10.913167        0.250581
  F          -13.881671        7.253615        1.428244
  F          -12.664259        7.009071        3.208673
  F          -13.686699        8.886364        2.841860
  F          -14.761421       12.027183       -0.484821
  F          -14.249605       10.274272       -1.655211
  F          -15.007391       10.045909        0.364274
  O          -10.745418        9.168285        2.335405
  O          -10.994062        7.270660        0.755446
  O          -11.792146       11.677317       -0.754299
  O          -12.647830       11.480058        1.563733
  N          -12.088648        9.383648        0.174955
  C          -13.028926        7.883310        2.252004
  C          -14.222063       10.795826       -0.421270
  S            6.436130       13.067219        7.314828
  S            7.280507       15.452923        8.586773
  F            6.093427       11.660366        9.555812
  F            7.118223       10.593438        7.967329
  F            8.168889       12.105961        9.112989
  F            7.758434       16.386568       11.008909
  F            5.687623       15.817599       10.704802
  F            7.200944       14.289969       10.989261
  O            7.518449       13.121224        6.368307
  O            5.157717       12.561501        6.890547
  O            6.888474       16.771438        8.161689
  O            8.664098       15.070775        8.476785
  N            6.203792       14.374867        8.162254
  C            6.990326       11.792645        8.565690
  C            6.953644       15.479955       10.424487
  S          -15.723032       14.957556        1.032513
  S          -15.495129       17.712243        0.414319
  F          -18.362272       14.974926        1.423417
  F          -17.235305       13.873325        2.916147
  F          -17.246675       16.041995        2.946243
  F          -17.005219       19.869160        0.229427
  F          -17.540615       18.325416       -1.196991
  F          -18.092284       18.111569        0.889787
  O          -14.614107       15.012666        1.947653
  O          -15.923043       13.771253        0.243347
  O          -14.630661       18.236100       -0.610931
  O          -15.220050       18.040295        1.788790
  N          -15.905068       16.216623        0.103175
  C          -17.228181       14.974625        2.141822
  C          -17.130532       18.539899        0.060473
  S           -4.885958       16.534416       -5.148620
  S           -3.901144       13.894854       -4.856634
  F           -2.889534       17.725419       -3.839234
  F           -4.869257       18.446488       -3.317145
  F           -4.178555       16.531827       -2.568033
  F           -1.879272       12.607571       -3.751289
  F           -1.266064       13.987338       -5.308430
  F           -1.856459       14.741861       -3.362450
  O           -6.209712       16.146901       -4.739057
  O           -4.732464       17.550809       -6.155341
  O           -3.965543       12.894993       -5.890559
  O           -4.665479       13.698669       -3.652574
  N           -3.897553       15.351346       -5.473363
  C           -4.159751       17.345476       -3.628379
  C           -2.123274       13.815088       -4.293092
  S           23.514253      -13.003220       16.276805
  S           22.358985      -13.047620       13.691117
  F           21.349149      -12.083666       17.535946
  F           23.208152      -11.127264       18.120088
  F           22.280108      -10.629626       16.223973
  F           20.087768      -12.449624       12.486617
  F           19.886142      -14.033465       13.954697
  F           20.090609      -11.973812       14.603337
  O           24.700960      -12.345676       15.797644
  O           23.627329      -13.970734       17.335688
  O           22.589445      -14.091453       12.726663
  O           22.841833      -11.721397       13.407484
  N           22.558353      -13.582153       15.166333
  C           22.525809      -11.631040       17.074569
  C           20.500601      -12.871137       13.696195
  S           -9.807595      -13.652868       -2.644923
  S           -9.433393      -12.251439       -5.077692
  F          -10.179266      -11.489137       -1.128736
  F           -8.861272      -12.981907       -0.264821
  F           -8.150770      -11.701822       -1.865050
  F           -9.337191       -9.774191       -5.983692
  F          -11.268219      -10.306113       -5.151432
  F           -9.595797       -9.894521       -3.832982
  O           -8.652493      -14.478828       -2.876792
  O          -10.954408      -14.219525       -1.986272
  O           -9.957984      -12.688916       -6.345087
  O           -8.006418      -12.222702       -4.889608
  N          -10.302659      -12.808569       -3.879477
  C           -9.213195      -12.376409       -1.414610
  C           -9.945899      -10.458215       -4.997401
  S          -15.353310        6.758696       11.449714
  S          -13.386124        7.938731       13.111068
  F          -14.445529        4.259582       11.671204
  F          -14.976414        4.852073        9.651566
  F          -13.134286        5.568561       10.544524
  F          -11.251405        7.256918       14.505683
  F          -13.074703        6.326629       15.223047
  F          -12.128626        5.602134       13.410658
  O          -15.176541        7.760281       10.431965
  O          -16.667503        6.222705       11.685747
  O          -13.658168        8.993060       14.053009
  O          -12.540153        8.219055       11.980489
  N          -14.680191        7.070747       12.839530
  C          -14.414326        5.278842       10.798046
  C          -12.415438        6.703147       14.118967
  S            0.329459       -1.367915       -2.318279
  S           -1.566360        0.734342       -2.412037
  F            2.359961        0.124022       -1.440853
  F            2.872573       -1.245512       -3.045043
  F            1.765878        0.568772       -3.478364
  F           -1.721978        3.330939       -1.964473
  F           -1.239056        2.184248       -0.187861
  F            0.277020        2.530348       -1.699959
  O           -0.029495       -1.826970       -3.633822
  O            0.702257       -2.331139       -1.316619
  O           -2.945008        0.590065       -2.022959
  O           -1.259200        1.005291       -3.792145
  N           -0.652171       -0.320813       -1.668636
  C            1.916234       -0.415956       -2.587063
  C           -1.024420        2.274688       -1.507385
  S           16.178838        9.681172       -1.196667
  S           15.489805        7.189699       -2.354335
  F           18.462186        8.855122       -0.090929
  F           17.223898       10.081659        1.202929
  F           16.689906        8.012548        0.831721
  F           16.398119        4.716020       -2.505095
  F           17.726459        6.171614       -3.411311
  F           17.613333        6.004120       -1.251714
  O           14.857361        9.860319       -0.656444
  O           16.907699       10.830555       -1.663338
  O           14.899522        7.046829       -3.659718
  O           14.715920        6.819687       -1.198198
  N           16.333341        8.523947       -2.254502
  C           17.194553        9.114106        0.267262
  C           16.894717        5.960794       -2.382160
  S           -5.883232       12.161715       -1.353631
  S           -6.043444       10.185354        0.668924
  F           -8.464558       12.086979       -2.024349
  F           -7.094668       12.125607       -3.707717
  F           -7.367705       10.298272       -2.571733
  F           -7.815050        8.572513        1.776625
  F           -8.272063       10.672957        2.065997
  F           -8.622829        9.742884        0.138139
  O           -4.718873       11.550916       -1.937948
  O           -6.000434       13.595710       -1.358725
  O           -5.335088       10.257972        1.920255
  O           -5.700036        9.143943       -0.263809
  N           -6.291936       11.628614        0.071437
  C           -7.284478       11.628552       -2.471028
  C           -7.790737        9.782527        1.188018
  S           14.024950        7.213766        7.572545
  S           11.299409        7.805748        7.079207
  F           14.735720        9.697724        8.238465
  F           16.116980        8.690999        6.900390
  F           14.238324        9.464187        6.140788
  F            9.651307        9.867448        7.080592
  F           10.485571        9.438067        9.036122
  F           11.704860       10.406973        7.526398
  O           14.145934        6.474659        6.344002
  O           14.756495        6.773955        8.730782
  O           10.209943        6.941405        7.451828
  O           11.558859        8.032548        5.681457
  N           12.555195        7.572453        8.012112
  C           14.813399        8.865121        7.188224
  C           10.764473        9.473153        7.726019
  S           23.547839        7.722780       13.843324
  S           22.263408        8.257396       11.376175
  F           21.436045        8.262505       15.382062
  F           23.307840        9.103564       16.089751
  F           22.277269       10.008579       14.409562
  F           19.925210        9.061565       10.452599
  F           19.822172        7.171991       11.512484
  F           20.028545        9.025877       12.619384
  O           24.698693        8.505837       13.479195
  O           23.729046        6.536632       14.637251
  O           22.460114        7.476285       10.182842
  O           22.711338        9.625446       11.392130
  N           22.545481        7.396245       12.672551
  C           22.580832        8.842021       14.987232
  C           20.405256        8.378383       11.508062
  S           24.784636        1.960356        3.242454
  S           23.431067       -0.102323        4.633714
  F           26.800279        0.440585        2.378643
  F           27.398949        2.372815        3.165980
  F           26.818538        0.781087        4.520117
  F           23.697975       -2.667388        5.195901
  F           23.495943       -2.273694        3.072542
  F           25.370294       -1.852486        4.079570
  O           24.669545        2.864800        4.355544
  O           24.702377        2.481316        1.903821
  O           21.999319       -0.252742        4.652146
  O           24.110857        0.222438        5.860447
  N           23.906633        0.655118        3.329161
  C           26.547487        1.344368        3.338611
  C           24.036914       -1.816416        4.209924
  S            8.564444       -7.323854        5.417260
  S           10.527438       -8.266940        7.228239
  F            6.529712       -8.689570        6.472425
  F            6.621865       -8.737418        4.304237
  F            7.996393       -9.937988        5.476187
  F           10.753272       -9.909282        9.282152
  F            9.423408       -8.239093        9.664765
  F            8.764933       -9.884684        8.414504
  O            9.408454       -7.579359        4.280335
  O            7.690471       -6.181069        5.399442
  O           11.574214       -7.444935        7.777273
  O           10.883563       -9.346212        6.344608
  N            9.272221       -7.394030        6.823028
  C            7.366928       -8.759896        5.425338
  C            9.816232       -9.116015        8.730910
  S           15.088968       20.029526       18.658304
  S           12.491240       19.020127       18.153012
  F           15.207403       21.593193       16.499691
  F           17.006472       20.439388       16.879037
  F           15.252383       19.473189       16.046095
  F           10.570331       19.206440       16.352388
  F           10.990513       21.084800       17.352226
  F           12.347944       20.337301       15.834551
  O           15.610049       18.715020       18.924352
  O           15.596118       21.149653       19.405445
  O           11.503134       18.798081       19.176346
  O           13.024787       17.885695       17.445305
  N           13.519006       20.140797       18.588365
  C           15.661283       20.400789       16.917342
  C           11.554137       19.976695       16.852406
  S           15.736484        3.333555        5.816895
  S           14.812678        1.059517        7.230307
  F           13.324339        4.209264        5.086566
  F           14.815831        4.250749        3.510003
  F           13.918817        2.368373        4.106818
  F           12.551051       -0.166888        7.820071
  F           12.681768        1.832363        8.650958
  F           12.283447        1.561329        6.536108
  O           16.733588        2.565813        5.119335
  O           16.032452        4.690171        6.193853
  O           15.378622        0.601749        8.472494
  O           14.941145        0.229369        6.061202
  N           15.047619        2.611543        7.036001
  C           14.365406        3.542819        4.562830
  C           12.978885        1.086029        7.578532
  S           25.294021       -6.327124       14.625553
  S           23.321424       -5.090804       16.238865
  F           27.070726       -6.689604       16.582750
  F           27.909433       -5.928264       14.731061
  F           26.785052       -4.610651       16.036369
  F           22.949551       -4.324040       18.736990
  F           23.207054       -6.467669       18.529602
  F           24.922857       -5.149792       18.374906
  O           25.176115       -5.317189       13.607534
  O           25.556219       -7.687457       14.237160
  O           21.908779       -5.337066       16.109789
  O           23.828960       -3.780143       15.927363
  N           24.163605       -6.326227       15.722920
  C           26.846842       -5.855947       15.554568
  C           23.623964       -5.279614       18.071235
  S            7.692539       -7.221820       -1.714811
  S            9.025028       -8.658151       -3.760251
  F            7.758787       -9.182242        0.093792
  F            5.850888       -8.158323       -0.058948
  F            6.442949       -9.584194       -1.582273
  F           10.061244      -11.045309       -4.201368
  F           11.055416       -9.962828       -2.606275
  F            9.113500      -10.864225       -2.258201
  O            6.663060       -6.779334       -2.617369
  O            8.132104       -6.340615       -0.665828
  O           10.001776       -8.076765       -4.643894
  O            7.775594       -9.114750       -4.310603
  N            8.959122       -7.872155       -2.389264
  C            6.895207       -8.624264       -0.769432
  C            9.862073      -10.215342       -3.160854
  S           20.358912       -7.139257        2.036949
  S           22.136902       -5.012359        1.456040
  F           18.346354       -6.241598        0.532785
  F           17.758140       -6.953178        2.497341
  F           18.734400       -5.027828        2.287314
  F           22.208478       -2.763691        0.075744
  F           21.941036       -4.521553       -1.166375
  F           20.281320       -3.757474        0.002486
  O           20.620368       -7.047979        3.448878
  O           20.123145       -8.431200        1.449240
  O           23.550066       -5.183517        1.240304
  O           21.695257       -4.273197        2.609750
  N           21.343825       -6.335437        1.106425
  C           18.711104       -6.281484        1.824154
  C           21.605414       -3.964744        0.005252
  S           -3.756157       20.909609        2.029587
  S           -6.501987       20.309683        2.380171
  F           -2.979604       18.402065        1.552224
  F           -1.697650       19.500371        2.916826
  F           -3.613855       18.745749        3.597168
  F           -8.126347       18.229249        2.390014
  F           -7.171610       18.559839        0.470730
  F           -6.043097       17.693198        2.107831
  O           -3.722088       21.717750        3.219538
  O           -2.955577       21.293779        0.897515
  O           -7.573463       21.137197        1.890243
  O           -6.331260       20.164817        3.802255
  N           -5.190842       20.507284        1.517854
  C           -2.978129       19.293006        2.556459
  C           -6.977677       18.601735        1.795880
  S           20.724408        1.890700        9.288918
  S           18.251539        2.982547        8.443227
  F           21.552642        4.058229       10.605936
  F           23.064798        3.127001        9.357729
  F           21.491038        4.314393        8.453548
  F           16.884709        5.235476        8.594664
  F           17.228676        4.312244       10.526967
  F           18.843383        5.353326        9.520200
  O           21.020406        1.393191        7.971685
  O           21.137587        1.127323       10.436368
  O           17.017184        2.242276        8.408056
  O           18.827090        3.432014        7.202591
  N           19.244850        2.381406        9.517331
  C           21.758023        3.442418        9.430835
  C           17.782756        4.556026        9.331578
  S           19.206155       18.658088        7.477891
  S           18.688039       20.365928        5.278519
  F           19.987755       16.560257        6.026376
  F           18.634475       16.078781        7.653839
  F           17.873420       17.007213        5.847468
  F           18.745018       20.329627        2.639905
  F           20.695941       20.037594        3.541614
  F           19.250423       18.420444        3.537957
  O           17.950346       18.983890        8.100009
  O           20.358294       18.419596        8.306023
  O           19.004358       21.770383        5.260702
  O           17.305923       19.965041        5.239765
  N           19.633273       19.582639        6.275879
  C           18.905380       16.986047        6.696775
  C           19.393760       19.746911        3.664971
  S           -4.385173        8.696236       17.685021
  S           -6.213761        6.553348       17.979464
  F           -3.733009        8.163003       15.153413
  F           -2.048855        8.629662       16.440921
  F           -3.009887        6.689619       16.570602
  F           -7.179966        4.522531       16.597771
  F           -7.670020        6.452456       15.737714
  F           -5.666222        5.649214       15.527223
  O           -3.735720        8.388539       18.931523
  O           -4.516292       10.071494       17.283053
  O           -7.460120        6.653839       18.693160
  O           -5.184052        5.691540       18.498542
  N           -5.757169        7.964786       17.430733
  C           -3.234800        7.994611       16.388606
  C           -6.707843        5.760770       16.363152
  S            5.286356        7.366631       18.307592
  S            8.041000        7.674957       17.725126
  F            5.387765        4.739464       18.761903
  F            3.713782        5.380467       17.537682
  F            5.705987        5.279868       16.686117
  F           10.234166        6.220561       17.521146
  F            9.388877        6.217945       19.518631
  F            8.459792        5.046996       17.946883
  O            4.897909        8.129099       17.150879
  O            4.503499        7.468753       19.510426
  O            8.832113        8.797695       18.156947
  O            7.806021        7.491987       16.316664
  N            6.812267        7.439227       18.692794
  C            5.019485        5.589660       17.790407
  C            9.080927        6.204012       18.214651
  S           26.093487       12.974724       12.028073
  S           26.558271       12.398750       14.762050
  F           28.565791       13.825233       11.496060
  F           26.986820       15.066317       10.672421
  F           27.444267       15.155016       12.790684
  F           28.492887       12.539886       16.552076
  F           28.939940       11.190105       14.914181
  F           29.054639       13.335100       14.613267
  O           24.875651       13.681099       12.324962
  O           26.179080       12.202249       10.817264
  O           26.018459       11.251272       15.443790
  O           26.117512       13.711324       15.156182
  N           26.696254       12.125516       13.210264
  C           27.347212       14.332130       11.741803
  C           28.366499       12.360751       15.224250
  S           -1.714646       19.394307       12.974439
  S           -4.007298       19.175169       11.325765
  F           -0.577136       21.385300       11.610361
  F            0.779925       19.789716       12.179853
  F           -0.609476       19.499801       10.539829
  F           -5.034051       20.252577        9.145898
  F           -4.819439       21.664552       10.778299
  F           -3.075298       21.035882        9.652485
  O           -1.498668       17.971843       12.960943
  O           -1.411522       20.138603       14.167855
  O           -5.335701       18.934104       11.825870
  O           -3.377722       18.167047       10.513497
  N           -3.106990       19.879190       12.419171
  C           -0.467349       20.054378       11.747702
  C           -4.240619       20.621231       10.168514
  S           16.662135       13.808643        2.790293
  S           18.258300       16.148340        2.812084
  F           15.817765       14.068213        0.272685
  F           14.267959       13.530642        1.694283
  F           15.016300       15.565059        1.621498
  F           18.919028       18.153583        1.228010
  F           19.569723       16.223803        0.481678
  F           17.481478       16.792865        0.339862
  O           16.052151       14.144156        4.049493
  O           16.920923       12.427280        2.482122
  O           19.545382       16.236196        3.451279
  O           17.170360       16.935583        3.330824
  N           17.929727       14.657741        2.397485
  C           15.372528       14.280627        1.521249
  C           18.573273       16.857923        1.114425
  S           -9.954901       -5.470626       -2.704475
  S          -12.298908       -4.384822       -3.865965
  F           -9.029451       -6.596104       -4.939544
  F           -8.908224       -7.856485       -3.176432
  F          -10.816440       -7.544669       -4.159105
  F          -13.545560       -4.302800       -6.191041
  F          -11.595573       -3.353948       -6.232172
  F          -11.748239       -5.517572       -6.220616
  O          -10.687698       -6.007403       -1.588628
  O           -8.622393       -4.970632       -2.493449
  O          -12.826772       -3.084822       -3.543120
  O          -13.064173       -5.552032       -3.513193
  N          -10.739637       -4.445719       -3.607697
  C           -9.670851       -6.948590       -3.814098
  C          -12.283227       -4.389802       -5.732644
  S          -13.687069        8.725746        7.129087
  S          -11.280258        8.702400        8.622111
  F          -13.906373       11.381241        6.991462
  F          -15.752624       10.346187        7.472961
  F          -14.214009       10.581452        8.983418
  F           -9.578113       10.388136        9.730192
  F           -9.688959       10.579200        7.572491
  F          -11.284312       11.365856        8.813753
  O          -14.300016        7.752889        7.994002
  O          -13.988728        8.702790        5.722468
  O          -10.204273        7.772872        8.396051
  O          -12.003519        8.638173        9.865182
  N          -12.133295        8.915656        7.307354
  C          -14.422849       10.353034        7.683062
  C          -10.414620       10.355421        8.676451
  S            1.644363        0.387900       15.704735
  S            0.175167        2.307747       17.180557
  F           -0.419140       -1.232262       15.219225
  F            1.398217       -2.244996       15.838423
  F            0.189674       -1.192793       17.300085
  F           -2.279530        2.734611       18.051820
  F           -2.135857        2.688572       15.888095
  F           -2.049922        0.840142       17.019746
  O            2.690085        0.345193       16.692094
  O            1.986174        0.246530       14.314310
  O            0.379369        3.729072       17.075645
  O            0.486685        1.651495       18.423436
  N            0.613881        1.570502       15.851746
  C            0.638805       -1.152095       16.041778
  C           -1.675336        2.126940       17.014097
  S          -12.268759       19.851765        4.343291
  S           -9.653519       19.647147        5.411493
  F          -13.440586       18.300431        6.170551
  F          -14.051009       17.905842        4.125189
  F          -12.116536       17.225290        4.831464
  F           -8.369328       18.456805        7.386534
  F           -9.873565       19.862578        8.068838
  F          -10.471578       17.930181        7.285939
  O          -11.805754       19.584075        3.007551
  O          -13.356301       20.773576        4.537247
  O           -8.724683       20.745285        5.476508
  O           -9.347784       18.528877        4.557998
  N          -11.147764       20.165728        5.404824
  C          -13.000631       18.225171        4.904437
  C           -9.601121       18.938405        7.137674
  S           27.064135       -9.606305       17.395070
  S           27.629931      -12.265673       18.188819
  F           26.890843      -10.123643       14.783362
  F           28.028733       -8.342473       15.277789
  F           28.900030      -10.305788       15.578461
  F           28.001817      -14.652113       17.124180
  F           26.009959      -13.864343       16.783024
  F           27.690179      -13.091169       15.649987
  O           28.131019       -9.077611       18.202830
  O           25.851818       -8.845413       17.248678
  O           27.087355      -12.883387       19.370729
  O           29.048170      -12.028977       18.117905
  N           26.684065      -11.111184       17.665151
  C           27.764417       -9.605621       15.661307
  C           27.305924      -13.531859       16.855945
  S           12.786582       17.901052        3.544156
  S           10.257985       16.848310        4.265495
  F           13.156752       19.302316        5.784273
  F           13.656490       20.367030        3.959864
  F           11.579705       20.082231        4.516659
  F            8.514085       16.966579        6.243291
  F           10.418918       16.112811        6.832489
  F           10.235889       18.253676        6.536002
  O           12.319399       18.280897        2.237369
  O           14.140396       17.438942        3.698245
  O            9.840333       15.499324        3.985007
  O            9.573830       17.936027        3.616449
  N           11.833710       16.947848        4.359934
  C           12.783883       19.502035        4.510166
  C            9.846128       17.057425        6.074198
  S           -3.809449       16.235513       15.704888
  S           -2.146661       13.997761       15.204887
  F           -3.612384       16.143176       18.364085
  F           -5.624827       16.468138       17.618233
  F           -4.733702       14.493526       17.513503
  F           -0.766660       12.175757       16.525018
  F           -0.049374       14.196149       16.853627
  F           -1.871621       13.522509       17.818166
  O           -4.819631       15.759665       14.797510
  O           -3.572350       17.650640       15.811208
  O           -1.194924       13.929719       14.126723
  O           -3.278418       13.108193       15.189045
  N           -2.419934       15.496951       15.628549
  C           -4.477226       15.800122       17.396289
  C           -1.153058       13.454437       16.688906
  S            0.311521      -12.092058        7.981098
  S            2.448845      -10.596551        9.084593
  F           -0.968074      -10.007978        6.914356
  F           -2.249047      -11.418743        7.953909
  F           -1.009607      -10.042138        9.082143
  F            3.262077       -8.094248        9.294311
  F            3.178388       -8.797396        7.244178
  F            1.347630       -8.295976        8.293757
  O            0.112325      -12.819351        9.206495
  O            0.108179      -12.764278        6.725361
  O            3.819691      -11.036606        9.086445
  O            1.760842      -10.463136       10.342094
  N            1.642268      -11.253359        7.893051
  C           -1.049034      -10.809418        7.988324
  C            2.559590       -8.851306        8.431433
  S           16.332963       -1.830774       13.215830
  S           14.096745       -1.051047       14.769457
  F           17.207871        0.641072       12.722675
  F           17.204855       -0.676921       10.997942
  F           15.341966        0.160237       11.727995
  F           12.898312        1.141228       15.620653
  F           14.914560        0.915847       16.387735
  F           14.599411        1.534982       14.332969
  O           15.543562       -2.746023       12.435189
  O           17.695643       -2.170226       13.528847
  O           13.662909       -1.742321       15.955541
  O           13.240139       -1.052727       13.612444
  N           15.642546       -1.270671       14.516470
  C           16.523300       -0.336550       12.107952
  C           14.142793        0.735961       15.307269
  S          -16.899130        2.367447       17.215792
  S          -14.609268        2.833009       15.615109
  F          -16.328999       -0.175274       17.788688
  F          -18.399040        0.185691       17.244212
  F          -16.863277        0.153805       15.713009
  F          -12.490357        1.549247       14.704603
  F          -12.534339        1.700894       16.867826
  F          -13.831932        0.289458       15.853523
  O          -17.772984        2.961421       16.239161
  O          -17.190391        2.539059       18.614298
  O          -13.852878        4.057928       15.632867
  O          -15.322925        2.475066       14.417182
  N          -15.358543        2.607252       16.989648
  C          -17.126401        0.527945       16.968994
  C          -13.296738        1.516073       15.781558
  S            2.634678       11.915251       10.433329
  S            2.013057        9.157515       10.609066
  F            0.163442       12.722437        9.833214
  F            1.727474       13.635503        8.636578
  F            1.120468       11.589198        8.251423
  F           -0.045556        7.531708       10.316304
  F           -0.305864        8.959620       11.928064
  F           -0.513231        9.601993        9.866738
  O            3.789806       11.661113        9.613984
  O            2.674233       12.991730       11.387127
  O            2.564579        8.271874       11.601202
  O            2.355143        8.949970        9.226185
  N            1.997502       10.652091       11.126502
  C            1.333446       12.487148        9.218398
  C            0.181755        8.804537       10.689692
