         874
  Built with Packmol                                             
  Ti          -2.868335        2.115442       11.265214
  Ti           7.802788        5.383210        1.844391
  Ti           1.352572       -1.673500        9.417113
  Ti           2.511792        7.542652        3.648414
  Ti           1.444672        9.187418        1.751989
  Ti           3.259458       -1.864257       11.359530
  Ti          -1.869782        0.416024        9.366140
  Ti           5.815984        5.614284        3.703281
  H            3.746896        1.652626        8.583439
  H           -7.024875       10.142785        6.478257
  H            4.431630       11.010612        4.650438
  H           -2.503694        6.028051       11.048460
  H            8.748737        1.507342        2.155250
  H           -6.801542        1.221893       10.903644
  H           11.114246        7.503838        2.029089
  H            4.372721       -5.862020       10.962653
  H           -2.589143        8.456181        2.095703
  H            4.656966        3.204147        6.826953
  H           -0.045224        3.670268        8.406030
  H           12.440918       -1.828167        6.378540
  H           -2.327232        0.331938       12.984230
  H            5.927385        5.077403        0.154584
  H            3.761426       -2.506617        5.844726
  H            0.745560        9.314262        7.279431
  H           -6.059913        3.661213        9.037490
  H           10.641247        3.393379        4.132134
  H           -3.728587        2.298708        5.688870
  H           -1.703972       10.903386        4.124923
  H            1.733452       12.300945        2.609537
  H            8.667985       -0.517063        3.355831
  H            4.606680        7.297451        2.297825
  H            0.215487        0.134620       10.719246
  H            7.415332        0.218685        9.728366
  H            5.955496       -0.302534       10.483299
  H            7.828656        4.670987        8.632537
  H            7.237651        5.011538        7.017709
  H            7.098177       -4.749977        9.534320
  H            5.784030       -3.695029       10.000157
  H            1.411485        1.911548        9.356085
  H            0.863759        5.227040        6.648574
  H            5.741023        9.069333        3.845371
  H            7.999135        8.609993        4.744623
  C            8.422325        4.659191        4.703706
  C           -3.853328        2.346718        8.423899
  C            3.961595       -2.592630        8.476524
  C            0.513540        9.443357        4.621320
  C            9.344336        4.085192        5.693105
  C           -4.811926        2.940026        7.452907
  C            4.917315       -3.172748        7.523270
  C           -0.392661       10.057561        5.626884
  C            9.101042        4.149763        7.100999
  C           -4.599256        2.829342        6.063538
  C            6.075072       -3.893771        7.969088
  C           -1.516055       10.792469        5.189090
  C           -0.124811        9.894234        6.980095
  C            4.657405       -3.047644        6.140915
  C           10.498947        3.426687        5.210054
  C           -5.932679        3.593124        7.958691
  C            2.813684        4.307411        6.639567
  C            1.802100        2.580168        8.590925
  C            6.161473        9.726276        4.605129
  C           -1.730084       -2.944720        6.528234
  C            8.715175        1.588330        0.011262
  C            1.839040       13.147429        0.088587
  C            6.684170        0.195343       12.990012
  C           -6.719779        1.271810       13.046845
  C            3.350517        5.224492        5.605606
  C           -1.145018       -2.033515        7.540248
  C            4.215985       -4.201651       13.101266
  C            1.796086       11.711651        0.049701
  C            5.408882       -0.466276       13.043122
  C           -5.332575        1.734605       13.064020
  C            1.482906        4.442604        7.078738
  C            3.125222        2.436827        8.154613
  C            5.424120       10.827594        5.058747
  C           -8.018869       10.319594        6.073436
  C            8.784652        0.919515        1.239780
  C           -2.508142        6.615249       11.963065
  C           -4.360552        7.730507        1.110303
  C           -7.351366        1.022025       11.821932
  C            7.441371        9.469644        5.112723
  C           12.991193       -2.694552        6.017481
  C            3.632637        3.298056        7.181208
  C            0.980621        3.578705        8.052889
  C            7.361766        0.489528       11.753548
  C           -3.089201        8.254946        1.152479
  C            4.438003       -6.388560       11.910676
  C            8.855538       -0.479663        1.318796
  N            8.938305       -1.077634        2.555968
  N            6.782516        0.288157       10.517426
  N            8.001283        4.757340        7.639127
  N            6.418775       -4.042078        9.284423
  O            7.234665        5.022637        5.076604
  O           -3.053924        1.423703        8.020113
  O            4.345224       -2.456407        9.695708
  O            0.426054        9.871897        3.422680
  O            1.318961        8.513079        5.002228
  O            2.776776       -2.264724        8.078087
  O            8.824398        4.755701        3.489805
  O           -3.903766        2.779752        9.624467
  O            6.156697        4.409127        2.505218
  O           -1.367975        1.993658       10.109628
  O            7.017801        6.727170        2.953185
  O           -3.056279        0.208461       10.609657
  O            1.659621       -2.837312       10.674383
  O            2.969458        9.121937        2.909279
  O            2.531624       -0.543378       10.208048
  O            1.322575        7.306972        2.398893
  O            4.575167        5.087631        5.244337
  O           -1.836144       -1.022528        7.923516
  O            4.066391       -3.610049       11.962095
  O            1.743514       11.006429        1.144350
  O            4.771026       -0.795498       11.956418
  O           -0.427504        9.094025        1.094098
  O            0.028867       -2.288059        7.991258
  O            2.574295        6.119616        5.117796
  O            9.199419        6.452785        1.083295
  O           -4.748114        1.988975       11.944029
  O            8.500254        3.672420        1.113292
  O           -2.542975        3.849240       12.015231
  O            4.269171        6.735574        3.019668
  O           -0.147093       -0.436062       10.017030
  O            6.748057        5.600086        0.071530
  O           -2.238358        1.302347       13.044892
  S           12.988420       10.506055       10.542283
  S           14.367051        8.097163       11.107097
  F           15.062629       12.126036       10.980472
  F           13.192298       12.796744       11.854448
  F           14.301631       11.176340       12.775228
  F           16.755298        7.271689       11.869803
  F           16.772005        8.281070        9.950080
  F           16.580132        9.432215       11.778402
  O           11.871890       10.127347       11.367009
  O           12.749033       11.260299        9.340653
  O           14.188298        6.876772       10.364423
  O           13.956314        8.137035       12.486286
  N           14.019300        9.359265       10.219458
  C           13.947614       11.711157       11.602473
  C           16.222496        8.291741       11.172093
  S          -14.170706       -5.919131       -3.247315
  S          -14.125924       -4.779468       -0.654717
  F          -14.196257       -3.603101       -4.571718
  F          -15.590246       -5.088174       -5.322168
  F          -16.031557       -4.011927       -3.491567
  F          -14.152787       -2.409592        0.507098
  F          -12.398970       -2.737694       -0.726166
  F          -14.312241       -2.310284       -1.654296
  O          -15.221292       -6.834586       -2.888925
  O          -13.150088       -6.347646       -4.166455
  O          -13.346242       -5.300319        0.437840
  O          -15.562095       -4.823375       -0.565603
  N          -13.482607       -5.165247       -2.047217
  C          -15.048414       -4.572614       -4.202745
  C          -13.718027       -2.957866       -0.642495
  S           23.072743        0.972356       -4.648014
  S           21.896949        1.455355       -2.116884
  F           25.030117        2.767809       -4.395570
  F           24.033160        2.783518       -6.323691
  F           23.057649        3.647472       -4.589872
  F           22.214308        3.013550       -0.010189
  F           23.896955        1.689258       -0.355754
  F           23.615981        3.435329       -1.611540
  O           21.798295        1.025050       -5.313778
  O           24.075471        0.056815       -5.123853
  O           21.370740        0.420429       -1.265471
  O           20.989017        2.421989       -2.677005
  N           23.019169        0.887132       -3.075779
  C           23.837608        2.642078       -4.999211
  C           22.977554        2.450255       -0.964830
  S          -11.021690        5.498824        4.112934
  S           -8.424804        6.193016        5.005503
  F          -10.267637        3.382138        2.674277
  F          -11.700726        4.680430        1.688116
  F           -9.621564        5.278037        1.843406
  F           -5.921524        5.399834        4.738479
  F           -7.193186        3.915870        5.679326
  F           -7.320141        4.252926        3.540404
  O          -11.319811        6.857047        3.743353
  O          -12.070850        4.669981        4.644332
  O           -8.130478        6.656081        6.336598
  O           -8.241307        7.096399        3.899752
  N           -9.728563        5.297633        4.990088
  C          -10.618517        4.664613        2.488781
  C           -7.152491        4.856019        4.725464
  S            3.439629       -0.257610       -0.986443
  S            5.436244       -0.495561       -2.981264
  F            3.041536        2.362067       -1.298700
  F            3.174082        1.708489        0.766993
  F            4.969890        1.867990       -0.438742
  F            6.761247        1.009255       -4.697872
  F            4.626394        0.955912       -5.077376
  F            5.405889        2.136133       -3.432937
  O            4.218863       -1.006239       -0.036400
  O            2.007835       -0.399275       -0.986150
  O            5.535930       -1.608995       -3.888565
  O            6.484013       -0.291078       -2.015436
  N            3.949514       -0.304651       -2.476363
  C            3.678897        1.522677       -0.467158
  C            5.551504        0.987883       -4.108594
  S           -9.196993       -1.365768        3.988767
  S           -6.915105        0.278150        3.652732
  F           -7.859089       -3.665265        4.191304
  F           -9.609479       -3.748480        2.910277
  F           -7.795154       -2.789201        2.208727
  F           -4.289525        0.072259        3.477265
  F           -5.071955       -0.574506        5.394023
  F           -5.293422       -1.843376        3.648850
  O           -9.878847       -0.742889        2.885441
  O           -9.958140       -1.794370        5.132033
  O           -6.767716        1.579163        4.251489
  O           -7.004129        0.179684        2.219262
  N           -7.900769       -0.627425        4.495429
  C           -8.569154       -2.978975        3.281864
  C           -5.308178       -0.572827        4.075090
  S           17.648675        4.246814       -4.704584
  S           16.061491        1.915385       -4.964754
  F           15.610427        5.941839       -4.402706
  F           17.160259        6.625457       -5.760096
  F           15.757178        5.098197       -6.394921
  F           13.521132        1.200799       -5.017617
  F           14.123782        2.077728       -3.127570
  F           13.808757        3.345349       -4.859219
  O           18.449483        3.898386       -5.848060
  O           18.269314        4.911870       -3.589860
  O           16.401606        0.643504       -4.382080
  O           16.041604        2.038917       -6.398910
  N           16.713299        3.105699       -4.152329
  C           16.468949        5.543617       -5.354876
  C           14.281976        2.158158       -4.455687
  S           26.020998       -6.362677        9.185814
  S           25.535475       -7.254911       11.829785
  F           27.749517       -8.293422        8.550884
  F           28.353511       -6.301728        7.934307
  F           28.509723       -6.887815       10.016676
  F           26.302080       -9.160082       13.487943
  F           25.289055       -9.916627       11.725591
  F           27.335279       -9.211825       11.580921
  O           26.212091       -5.003816        9.618498
  O           25.390531       -6.612790        7.916934
  O           24.240211       -7.236593       12.458137
  O           26.572361       -6.403456       12.351656
  N           25.402985       -7.339880       10.255948
  C           27.757557       -7.002026        8.917624
  C           26.148916       -8.986367       12.162218
  S            4.252828       12.749352       -4.654918
  S            1.964260       12.858376       -2.989695
  F            3.645651       10.424534       -5.814765
  F            5.718904       10.612976       -5.200004
  F            4.176912       10.243272       -3.720226
  F           -0.177770       11.429232       -2.409950
  F           -0.123068       12.088980       -4.475430
  F            1.148595       10.456712       -3.824825
  O            5.131977       13.080686       -3.565171
  O            4.552125       13.243146       -5.972754
  O            1.226985       14.064448       -2.716407
  O            2.667647       12.215148       -1.910825
  N            2.715271       12.953206       -4.378481
  C            4.450656       10.900427       -4.851563
  C            0.632167       11.639619       -3.463954
  S           22.079032        6.792119        7.783807
  S           22.826912        4.413709        9.127771
  F           24.384057        8.075769        8.181039
  F           22.609685        9.274555        8.536481
  F           23.223009        7.785519        9.989329
  F           24.869847        3.409514       10.463756
  F           25.337899        3.855276        8.393325
  F           25.176645        5.464340        9.838877
  O           20.814975        6.849441        8.468722
  O           22.156308        7.231506        6.415936
  O           22.481574        3.092063        8.672949
  O           22.269110        4.889360       10.366751
  N           22.870236        5.436809        7.922314
  C           23.138437        8.044884        8.680784
  C           24.658553        4.286263        9.464832
  S           10.735179       -6.534135       16.983146
  S           13.462023       -7.300109       16.980772
  F            9.802767       -8.818357       17.998835
  F            8.662046       -8.042964       16.322727
  F           10.573189       -9.009849       15.980923
  F           14.973955       -9.376439       17.588853
  F           13.926431       -8.551021       19.299362
  F           12.852700       -9.751591       17.846626
  O           10.813159       -6.041896       15.633385
  O            9.890421       -5.855460       17.929659
  O           14.544337       -6.416795       17.328943
  O           13.367949       -7.783149       15.627894
  N           12.114456       -6.849982       17.675888
  C            9.906617       -8.201520       16.810983
  C           13.813216       -8.828517       17.993389
  S          -10.335789      -11.977135       -0.445583
  S          -12.265478      -13.846027        0.452159
  F          -12.083387      -10.232391       -1.455761
  F          -10.369359      -10.632372       -2.726172
  F          -11.965421      -12.092062       -2.564768
  F          -14.881477      -14.197212        0.460383
  F          -14.250153      -12.445695        1.573075
  F          -14.256680      -12.407968       -0.595622
  O           -9.540077      -13.007116       -1.058948
  O           -9.678066      -10.851746        0.163517
  O          -12.170779      -14.562297        1.697494
  O          -12.184809      -14.584190       -0.781156
  N          -11.474369      -12.478140        0.521208
  C          -11.249644      -11.196229       -1.877848
  C          -14.007039      -13.174313        0.475168
  S          -11.856409      -10.364257       11.533025
  S          -13.931440      -12.249498       11.936154
  F          -12.953356       -8.421993       12.996927
  F          -12.133828       -7.767522       11.096436
  F          -14.020245       -8.836239       11.155097
  F          -16.265938      -12.449853       13.151401
  F          -14.614987      -12.121820       14.519326
  F          -15.373221      -10.479857       13.321933
  O          -11.835149      -10.605437       10.114711
  O          -10.621959      -10.078428       12.214595
  O          -13.708477      -13.656601       12.144044
  O          -14.607597      -11.823188       10.738854
  N          -12.675841      -11.401511       12.390166
  C          -12.804976       -8.762271       11.706787
  C          -15.103114      -11.792564       13.315702
  S           -9.452442       20.284542        6.223719
  S           -8.461600       20.478987        8.870004
  F           -7.530318       18.668544        5.322231
  F           -8.030165       20.308216        3.990523
  F           -6.844870       20.676684        5.769138
  F           -6.435173       19.628910       10.332130
  F           -7.696789       18.022453        9.602686
  F           -6.315786       19.013305        8.255188
  O           -9.636781       21.708248        6.127214
  O          -10.390305       19.409916        5.571380
  O           -9.297859       20.484746       10.041972
  O           -7.711892       21.664564        8.546271
  N           -9.168749       19.728918        7.670390
  C           -7.868046       19.967255        5.282790
  C           -7.158768       19.206179        9.279089
  S           -6.874203      -13.226978       -4.495454
  S           -4.071232      -13.544358       -4.240456
  F           -6.874691      -10.566259       -4.297301
  F           -8.413362      -11.559100       -3.131720
  F           -6.353733      -11.579468       -2.452253
  F           -1.902062      -12.086683       -3.870682
  F           -2.928288      -11.637126       -5.727890
  F           -3.734292      -10.925156       -3.844233
  O           -7.136672      -14.263864       -3.533055
  O           -7.762426      -13.068962       -5.616255
  O           -3.298250      -14.492358       -4.999841
  O           -4.179036      -13.719277       -2.815592
  N           -5.389202      -13.135864       -5.013648
  C           -7.132229      -11.642320       -3.537014
  C           -3.114569      -11.953756       -4.439312
  S           22.077018       10.504865       16.423457
  S           22.410778        9.220072       13.921395
  F           19.429196       10.781134       16.246247
  F           20.475572       12.544127       16.959531
  F           20.532327       12.025295       14.854358
  F           20.976268        8.441076       11.847222
  F           20.434746        7.431867       13.689155
  F           19.814637        9.483228       13.354352
  O           23.159383       11.416690       16.164047
  O           21.862956       10.033942       17.766033
  O           23.321635        8.128373       13.694676
  O           22.655093       10.476374       13.262248
  N           21.962905        9.281703       15.437096
  C           20.540800       11.517653       16.090861
  C           20.813808        8.608685       13.172627
  S           -8.791996       10.387441        2.531064
  S           -8.630036       13.187515        2.136409
  F           -6.202180       10.028562        3.062807
  F           -7.057011        8.565251        1.706413
  F           -6.604257       10.565547        1.000728
  F           -6.834639       15.122281        2.127526
  F           -7.044819       14.159385        4.059654
  F           -5.979398       13.156119        2.458703
  O           -9.562143       10.205059        1.329463
  O           -9.064935        9.554968        3.672377
  O           -9.626416       14.121477        2.592275
  O           -8.433421       13.018233        0.720378
  N           -8.632585       11.876285        3.020947
  C           -7.062700        9.868273        2.044927
  C           -7.030668       13.939057        2.738047
  S           20.937369       -8.933369       12.615538
  S           20.980381      -11.594479       13.584581
  F           18.510109       -9.073870       11.516739
  F           20.008704       -8.110712       10.276432
  F           20.002612      -10.268719       10.493529
  F           19.474769      -13.762409       13.592252
  F           18.567212      -12.087135       14.628718
  F           18.616392      -12.122500       12.460530
  O           22.256537       -9.055859       12.054267
  O           20.528224       -7.673579       13.177350
  O           21.525680      -11.975149       14.861534
  O           21.625398      -12.064234       12.386357
  N           20.502647      -10.086713       13.596798
  C           19.798973       -9.118767       11.143801
  C           19.309664      -12.427025       13.566348
  S           14.100479       -0.586679        0.789003
  S           16.743667       -0.372659       -0.206061
  F           14.061665        1.792078        1.996770
  F           13.237164        0.166799        3.175959
  F           15.384814        0.355541        2.939017
  F           18.784574        1.300620       -0.165018
  F           17.028959        2.116792       -1.142843
  F           17.096478        1.973005        1.020367
  O           14.334924       -1.915727        1.287901
  O           12.804878       -0.254897        0.258492
  O           17.149806       -0.827641       -1.510252
  O           17.278908       -1.031273        0.956781
  N           15.202625       -0.017198       -0.182090
  C           14.213895        0.495471        2.309666
  C           17.440737        1.356869       -0.118956
  S           27.010763        2.233446       -1.770777
  S           27.522346        0.109147       -3.573008
  F           27.381907        4.197029       -3.538625
  F           28.320801        4.528767       -1.609830
  F           29.199251        3.134028       -3.019509
  F           28.201134       -0.277136       -6.094294
  F           26.284429        0.712219       -5.866517
  F           28.121036        1.817780       -5.535885
  O           27.872165        1.665831       -0.767765
  O           25.819843        2.928928       -1.360757
  O           26.783223       -1.126302       -3.588289
  O           28.914835        0.080609       -3.208841
  N           26.650167        1.286378       -2.977048
  C           28.040561        3.593345       -2.536623
  C           27.524495        0.629771       -5.365690
  S           17.230662       -4.496779        2.492740
  S           19.060202       -4.603027        4.652345
  F           18.191407       -6.627348        1.205752
  F           17.768202       -4.919316       -0.065211
  F           19.532349       -4.923241        1.196508
  F           21.124101       -6.025802        5.478711
  F           19.286743       -7.172471        5.361533
  F           20.360689       -6.657649        3.548716
  O           17.441452       -3.085387        2.308961
  O           15.919727       -5.045425        2.267930
  O           18.702650       -4.336480        6.021279
  O           19.965315       -3.705122        3.983770
  N           17.809284       -5.106111        3.825394
  C           18.247685       -5.287773        1.137631
  C           20.001322       -6.211563        4.760349
  S            2.365408       -0.620767        2.688061
  S           -0.138224        0.371985        3.564801
  F            3.820989        0.587131        4.569804
  F            4.648383        0.714894        2.567076
  F            2.956348        1.952316        3.123825
  F           -1.141205        1.952978        5.425268
  F           -0.159562        0.196076        6.234055
  F            1.025147        1.842654        5.465970
  O            2.086402       -0.277599        1.318891
  O            3.121705       -1.811162        2.972799
  O           -1.349469       -0.406156        3.580620
  O           -0.049271        1.499933        2.674701
  N            1.136677       -0.557989        3.672101
  C            3.503363        0.742054        3.274667
  C           -0.090610        1.126001        5.271832
  S           24.844232       12.008426        8.903087
  S           26.435912       12.196673       11.238363
  F           25.922438       14.107705        7.658421
  F           23.756172       14.012750        7.557943
  F           24.731759       14.636807        9.391777
  F           28.331295       13.716679       12.269845
  F           28.936283       12.717191       10.442421
  F           27.605746       14.427854       10.352890
  O           23.635681       11.860393        9.669718
  O           24.977673       11.297251        7.659493
  O           26.976613       11.058764       11.935268
  O           25.446361       13.008449       11.897351
  N           26.188403       11.863890        9.712017
  C           24.818545       13.796284        8.356064
  C           27.910523       13.326179       11.052617
  S          -19.378477        6.047020       18.208865
  S          -19.045393        8.655217       17.155888
  F          -16.829870        5.703623       18.919757
  F          -17.727360        3.996986       17.922902
  F          -17.140798        5.740603       16.774030
  F          -17.142840       10.440199       16.754664
  F          -17.463497        9.988636       18.851741
  F          -16.411313        8.575032       17.587089
  O          -20.122720        5.614760       17.055831
  O          -19.731442        5.532067       19.505145
  O          -19.999526        9.719237       17.330142
  O          -18.817910        8.136573       15.832364
  N          -19.148462        7.600848       18.330375
  C          -17.668350        5.341920       17.935689
  C          -17.423751        9.452396       17.624445
  S           14.575692        2.420061        5.592664
  S           14.359208        4.333714        7.669553
  F           17.022303        3.135980        4.805108
  F           15.615047        2.799054        3.187107
  F           15.496785        4.613997        4.368700
  F           15.743093        6.306804        8.745949
  F           16.710690        4.375778        8.944340
  F           16.722194        5.402823        7.033907
  O           13.268533        2.740301        5.083729
  O           15.036785        1.058387        5.534872
  O           13.757300        4.064749        8.949488
  O           13.724276        5.278889        6.788666
  N           14.918177        3.007283        7.013907
  C           15.744205        3.301814        4.429299
  C           15.981698        5.139796        8.119575
  S          -19.211708       14.554921       -2.856147
  S          -18.583597       11.909415       -2.062941
  F          -16.687992       15.357072       -3.181882
  F          -17.956283       16.770138       -2.129977
  F          -17.230074       14.997217       -1.113346
  F          -16.475819       10.385550       -1.613546
  F          -16.625341       11.053178       -3.671793
  F          -15.965313       12.429712       -2.130940
  O          -20.141797       14.720420       -1.770892
  O          -19.493907       15.176213       -4.122821
  O          -19.327519       10.748779       -2.478121
  O          -18.594312       12.279857       -0.671856
  N          -18.721669       13.080526       -3.117063
  C          -17.679927       15.461471       -2.283309
  C          -16.812038       11.425848       -2.398352
  S            0.102329       17.293066        6.380066
  S           -2.702931       16.938142        6.215918
  F            0.014588       19.767101        7.375128
  F            1.462617       19.484769        5.782858
  F           -0.650419       19.629820        5.315732
  F           -4.934627       18.267138        6.685122
  F           -3.750861       17.926053        8.470289
  F           -3.143987       19.439560        7.040006
  O            0.300428       16.799870        5.043000
  O            1.087313       17.002986        7.387917
  O           -3.376206       15.705876        6.533868
  O           -2.724697       17.410308        4.856123
  N           -1.329400       17.052417        6.991863
  C            0.227761       19.150184        6.201996
  C           -3.678030       18.216635        7.164285
  S           24.413929       -3.412858        2.929606
  S           24.495735       -6.243805        2.967665
  F           24.692429       -3.088474        5.563217
  F           23.168433       -1.837553        4.655223
  F           22.786753       -3.946904        4.985560
  F           24.692950       -8.232546        4.691864
  F           26.440879       -6.948644        4.663522
  F           24.620399       -6.280004        5.634853
  O           23.256114       -3.400857        2.075467
  O           25.411614       -2.388011        2.773350
  O           25.174269       -7.040711        1.979029
  O           23.061397       -6.325230        3.059881
  N           25.139829       -4.803336        3.076897
  C           23.725299       -3.063063        4.632474
  C           25.103403       -6.955503        4.582901
  S            7.071424       12.148343        0.293330
  S            6.656637       14.889435        0.873648
  F            4.489028       11.512916        0.078489
  F            5.674699       10.100026        1.222930
  F            5.103547       11.999540        2.100308
  F            4.676693       16.598130        1.230054
  F            4.729512       15.754825       -0.767572
  F            4.006482       14.562303        0.893701
  O            8.011750       12.003318        1.372676
  O            7.278187       11.406031       -0.921712
  O            7.473537       15.953348        0.350548
  O            6.672385       14.634444        2.290401
  N            6.684457       13.628870       -0.081308
  C            5.491171       11.408702        0.965685
  C            4.917846       15.474839        0.529165
  S           27.993001        7.760140        5.308842
  S           27.759013        6.203432        2.954206
  F           27.615096        5.745113        7.016338
  F           26.520024        7.555951        7.499560
  F           25.842709        6.275591        5.885221
  F           27.290533        3.710946        2.222848
  F           29.113421        3.935506        3.376587
  F           27.186176        4.012216        4.368834
  O           27.103139        8.769143        4.798654
  O           29.100865        8.155702        6.137257
  O           28.580565        6.386139        1.786071
  O           26.349309        6.480266        2.861718
  N           28.503267        6.704102        4.256955
  C           26.929534        6.770257        6.485913
  C           27.849318        4.363869        3.258528
  S          -17.377927        1.140658        0.030595
  S          -17.538046       -1.642331       -0.471134
  F          -19.983621        1.495023        0.481681
  F          -19.073853        3.001467       -0.789055
  F          -19.509772        1.030646       -1.582783
  F          -19.340580       -3.565110       -0.614805
  F          -19.195983       -2.673943        1.357346
  F          -20.198424       -1.607303       -0.243311
  O          -16.564099        1.361922       -1.135149
  O          -17.142648        1.929724        1.210477
  O          -16.562956       -2.597906       -0.014027
  O          -17.682658       -1.420820       -1.886223
  N          -17.561570       -0.363983        0.459999
  C          -19.086210        1.687044       -0.498140
  C          -19.161432       -2.405889        0.044965
  S           -7.745105       -5.676655       -5.156142
  S           -5.459929       -7.269718       -4.643770
  F           -6.419672       -3.386744       -5.499981
  F           -8.200948       -3.223492       -4.270255
  F           -6.397021       -4.110684       -3.456066
  F           -2.840918       -7.027207       -4.422816
  F           -3.581734       -6.533535       -6.400680
  F           -3.854465       -5.139154       -4.761768
  O           -8.448712       -6.221051       -4.025300
  O           -8.481652       -5.342184       -6.345986
  O           -5.288604       -8.610654       -5.139155
  O           -5.584146       -7.064600       -3.224279
  N           -6.431665       -6.439104       -5.575192
  C           -7.146347       -4.009201       -4.558302
  C           -3.849609       -6.438230       -5.091272
  S           -4.704483        2.043197       -0.817502
  S           -6.639225        3.778349       -1.943745
  F           -3.763114        3.791337        0.964778
  F           -2.235646        2.672683       -0.096955
  F           -3.281680        4.293014       -1.089177
  F           -7.505333        6.260116       -1.703866
  F           -7.807111        5.072200        0.085617
  F           -5.826226        5.805513       -0.407391
  O           -4.228454        1.639601       -2.113935
  O           -4.729643        1.080560        0.251516
  O           -7.959938        3.361087       -2.336782
  O           -5.717432        4.213632       -2.960251
  N           -6.061981        2.842658       -0.806639
  C           -3.430077        3.279266       -0.230687
  C           -6.958784        5.309058       -0.924150
  S            9.790673      -10.508746       -3.737024
  S           10.565692      -13.178031       -3.192354
  F           12.261270       -9.502277       -3.780175
  F           10.819341       -8.310033       -2.679621
  F           11.609482      -10.133417       -1.810651
  F           12.749367      -14.594221       -2.753239
  F           12.688772      -13.706990       -4.731525
  F           13.134611      -12.473897       -3.003688
  O            8.779117      -10.533330       -2.714095
  O            9.547978       -9.767327       -4.945949
  O            9.943388      -14.331989       -3.787324
  O           10.432093      -12.971113       -1.773977
  N           10.409537      -11.906152       -4.119542
  C           11.205571       -9.570282       -2.953650
  C           12.387932      -13.496525       -3.442887
  S            3.406334       17.800675       10.151809
  S            5.826144       19.199133        9.692205
  F            1.789269       19.770650        9.362510
  F            1.179809       18.781720       11.196193
  F            2.831903       20.186813       11.217749
  F            6.664177       21.563693        8.871592
  F            5.563148       20.472657        7.354410
  F            4.503567       21.412400        8.997237
  O            3.835291       17.371981       11.456588
  O            2.597308       16.917890        9.354143
  O            7.010928       18.594106        9.141659
  O            5.856928       19.675644       11.050309
  N            4.526095       18.422994        9.234798
  C            2.244549       19.223621       10.500819
  C            5.616860       20.744046        8.665460
  S           12.323044       -5.227829       12.819613
  S           14.606407       -3.554038       12.903739
  F           10.619754       -3.338870       12.013805
  F            9.871831       -4.609496       13.606897
  F           11.330853       -3.065361       14.044008
  F           15.275414       -1.033669       12.495059
  F           14.536201       -2.022336       10.711645
  F           13.151049       -1.408530       12.263839
  O           12.607104       -5.776946       14.118849
  O           11.743774       -6.075071       11.811282
  O           15.919567       -3.965643       12.480581
  O           14.387185       -3.255184       14.294812
  N           13.483446       -4.387314       12.164587
  C           10.967168       -3.980848       13.140497
  C           14.369882       -1.917665       12.037078
  S           -1.783115       17.243660       -0.532999
  S           -4.311937       15.995329       -0.795924
  F           -0.434757       15.454474       -1.981941
  F            0.544852       16.045890       -0.137378
  F           -1.143028       14.684934       -0.082375
  F           -5.400069       13.854989       -1.892172
  F           -4.539983       15.216591       -3.345017
  F           -3.247692       13.952315       -2.146559
  O           -1.946860       17.405353        0.887310
  O           -1.089659       18.259602       -1.279380
  O           -5.545679       16.712920       -0.985175
  O           -4.119439       15.255036        0.423653
  N           -3.079766       16.832388       -1.327736
  C           -0.648711       15.765953       -0.693736
  C           -4.368447       14.686950       -2.126229
  S          -16.908564       15.035774       13.062967
  S          -15.905863       15.579158       15.655596
  F          -14.818378       13.589993       12.250851
  F          -15.536454       15.034569       10.798478
  F          -14.376196       15.697388       12.506879
  F          -13.767183       15.110452       17.129777
  F          -14.834822       13.306196       16.573655
  F          -13.607380       14.334050       15.110230
  O          -17.267003       16.412992       12.850770
  O          -17.743066       14.000901       12.512742
  O          -16.717331       15.586962       16.844852
  O          -15.311992       16.813345       15.212250
  N          -16.535556       14.647247       14.543496
  C          -15.312836       14.830157       12.110233
  C          -14.450795       14.513101       16.136284
  S           12.120790       -0.423639        9.710587
  S           10.619894       -0.117492       12.093020
  F           11.445486        1.929165        8.649000
  F           11.372382        0.259113        7.264297
  F            9.807353        0.511568        8.744538
  F            8.986859        1.610295       13.239664
  F           10.984583        2.396652       12.931109
  F            9.621104        2.212671       11.254271
  O           11.618847       -1.755186        9.497816
  O           13.476736       -0.117429        9.339441
  O           11.080578       -0.535614       13.391409
  O            9.483707       -0.783628       11.511816
  N           11.836199        0.194816       11.131353
  C           11.121833        0.631398        8.533596
  C           10.029717        1.628570       12.389196
  S           11.735229       17.403094        5.938593
  S           14.186360       16.647502        7.140024
  F           10.496869       15.073832        6.338213
  F           10.217898       15.916976        4.357530
  F           12.099022       14.972481        4.880467
  F           15.307881       14.552131        8.288268
  F           13.582854       15.299134        9.370271
  F           13.307635       14.158750        7.545856
  O           12.402666       17.953509        4.788895
  O           10.539142       18.037239        6.425766
  O           14.974814       17.518722        7.972002
  O           14.723808       16.223088        5.873738
  N           12.660312       17.062423        7.167503
  C           11.111507       15.741819        5.349132
  C           14.077404       15.077975        8.144751
  S          -12.014269        7.715848        7.697918
  S           -9.950780        9.266606        8.863924
  F          -13.884994        8.341400        9.494517
  F          -13.801439        6.235909        8.973223
  F          -12.299413        7.090410       10.283914
  F           -9.538293       10.835294       10.946211
  F          -11.036634       11.604384        9.579485
  F          -11.523118        9.960132       10.907822
  O          -11.154719        6.569952        7.562533
  O          -13.005424        7.972656        6.687095
  O           -8.994498       10.030518        8.105747
  O           -9.486765        8.143763        9.636175
  N          -11.294513        9.071631        8.052687
  C          -13.051437        7.329638        9.205052
  C          -10.558054       10.485671       10.140583
  S          -17.038037        2.420342       -3.726566
  S          -16.436661       -0.148050       -4.758122
  F          -19.348901        2.711618       -5.028010
  F          -18.068424        4.464137       -5.057658
  F          -17.607203        2.760946       -6.318841
  F          -17.431025       -1.934120       -6.427865
  F          -18.707592       -1.561300       -4.714434
  F          -18.600391       -0.109727       -6.322586
  O          -15.711096        2.904109       -4.001215
  O          -17.726212        2.887903       -2.552724
  O          -15.851748       -1.208910       -3.980097
  O          -15.676200        0.419411       -5.840779
  N          -17.232965        0.860850       -3.836299
  C          -18.072976        3.119220       -5.118255
  C          -17.883738       -0.978210       -5.595716
  S           19.721446       16.220372       -3.870367
  S           17.956128       18.403652       -3.497081
  F           21.965314       17.663291       -3.828714
  F           21.881244       16.169223       -5.401137
  F           20.739956       18.004391       -5.584943
  F           18.023993       21.028259       -3.225633
  F           19.040069       19.976209       -1.623994
  F           19.976384       20.148230       -3.572951
  O           18.934528       15.695653       -4.954648
  O           20.381050       15.306572       -2.975944
  O           16.781669       18.353402       -2.665822
  O           17.794430       18.569287       -4.917953
  N           19.038144       17.354677       -3.016841
  C           21.152625       17.073065       -4.719466
  C           18.806653       19.970440       -2.943416
  S           21.534435       -8.980190       -3.745092
  S           18.784551       -9.452651       -4.232250
  F           21.880448       -7.248518       -5.745161
  F           23.448823       -8.737481       -5.558048
  F           21.527805       -9.284291       -6.403537
  F           16.884551       -8.742108       -5.921029
  F           17.664359       -7.082078       -4.763159
  F           18.824426       -7.899032       -6.403751
  O           21.814449      -10.386857       -3.630580
  O           22.255503       -8.051575       -2.915733
  O           17.798776       -9.599311       -3.193208
  O           19.084900      -10.584888       -5.069081
  N           20.009597       -8.584169       -3.735521
  C           22.120437       -8.539357       -5.465149
  C           18.004322       -8.215358       -5.392038
  S          -12.657675       -8.039879        6.748591
  S          -13.214425       -5.278360        6.454578
  F          -10.001145       -7.798290        6.692209
  F          -10.785974       -9.424774        5.487877
  F          -10.957004       -7.377740        4.791771
  F          -11.942258       -2.986446        6.145431
  F          -11.501617       -3.961531        8.032097
  F          -10.619225       -4.705163        6.195496
  O          -13.613236       -8.398864        5.734557
  O          -12.479957       -8.906450        7.883304
  O          -14.268170       -4.592683        7.156248
  O          -13.302073       -5.406158        5.023340
  N          -12.729899       -6.551132        7.258956
  C          -11.006962       -8.155302        5.877872
  C          -11.730365       -4.179976        6.730043
  S            6.457406      -12.030674       18.127525
  S            4.626001      -11.226483       16.122124
  F            6.597767      -14.585523       17.371393
  F            6.404872      -14.286577       19.512711
  F            4.681563      -14.030049       18.220982
  F            3.261169      -12.252032       14.109083
  F            5.409471      -12.378189       13.838254
  F            4.408878      -13.727108       15.210821
  O            5.702720      -11.372820       19.160922
  O            7.893300      -12.055553       18.215241
  O            4.700685       -9.969470       15.424120
  O            3.503974      -11.473247       16.989661
  N            6.049881      -11.669915       16.649069
  C            6.000843      -13.834657       18.310621
  C            4.427068      -12.470671       14.744742
  S          -10.730500       12.541551       -2.698846
  S          -11.868237       10.229538       -1.523027
  F          -12.016866       14.301129       -1.160069
  F          -11.974798       14.807755       -3.270372
  F          -13.305947       13.252723       -2.553377
  F          -13.609856        9.566790        0.346298
  F          -11.881398       10.621984        1.123126
  F          -13.428013       11.709698        0.060313
  O          -10.985909       12.059795       -4.030353
  O           -9.537710       13.305351       -2.445932
  O          -11.135380        9.018016       -1.262251
  O          -12.927027       10.204203       -2.498107
  N          -10.904697       11.483679       -1.544456
  C          -12.091150       13.788468       -2.398587
  C          -12.738390       10.561039        0.094904
  S           15.956258       14.043577        1.730814
  S           18.418254       14.289876        3.109332
  F           16.503115       15.858339       -0.147023
  F           14.510431       16.008019        0.700694
  F           16.226104       16.703859        1.830488
  F           20.660785       15.677637        2.999698
  F           20.343224       14.426379        1.256720
  F           19.212526       16.262145        1.493775
  O           15.199322       14.120268        2.952044
  O           15.488719       13.194092        0.667853
  O           19.140753       13.176577        3.667392
  O           17.867779       15.277250        4.000695
  N           17.507694       13.828795        1.901018
  C           15.800090       15.754119        0.991907
  C           19.726812       15.212595        2.149631
  S            7.785506       10.911283       15.831987
  S            7.821646        8.113701       16.273151
  F           10.249630       11.067958       14.820932
  F            9.766993       12.612615       16.267622
  F           10.202049       10.595929       16.936851
  F            9.447308        6.051222       16.008100
  F            8.948905        6.995553       14.120166
  F           10.361454        7.942725       15.466376
  O            7.267327       11.169914       17.149118
  O            7.363753       11.743086       14.736390
  O            6.694883        7.249107       16.037030
  O            8.289918        8.290888       17.622886
  N            7.746228        9.406944       15.365643
  C            9.607121       11.308292       15.974920
  C            9.224350        7.235667       15.409299
  S          -14.015412       18.239794        4.101441
  S          -15.851539       19.245076        6.009435
  F          -12.759218       20.554507        3.673921
  F          -13.227085       19.434853        1.874116
  F          -14.792137       20.511795        2.920525
  F          -16.498766       21.519622        7.181779
  F          -14.481094       20.866675        7.636892
  F          -14.929281       21.731804        5.699009
  O          -15.054810       17.560222        3.374760
  O          -12.712826       17.635556        4.192387
  O          -16.255519       18.527570        7.190476
  O          -16.831443       19.509225        4.988421
  N          -14.419052       18.781763        5.524606
  C          -13.687441       19.778922        3.091565
  C          -15.402344       20.933747        6.666227
