         874
  Built with Packmol                                             
  Ti          -2.868335        2.115442       11.265214
  Ti           7.802788        5.383210        1.844391
  Ti           1.352572       -1.673500        9.417113
  Ti           2.511792        7.542652        3.648414
  Ti           1.444672        9.187418        1.751989
  Ti           3.259458       -1.864257       11.359530
  Ti          -1.869782        0.416024        9.366140
  Ti           5.815984        5.614284        3.703281
  H            3.746896        1.652626        8.583439
  H           -7.024875       10.142785        6.478257
  H            4.431630       11.010612        4.650438
  H           -2.503694        6.028051       11.048460
  H            8.748737        1.507342        2.155250
  H           -6.801542        1.221893       10.903644
  H           11.114246        7.503838        2.029089
  H            4.372721       -5.862020       10.962653
  H           -2.589143        8.456181        2.095703
  H            4.656966        3.204147        6.826953
  H           -0.045224        3.670268        8.406030
  H           12.440918       -1.828167        6.378540
  H           -2.327232        0.331938       12.984230
  H            5.927385        5.077403        0.154584
  H            3.761426       -2.506617        5.844726
  H            0.745560        9.314262        7.279431
  H           -6.059913        3.661213        9.037490
  H           10.641247        3.393379        4.132134
  H           -3.728587        2.298708        5.688870
  H           -1.703972       10.903386        4.124923
  H            1.733452       12.300945        2.609537
  H            8.667985       -0.517063        3.355831
  H            4.606680        7.297451        2.297825
  H            0.215487        0.134620       10.719246
  H            7.415332        0.218685        9.728366
  H            5.955496       -0.302534       10.483299
  H            7.828656        4.670987        8.632537
  H            7.237651        5.011538        7.017709
  H            7.098177       -4.749977        9.534320
  H            5.784030       -3.695029       10.000157
  H            1.411485        1.911548        9.356085
  H            0.863759        5.227040        6.648574
  H            5.741023        9.069333        3.845371
  H            7.999135        8.609993        4.744623
  C            8.422325        4.659191        4.703706
  C           -3.853328        2.346718        8.423899
  C            3.961595       -2.592630        8.476524
  C            0.513540        9.443357        4.621320
  C            9.344336        4.085192        5.693105
  C           -4.811926        2.940026        7.452907
  C            4.917315       -3.172748        7.523270
  C           -0.392661       10.057561        5.626884
  C            9.101042        4.149763        7.100999
  C           -4.599256        2.829342        6.063538
  C            6.075072       -3.893771        7.969088
  C           -1.516055       10.792469        5.189090
  C           -0.124811        9.894234        6.980095
  C            4.657405       -3.047644        6.140915
  C           10.498947        3.426687        5.210054
  C           -5.932679        3.593124        7.958691
  C            2.813684        4.307411        6.639567
  C            1.802100        2.580168        8.590925
  C            6.161473        9.726276        4.605129
  C           -1.730084       -2.944720        6.528234
  C            8.715175        1.588330        0.011262
  C            1.839040       13.147429        0.088587
  C            6.684170        0.195343       12.990012
  C           -6.719779        1.271810       13.046845
  C            3.350517        5.224492        5.605606
  C           -1.145018       -2.033515        7.540248
  C            4.215985       -4.201651       13.101266
  C            1.796086       11.711651        0.049701
  C            5.408882       -0.466276       13.043122
  C           -5.332575        1.734605       13.064020
  C            1.482906        4.442604        7.078738
  C            3.125222        2.436827        8.154613
  C            5.424120       10.827594        5.058747
  C           -8.018869       10.319594        6.073436
  C            8.784652        0.919515        1.239780
  C           -2.508142        6.615249       11.963065
  C           -4.360552        7.730507        1.110303
  C           -7.351366        1.022025       11.821932
  C            7.441371        9.469644        5.112723
  C           12.991193       -2.694552        6.017481
  C            3.632637        3.298056        7.181208
  C            0.980621        3.578705        8.052889
  C            7.361766        0.489528       11.753548
  C           -3.089201        8.254946        1.152479
  C            4.438003       -6.388560       11.910676
  C            8.855538       -0.479663        1.318796
  N            8.938305       -1.077634        2.555968
  N            6.782516        0.288157       10.517426
  N            8.001283        4.757340        7.639127
  N            6.418775       -4.042078        9.284423
  O            7.234665        5.022637        5.076604
  O           -3.053924        1.423703        8.020113
  O            4.345224       -2.456407        9.695708
  O            0.426054        9.871897        3.422680
  O            1.318961        8.513079        5.002228
  O            2.776776       -2.264724        8.078087
  O            8.824398        4.755701        3.489805
  O           -3.903766        2.779752        9.624467
  O            6.156697        4.409127        2.505218
  O           -1.367975        1.993658       10.109628
  O            7.017801        6.727170        2.953185
  O           -3.056279        0.208461       10.609657
  O            1.659621       -2.837312       10.674383
  O            2.969458        9.121937        2.909279
  O            2.531624       -0.543378       10.208048
  O            1.322575        7.306972        2.398893
  O            4.575167        5.087631        5.244337
  O           -1.836144       -1.022528        7.923516
  O            4.066391       -3.610049       11.962095
  O            1.743514       11.006429        1.144350
  O            4.771026       -0.795498       11.956418
  O           -0.427504        9.094025        1.094098
  O            0.028867       -2.288059        7.991258
  O            2.574295        6.119616        5.117796
  O            9.199419        6.452785        1.083295
  O           -4.748114        1.988975       11.944029
  O            8.500254        3.672420        1.113292
  O           -2.542975        3.849240       12.015231
  O            4.269171        6.735574        3.019668
  O           -0.147093       -0.436062       10.017030
  O            6.748057        5.600086        0.071530
  O           -2.238358        1.302347       13.044892
  S           -9.858956        7.383739       -3.008348
  S           -9.410899        5.695664       -0.778540
  F           -8.628696        9.522513       -1.993066
  F          -10.530241        9.944346       -2.951190
  F          -10.484232        9.023169       -0.988162
  F           -8.313030        5.772465        1.620551
  F           -6.889514        6.101995        0.017593
  F           -8.262557        7.680707        0.589545
  O          -11.248182        7.016076       -3.079829
  O           -9.137519        7.639973       -4.226533
  O           -9.071696        4.300369       -0.883241
  O          -10.675547        6.060837       -0.195640
  N           -8.962681        6.488542       -2.071669
  C           -9.874967        9.058722       -2.177383
  C           -8.141839        6.356704        0.420325
  S            2.488934       -6.237928        2.629709
  S           -0.109030       -7.139659        1.951577
  F            3.591009       -8.661569        2.803155
  F            4.125290       -7.308946        4.414606
  F            2.164669       -8.235732        4.379990
  F           -1.427687       -9.395871        1.580770
  F            0.186410       -9.105387        0.161342
  F            0.629736       -9.693579        2.201490
  O            1.977841       -5.339149        3.630315
  O            3.642429       -5.850369        1.862017
  O           -0.957074       -6.491450        0.985390
  O           -0.511697       -7.148336        3.333692
  N            1.417270       -6.852559        1.652048
  C            3.117955       -7.699723        3.611449
  C           -0.171265       -8.934221        1.441248
  S          -13.037375       -9.629256        4.975995
  S          -15.072444       -8.350032        6.474154
  F          -12.911319       -7.790763        3.046554
  F          -12.903063       -9.843322        2.340329
  F          -14.748765       -8.942239        3.037179
  F          -16.601350       -6.200754        6.374657
  F          -14.486973       -5.740198        6.522175
  F          -15.318373       -6.425290        4.639588
  O          -13.703673      -10.902343        5.050356
  O          -11.599543       -9.587108        5.007069
  O          -15.094956       -8.292918        7.912591
  O          -16.099222       -9.094274        5.792765
  N          -13.594318       -8.509690        5.934348
  C          -13.431915       -9.010304        3.256237
  C          -15.374647       -6.578275        5.969860
  S            2.770192       18.097064        5.790244
  S            5.277622       17.782090        7.069302
  F            1.984383       20.203086        7.227556
  F            0.461111       18.682475        6.946115
  F            2.072713       18.356242        8.360497
  F            6.699227       18.861342        9.013807
  F            6.313924       20.229285        7.375290
  F            4.735497       19.754917        8.785343
  O            2.474205       16.693194        5.898753
  O            2.327128       18.819607        4.627605
  O            6.493233       17.437366        6.379140
  O            4.725292       16.845312        8.012614
  N            4.259410       18.507210        6.100187
  C            1.774662       18.878480        7.166702
  C            5.777454       19.247315        8.112395
  S          -17.371296        7.498592        5.432888
  S          -15.524067        8.886877        7.070817
  F          -15.543571        6.287412        3.912639
  F          -17.212110        7.137347        2.814728
  F          -15.658137        8.430249        3.600688
  F          -12.919440        9.221393        7.337025
  F          -13.555961        7.173012        7.658645
  F          -13.458508        7.974435        5.645454
  O          -18.164336        8.681258        5.226440
  O          -18.027678        6.221950        5.530093
  O          -15.686858        9.067085        8.489934
  O          -15.570410       10.043067        6.214351
  N          -16.285678        7.594025        6.570597
  C          -16.381021        7.335100        3.855246
  C          -13.769970        8.267336        6.915649
  S            4.401147       -3.226029       -0.168647
  S            2.471099       -5.247708       -0.627046
  F            2.650943       -1.251294        0.226192
  F            4.326717       -0.730957       -1.051639
  F            2.716641       -1.963954       -1.820754
  F           -0.148141       -5.539251       -0.773448
  F            0.533847       -4.906980        1.186039
  F            0.472485       -3.485510       -0.451143
  O            5.167634       -3.616527       -1.322009
  O            5.088620       -2.750181        1.002272
  O            2.588311       -6.595829       -0.135416
  O            2.510775       -5.021080       -2.048145
  N            3.281248       -4.238315        0.282086
  C            3.461175       -1.713667       -0.739211
  C            0.739479       -4.758925       -0.129705
  S            5.589800       15.370821        4.232101
  S            4.978507       17.963841        3.270349
  F            7.058143       14.630919        2.130861
  F            5.652113       13.129419        2.823969
  F            4.945014       14.837990        1.690409
  F            5.409459       19.483991        1.156047
  F            7.227070       18.958913        2.216730
  F            6.239315       17.488571        0.964872
  O            4.218442       15.116447        4.585520
  O            6.638311       14.834957        5.058888
  O            4.938547       19.139327        4.100714
  O            3.756954       17.497471        2.668050
  N            5.939157       16.866919        3.883253
  C            5.821792       14.449548        2.621584
  C            6.032479       18.495878        1.824375
  S           -6.378523        8.876894        2.203901
  S           -8.864925       10.206368        1.934269
  F           -5.705826       10.007536        4.525069
  F           -4.103528        9.924213        3.063042
  F           -5.694721       11.382328        2.848162
  F          -10.341328       11.996559        3.192164
  F          -10.030502       10.183910        4.342015
  F           -8.428311       11.633178        4.148840
  O           -6.007817        9.173477        0.845649
  O           -5.975277        7.623205        2.783348
  O          -10.060675        9.579098        1.434685
  O           -8.262844       11.264267        1.165630
  N           -7.887404        9.139576        2.573130
  C           -5.425581       10.126206        3.217533
  C           -9.441936       11.043819        3.499675
  S          -11.628550      -13.009858        6.447771
  S          -10.031770      -10.979520        7.609849
  F          -13.972092      -12.015649        7.246550
  F          -13.760924      -14.159049        7.516854
  F          -12.754585      -12.790265        8.865141
  F          -10.294191       -8.790971        9.061825
  F          -11.249296       -8.648495        7.119677
  F          -12.172967       -9.813466        8.699039
  O          -10.792886      -14.052223        6.981976
  O          -12.230034      -13.187356        5.152853
  O           -8.866511      -10.415435        6.979888
  O           -9.866100      -11.744046        8.818365
  N          -11.039833      -11.551040        6.533321
  C          -13.108195      -12.983897        7.590708
  C          -11.000771       -9.475973        8.143838
  S           -6.291696       15.055121        3.309001
  S           -4.473050       16.749864        4.666489
  F           -5.723653       15.940341        0.856981
  F           -7.842807       15.704944        1.263914
  F           -6.759057       17.391590        2.091488
  F           -2.730294       18.663721        4.149964
  F           -2.205450       16.762624        3.247284
  F           -3.791689       17.968405        2.390167
  O           -7.356842       15.370562        4.223438
  O           -6.202152       13.724770        2.768398
  O           -3.676160       16.335216        5.791614
  O           -5.489607       17.749400        4.866479
  N           -4.851843       15.516000        3.752251
  C           -6.668873       16.090561        1.798396
  C           -3.231289       17.572842        3.541547
  S           -4.191271      -12.353565        1.902168
  S           -3.575577       -9.850788        3.076658
  F           -5.772284      -11.382617       -0.015213
  F           -6.548838      -13.142300        0.990918
  F           -6.610045      -11.211769        1.977563
  F           -4.148192       -7.290759        2.784744
  F           -3.117593       -8.137117        1.074186
  F           -5.216769       -8.574909        1.400543
  O           -4.481547      -12.946502        3.180604
  O           -3.571575      -13.155899        0.881217
  O           -2.272118       -9.496891        3.575278
  O           -4.665705       -9.973457        4.008876
  N           -3.472339      -10.952410        1.946389
  C           -5.876200      -11.991025        1.176974
  C           -4.039609       -8.388252        2.013444
  S            8.030406       -8.009736       12.070198
  S            7.208371       -6.016439       13.906886
  F            8.473236       -6.347121       10.031006
  F            7.400955       -8.159003        9.502687
  F            6.377692       -6.557270       10.547459
  F            6.812120       -3.408891       14.009476
  F            8.876120       -3.945431       13.613883
  F            7.391673       -4.114520       12.041452
  O            6.912513       -8.854033       12.398392
  O            9.297375       -8.614302       11.754932
  O            7.569398       -6.011021       15.300622
  O            5.825930       -6.197824       13.548536
  N            8.280135       -6.797335       13.044761
  C            7.538101       -7.213734       10.451450
  C            7.604219       -4.277746       13.354607
  S          -18.144707        3.311746       -1.628577
  S          -17.592579        0.533727       -1.641438
  F          -18.407315        3.558073       -4.272259
  F          -17.228969        5.119989       -3.332185
  F          -16.376988        3.147876       -3.630619
  F          -17.288652       -1.454014       -3.351223
  F          -19.278702       -0.592091       -3.386671
  F          -17.623929        0.462752       -4.310655
  O          -17.045502        3.584128       -0.741002
  O          -19.349955        4.088796       -1.511644
  O          -18.106616       -0.391482       -0.665413
  O          -16.174007        0.773893       -1.690745
  N          -18.537715        1.793989       -1.783543
  C          -17.499254        3.801239       -3.313841
  C          -17.976439       -0.300322       -3.266792
  S            0.977544        0.156399       17.609691
  S            0.160043       -2.445895       18.372683
  F            2.477862       -0.615328       15.542767
  F            3.392450        0.890988       16.810189
  F            3.296122       -1.172184       17.472159
  F            0.524535       -4.962631       17.665550
  F           -0.431815       -3.771493       16.125728
  F            1.695365       -3.561338       16.494036
  O            1.312837        0.509950       18.963505
  O            0.426172        1.160016       16.738574
  O           -1.168476       -2.770363       18.822827
  O            1.255124       -2.562917       19.299808
  N            0.147769       -1.171507       17.435922
  C            2.628781       -0.217735       16.816113
  C            0.506065       -3.749854       17.082442
  S           24.129219       -2.235674       10.730523
  S           26.632484       -0.938953       10.457431
  F           24.022395       -3.168714        8.233181
  F           22.169632       -2.294641        8.950876
  F           23.820879       -1.013982        8.369962
  F           28.484425       -0.494110        8.630062
  F           28.229327       -2.597270        9.094936
  F           26.763911       -1.573083        7.866804
  O           23.535447       -1.082555       11.353406
  O           23.727594       -3.549194       11.158854
  O           27.646025       -0.926653       11.479905
  O           25.997243        0.300933       10.094650
  N           25.698791       -2.207958       10.597361
  C           23.509897       -2.168518        8.967498
  C           27.574506       -1.440548        8.925844
  S           -1.396898       13.638807        8.582184
  S           -4.144797       14.046788        8.029914
  F           -0.764843       16.222898        8.786314
  F            0.638565       15.038440        7.629021
  F           -1.271249       15.604119        6.770661
  F           -5.861401       16.022493        7.688290
  F           -4.997145       15.974664        9.677067
  F           -3.823622       16.697604        8.002280
  O           -1.261133       12.697076        7.502857
  O           -0.641479       13.435571        9.789718
  O           -5.201415       13.228442        8.565394
  O           -3.904599       14.029331        6.610598
  N           -2.874260       14.023193        8.971676
  C           -0.667744       15.219570        7.899650
  C           -4.730325       15.784866        8.377770
  S           21.986347       -4.419862        6.667879
  S           24.667534       -4.598508        5.772489
  F           21.457083       -7.028994        6.491814
  F           19.900448       -5.736511        5.705560
  F           21.719953       -6.059425        4.570090
  F           26.393571       -6.405447        4.922419
  F           25.752571       -6.731096        6.968766
  F           24.423564       -7.219889        5.325740
  O           21.704833       -3.318951        5.785281
  O           21.362852       -4.457035        7.964018
  O           25.752109       -3.831413        6.327585
  O           24.272073       -4.356179        4.409645
  N           23.508305       -4.792873        6.830860
  C           21.233385       -5.897691        5.804515
  C           25.338799       -6.340313        5.755724
  S          -13.109028        5.435020        1.708324
  S          -13.576183        7.632744       -0.016256
  F          -12.405841        6.889081        3.831984
  F          -11.130138        5.175282        3.448190
  F          -10.963091        6.951190        2.214329
  F          -13.444161       10.268893       -0.004615
  F          -14.890442        9.478735        1.405487
  F          -12.770292        9.365282        1.849110
  O          -12.331029        4.746122        0.713151
  O          -13.941471        4.672054        2.599966
  O          -14.662365        7.696635       -0.959123
  O          -12.226495        7.581787       -0.514456
  N          -13.929303        6.678006        1.194331
  C          -11.829257        6.164212        2.860190
  C          -13.679910        9.272863        0.869188
  S          -18.534370       11.658490        4.888741
  S          -15.939371       12.786250        4.760150
  F          -18.146749        9.842870        2.972504
  F          -20.038426       10.899924        2.845951
  F          -18.202127       11.884278        2.243276
  F          -13.692427       12.525598        3.399946
  F          -14.212454       10.755106        4.539855
  F          -15.275585       11.214558        2.705907
  O          -19.160200       12.954011        4.874792
  O          -19.125621       10.602121        5.666308
  O          -15.185982       13.200642        5.914946
  O          -16.375383       13.785829        3.820367
  N          -16.978305       11.654103        5.135112
  C          -18.731064       11.040558        3.134945
  C          -14.717939       11.751355        3.800015
  S           22.783666       10.750884       12.731713
  S           24.073416       11.537346       10.335795
  F           20.724469        9.529443       11.554224
  F           20.182938       10.804159       13.225649
  F           20.713993       11.684747       11.316013
  F           23.729328       11.402428        7.722321
  F           23.945420        9.457650        8.658060
  F           22.083368       10.553026        8.852029
  O           22.924490       12.062839       13.305451
  O           22.882962        9.597332       13.585857
  O           25.500007       11.505530       10.144238
  O           23.402261       12.810902       10.343850
  N           23.622167       10.483056       11.425100
  C           21.003085       10.692625       12.163853
  C           23.417083       10.679165        8.813457
  S           13.813703       15.153545       13.297891
  S           14.504559       15.156545       10.551054
  F           11.621079       16.651322       13.037593
  F           12.896619       17.199573       14.706196
  F           13.465901       17.734351       12.682809
  F           13.658288       16.157189        8.259901
  F           12.240394       14.793498        9.173349
  F           12.481256       16.798096        9.965991
  O           15.158372       15.476505       13.695125
  O           13.027692       14.279858       14.127928
  O           15.023092       14.009429        9.852399
  O           15.353185       16.306602       10.723269
  N           13.631307       14.718135       11.794825
  C           12.899399       16.779483       13.427131
  C           13.135082       15.756486        9.433304
  S           -9.506880       18.654172       -2.680845
  S          -12.220316       19.276079       -2.158451
  F           -9.803224       16.004226       -2.587790
  F           -8.063405       16.756249       -1.529816
  F          -10.039912       16.977686       -0.664630
  F          -14.506282       18.058750       -1.649221
  F          -13.704300       17.587560       -3.608626
  F          -12.828484       16.696003       -1.835837
  O           -9.041887       19.605469       -1.706653
  O           -8.743506       18.451559       -3.883472
  O          -12.938648       20.342441       -2.806326
  O          -11.970137       19.366847       -0.743661
  N          -11.031380       18.758731       -3.064277
  C           -9.355921       17.004957       -1.812726
  C          -13.371521       17.816735       -2.331079
  S            3.386213      -11.801150        0.900714
  S            4.211118      -11.665757        3.606930
  F            0.852193      -12.461254        1.412278
  F            1.780168      -13.607203       -0.180670
  F            2.275727      -14.026042        1.888910
  F            3.236185      -12.028075        6.032848
  F            2.270715      -10.411917        4.955646
  F            1.811977      -12.472588        4.457746
  O            4.530891      -12.590964        0.531744
  O            2.868112      -10.837531       -0.033690
  O            5.109985      -10.666567        4.123192
  O            4.637805      -13.040554        3.588766
  N            3.446237      -11.136271        2.327735
  C            1.996474      -13.046058        1.023830
  C            2.794915      -11.637868        4.822806
  S            7.480440       14.770342       14.047912
  S            7.834579       16.432395       16.313871
  F            9.376972       13.008084       14.693128
  F            9.383160       13.619742       12.610423
  F           10.148224       14.956972       14.137072
  F            9.356571       16.615234       18.462582
  F            8.138272       14.821080       18.427577
  F            9.895670       14.962830       17.164181
  O            7.477188       15.895940       13.151669
  O            6.634859       13.642298       13.760486
  O            6.751190       17.047577       17.035458
  O            8.761683       17.273827       15.603289
  N            7.354148       15.116372       15.579699
  C            9.198755       14.054462       13.871179
  C            8.860670       15.652093       17.664067
  S            4.323250       11.512889       15.310514
  S            6.448939       12.209829       17.047787
  F            4.981921        8.937689       15.079884
  F            4.451561        9.905281       13.210578
  F            6.382803       10.286859       14.121000
  F            8.546155       11.107897       18.211523
  F            6.661520       10.246673       18.852543
  F            7.474104        9.748292       16.904201
  O            4.568403       12.648794       14.462072
  O            2.969740       11.070971       15.517456
  O            6.313103       13.113508       18.160345
  O            7.283735       12.593671       15.939528
  N            5.066564       11.524626       16.699543
  C            5.088517       10.080554       14.383633
  C            7.321110       10.738068       17.794781
  S           23.418037        7.216297       -3.434041
  S           25.816818        8.458697       -2.582754
  F           21.931245        8.036732       -1.376123
  F           21.659114        5.950991       -1.912268
  F           23.437139        6.572588       -0.836903
  F           26.734500        9.911383       -0.579154
  F           25.165618       10.900066       -1.704134
  F           24.667915        9.302033       -0.324536
  O           24.089809        5.972143       -3.700572
  O           22.331319        7.623065       -4.284740
  O           26.743136        9.109785       -3.472073
  O           26.237606        7.267370       -1.892729
  N           24.354390        8.458640       -3.185284
  C           22.572500        6.932530       -1.790609
  C           25.570119        9.715899       -1.225056
  S           -3.732559       -7.495810       17.031352
  S           -6.096801       -6.005883       16.569967
  F           -2.720501       -5.853008       18.874075
  F           -1.292465       -6.531283       17.386636
  F           -2.752495       -5.010810       16.876109
  F           -7.260040       -3.772863       17.362018
  F           -7.004935       -5.217584       18.959568
  F           -5.301527       -4.082204       18.242612
  O           -3.477457       -7.635563       15.622230
  O           -3.391941       -8.577651       17.916622
  O           -7.391528       -6.599389       16.359484
  O           -5.479945       -5.283758       15.488079
  N           -5.163775       -6.961901       17.416861
  C           -2.566546       -6.137356       17.571113
  C           -6.427751       -4.703032       17.865272
  S           10.518259      -11.445519       11.565791
  S           11.439555       -9.730339       13.622918
  F            7.987688      -10.601078       11.608443
  F            8.218883      -12.756848       11.503448
  F            8.565864      -11.717502       13.375220
  F           10.520423       -7.889811       15.276551
  F           10.345198       -7.328191       13.188886
  F            8.978141       -8.782030       14.038721
  O           11.160910      -12.590482       12.154257
  O           10.451402      -11.338083       10.132581
  O           12.717051       -9.066659       13.602793
  O           11.194060      -10.733416       14.625926
  N           10.939954      -10.046987       12.155993
  C            8.722174      -11.634297       12.050321
  C           10.248721       -8.355652       14.043525
  S           -4.544263       -7.023945        8.003014
  S           -3.971831       -5.488406        5.692853
  F           -3.252521       -9.219054        7.208289
  F           -5.205330       -9.586632        8.081925
  F           -5.047966       -8.800584        6.066602
  F           -2.736899       -5.721107        3.371724
  F           -1.407716       -5.932232        5.072654
  F           -2.741816       -7.554602        4.531543
  O           -5.936125       -6.660886        7.969225
  O           -3.893899       -7.192413        9.275313
  O           -3.642405       -4.087149        5.721586
  O           -5.199827       -5.900133        5.064391
  N           -3.597349       -6.188873        7.060642
  C           -4.508410       -8.751545        7.288562
  C           -2.634079       -6.221443        4.616824
  S           24.733459        5.275134       10.429451
  S           26.874576        7.123276       10.579092
  F           22.807146        7.099402       10.146508
  F           22.349247        5.513462       11.556098
  F           23.724927        7.095731       12.111159
  F           27.294444        9.729065       10.558523
  F           26.432798        8.986981        8.711540
  F           25.193083        9.195312       10.479142
  O           25.207581        4.545833       11.575558
  O           24.108880        4.557206        9.350292
  O           28.157908        6.916999        9.959917
  O           26.795213        7.162011       12.015984
  N           25.741651        6.321492        9.820566
  C           23.331247        6.314044       11.100865
  C           26.413282        8.851312       10.044433
  S           10.346209      -13.559813        6.624783
  S            8.700576      -11.951217        4.973507
  F           12.206112      -11.698450        7.066117
  F           12.991646      -13.668740        6.604909
  F           12.169869      -12.430387        5.025248
  F            8.640361       -9.523430        3.939547
  F            8.579428       -9.531434        6.107654
  F           10.444066       -9.931105        5.074165
  O           10.288931      -14.663896        5.703938
  O           10.384481      -13.826374        8.038142
  O            7.261648      -11.960856        5.021082
  O            9.359075      -12.425600        3.784475
  N            9.318479      -12.395441        6.360085
  C           12.018873      -12.787906        6.304347
  C            9.119643      -10.133303        5.039332
  S           24.653521        6.263146        6.700140
  S           25.637352        3.607205        6.678793
  F           22.595344        5.787085        8.329854
  F           22.117107        7.017085        6.606424
  F           22.387809        4.877925        6.372165
  F           25.053730        1.232466        7.672194
  F           25.515809        2.706464        9.194783
  F           23.598952        2.759408        8.181093
  O           24.742844        6.368438        5.267950
  O           24.927931        7.422193        7.507240
  O           27.036564        3.269137        6.706816
  O           24.869482        3.288279        5.503583
  N           25.380379        5.020678        7.340456
  C           22.836852        5.957283        7.020284
  C           24.908093        2.525877        8.014335
  S           15.951244        1.407229       16.888392
  S           14.477702        3.482101       15.645018
  F           17.581413        3.007645       18.266765
  F           18.567527        1.338927       17.289637
  F           17.920275        3.050575       16.125382
  F           14.409968        6.118226       15.530535
  F           14.007681        5.337649       17.513797
  F           16.035846        5.351059       16.744984
  O           16.118634        0.703186       15.644793
  O           15.784321        0.654982       18.103449
  O           13.053697        3.441790       15.436562
  O           15.347857        3.469093       14.498233
  N           14.898458        2.579183       16.873612
  C           17.594617        2.259293       17.152286
  C           14.751282        5.161341       16.413179
  S          -12.201148        3.332719       -5.381778
  S          -12.388559        4.001762       -2.635934
  F          -12.670896        0.725107       -5.068115
  F          -11.036644        1.192513       -6.418141
  F          -10.758673        1.369834       -4.274440
  F          -12.790978        2.840158       -0.300215
  F          -14.483603        2.665516       -1.645200
  F          -12.720751        1.440730       -1.956591
  O          -10.980963        4.078818       -5.538995
  O          -13.145793        3.296194       -6.466405
  O          -13.016980        5.199476       -2.142539
  O          -10.969593        3.837892       -2.456664
  N          -12.986366        3.582382       -4.038962
  C          -11.634272        1.554549       -5.267375
  C          -13.145038        2.656677       -1.585579
  S           -0.745009       17.877936       14.902528
  S           -0.756274       16.205714       12.616494
  F           -3.173364       18.910200       14.507292
  F           -1.654434       20.359729       15.058237
  F           -1.703899       19.550143       13.046698
  F           -2.304923       15.604454       10.565392
  F           -3.179971       15.081721       12.479943
  F           -3.129088       17.153865       11.840926
  O            0.572073       18.374098       14.603611
  O           -1.129520       17.692013       16.276459
  O           -0.220118       14.869673       12.596475
  O           -0.119437       17.221348       11.819384
  N           -1.203791       16.617153       14.076695
  C           -1.885240       19.247303       14.335929
  C           -2.443276       16.002409       11.843544
  S          -13.575984       -4.570462        2.020082
  S          -13.889494       -1.781949        1.634977
  F          -12.349120       -4.391459        4.382592
  F          -11.452113       -5.808054        3.004022
  F          -11.152380       -3.678728        2.720660
  F          -13.305423        0.497246        2.831212
  F          -14.659312       -0.748941        3.979457
  F          -12.549863       -1.244265        3.881535
  O          -13.071784       -4.755920        0.685308
  O          -14.397334       -5.594866        2.608370
  O          -15.067135       -1.177043        1.069185
  O          -12.649791       -1.701179        0.907606
  N          -14.232607       -3.168790        2.313712
  C          -12.044397       -4.602274        3.092256
  C          -13.587234       -0.772737        3.176045
  S          -17.645925        0.927167       16.974096
  S          -14.850736        1.363329       17.112239
  F          -17.535298       -1.715696       17.322988
  F          -18.882466       -1.068001       15.748996
  F          -16.738963       -1.051981       15.418383
  F          -12.608737        0.000119       17.398508
  F          -13.921299       -0.141170       19.119462
  F          -14.375352       -1.256494       17.315412
  O          -17.771611        1.737515       15.791822
  O          -18.706244        0.935952       17.946593
  O          -14.245573        2.487907       17.777048
  O          -14.720576        1.249357       15.683069
  N          -16.268198        1.032155       17.730999
  C          -17.691518       -0.827204       16.328783
  C          -13.895672       -0.094725       17.780591
  S           -0.923052      -11.170685       14.909002
  S            1.111456      -13.113156       14.577361
  F           -1.154425      -10.561850       12.321633
  F           -1.119892       -8.847973       13.653269
  F            0.715702       -9.913872       13.207602
  F            2.572384      -14.196938       12.664784
  F            0.449789      -14.584182       12.443212
  F            1.251684      -12.628838       11.955051
  O           -0.217326      -10.532840       15.988510
  O           -2.360194      -11.227800       14.947250
  O            1.169914      -14.348417       15.314642
  O            2.141797      -12.129912       14.787326
  N           -0.374875      -12.582216       14.474103
  C           -0.592340      -10.067391       13.436012
  C            1.347318      -13.658441       12.807674
  S          -17.736884        6.933737        8.919433
  S          -16.569175        4.459561        8.186420
  F          -18.709014        6.102645       11.261001
  F          -20.087182        7.296733       10.083450
  F          -19.704813        5.231322        9.543046
  F          -16.325771        1.995220        9.099997
  F          -15.380555        3.476173       10.371928
  F          -17.539576        3.268000       10.370279
  O          -18.347061        7.094025        7.626288
  O          -17.255368        8.096402        9.616897
  O          -15.293131        4.336927        7.531024
  O          -17.756100        4.063061        7.474764
  N          -16.650957        5.797340        9.026299
  C          -19.136186        6.346483       10.011868
  C          -16.446628        3.240796        9.595091
  S           -0.654936        7.797548       -2.090513
  S            2.174791        7.769048       -2.209815
  F           -0.941208        5.192136       -1.591948
  F           -2.303988        5.980940       -3.086084
  F           -0.225252        5.625144       -3.592474
  F            4.183852        6.066977       -2.026854
  F            3.028241        6.225825       -0.198249
  F            2.237375        5.118948       -1.887646
  O           -0.755428        8.561751       -3.305474
  O           -1.606722        8.027557       -1.036330
  O            3.011713        8.807046       -1.666684
  O            2.153911        7.568815       -3.635272
  N            0.784888        7.707131       -1.457436
  C           -1.041927        6.047114       -2.622063
  C            2.938786        6.205167       -1.535021
  S           26.747385        1.089465        2.339706
  S           24.113019        0.182894        1.829169
  F           27.141387       -0.403534        4.515575
  F           27.801273        1.656013        4.701685
  F           25.687161        1.180591        4.794798
  F           22.306193       -1.444897        2.855096
  F           24.108184       -2.465036        2.209642
  F           24.115539       -1.308212        4.044421
  O           26.366685        2.467045        2.173654
  O           28.050838        0.664368        1.903351
  O           23.596627       -0.082860        0.511754
  O           23.548326        1.266261        2.590677
  N           25.686443        0.025602        1.865730
  C           26.838332        0.864068        4.193689
  C           23.646938       -1.348580        2.789440
  S           23.481121        9.746801        3.061624
  S           21.476683        9.742452        1.060471
  F           23.416865       12.374835        3.517693
  F           25.411863       11.532147        3.370448
  F           24.230120       11.844412        1.578761
  F           19.912468       11.431553       -0.230660
  F           19.525417       11.367200        1.902534
  F           21.275493       12.403729        1.149176
  O           24.357755        8.929160        2.265879
  O           23.465212        9.574182        4.489928
  O           20.468488        8.722167        0.936253
  O           22.459568        9.877864        0.017371
  N           21.994425        9.851964        2.551004
  C           24.166678       11.474923        2.861791
  C           20.494710       11.327926        0.978241
  S           -9.039917        1.830443       -1.672538
  S           -8.306626        3.508546       -3.833246
  F           -6.962483        0.170266       -1.888804
  F           -8.875170       -0.810802       -1.587221
  F           -8.374960        0.019997       -3.527253
  F           -6.428734        3.718805       -5.676114
  F           -5.667666        3.908609       -3.653933
  F           -6.215588        1.957597       -4.427264
  O          -10.399762        1.735655       -2.133049
  O           -8.778331        1.853762       -0.257924
  O           -8.447044        4.941372       -3.820481
  O           -9.103936        2.741020       -4.753930
  N           -8.159721        2.938358       -2.365239
  C           -8.265315        0.215517       -2.209504
  C           -6.552382        3.254784       -4.418903
  S           -8.668683       17.627672       10.367359
  S          -10.222789       18.764106        8.289939
  F          -10.500614       15.852628       11.149623
  F           -9.514980       16.907472       12.770626
  F          -11.033047       17.908406       11.588352
  F          -12.620369       18.536809        7.209758
  F          -11.418834       16.742086        7.010398
  F          -12.320316       17.236433        8.920284
  O           -8.302323       18.921690       10.878763
  O           -7.712449       16.554170       10.424913
  O           -9.689817       19.156579        7.011355
  O          -10.732355       19.781668        9.171623
  N           -9.346395       17.622006        8.945132
  C          -10.014153       17.045320       11.527921
  C          -11.724344       17.752054        7.836241
  S            5.759383       -5.209134       -5.107463
  S            3.884598       -3.091687       -5.262382
  F            4.071813       -7.003948       -4.083041
  F            6.023296       -6.954292       -3.133794
  F            4.572905       -5.396618       -2.716444
  F            1.359139       -2.587890       -4.683507
  F            1.600328       -4.133755       -6.185704
  F            1.995340       -4.578219       -4.099769
  O            6.750840       -4.362859       -4.498312
  O            6.180578       -6.237513       -6.021319
  O            3.813417       -2.161034       -6.358598
  O            4.264706       -2.604894       -3.961995
  N            4.513768       -4.467411       -5.724187
  C            5.058377       -6.188835       -3.677392
  C            2.113054       -3.640663       -5.050204
  S            7.162400        9.949121       11.096953
  S            6.528818        7.640251       12.610259
  F            5.287615        9.586664        9.233490
  F            7.236140       10.146145        8.457570
  F            6.886788        8.123997        9.159735
  F            4.863703        5.592797       12.563663
  F            3.860990        7.506486       12.755569
  F            4.673783        6.895921       10.839508
  O            8.569018        9.647146       11.118620
  O            6.739004       11.323214       11.148978
  O            6.532516        7.597629       14.049370
  O            7.494741        6.852509       11.889903
  N            6.268090        9.109370       12.085429
  C            6.608718        9.410238        9.394200
  C            4.884858        6.877361       12.162874
  S           18.450745       19.611596        1.467279
  S           19.819687       17.175694        1.003834
  F           16.060031       18.511136        1.905649
  F           16.027909       20.257457        0.616791
  F           16.729993       18.354264       -0.150739
  F           19.337995       14.583422        0.881565
  F           18.960155       15.432044        2.841551
  F           17.557116       15.774489        1.223242
  O           19.028900       20.224579        0.300993
  O           18.212214       20.415030        2.636765
  O           21.151296       16.900514        1.477082
  O           19.592693       17.270096       -0.414623
  N           19.102082       18.249411        1.917022
  C           16.722497       19.146386        0.925922
  C           18.858017       15.663202        1.525678
  S           21.923392       17.997561        5.274086
  S           23.132851       20.534419        5.626167
  F           24.112854       16.764762        4.376782
  F           22.305296       16.322948        3.259037
  F           23.306532       18.228750        2.995198
  F           25.464610       21.722145        5.281126
  F           25.531426       20.112013        6.732840
  F           25.443138       19.657926        4.613708
  O           20.792162       18.567994        4.592061
  O           21.724767       16.859423        6.131578
  O           22.858937       21.407024        6.738103
  O           22.741788       20.950273        4.304580
  N           22.865996       19.023349        6.009826
  C           22.978237       17.298719        3.897406
  C           24.998075       20.491852        5.563803
  S           20.894766       18.117648        8.241771
  S           19.444572       17.713380       10.640917
  F           21.280699       20.735314        8.584651
  F           20.673827       20.166775        6.579585
  F           19.217120       20.201457        8.186123
  F           18.528833       19.087946       12.699762
  F           20.692899       19.104429       12.554808
  F           19.506935       20.322183       11.207486
  O           19.931697       17.379935        7.468134
  O           22.287881       18.034008        7.892004
  O           19.598256       16.558672       11.487027
  O           18.189731       17.916960        9.965353
  N           20.759978       17.985749        9.805897
  C           20.486405       19.907603        7.887329
  C           19.561318       19.140875       11.838160
  S           19.634844        7.644131       14.865034
  S           19.927399        6.067842       17.200013
  F           17.170234        8.505612       15.414795
  F           17.466760        7.866776       13.361559
  F           17.271189        6.392185       14.940007
  F           18.555642        5.362454       19.341871
  F           18.941184        7.494308       19.236895
  F           17.425970        6.602910       17.966365
  O           20.117927        6.584438       14.020098
  O           19.956827        9.006928       14.534559
  O           21.148171        5.973914       17.957485
  O           19.440414        4.896135       16.520008
  N           19.851055        7.436998       16.411774
  C           17.779073        7.592169       14.642005
  C           18.638344        6.413380       18.505272
