         874
  Built with Packmol                                             
  Ti          -2.868335        2.115442       11.265214
  Ti           7.802788        5.383210        1.844391
  Ti           1.352572       -1.673500        9.417113
  Ti           2.511792        7.542652        3.648414
  Ti           1.444672        9.187418        1.751989
  Ti           3.259458       -1.864257       11.359530
  Ti          -1.869782        0.416024        9.366140
  Ti           5.815984        5.614284        3.703281
  H            3.746896        1.652626        8.583439
  H           -7.024875       10.142785        6.478257
  H            4.431630       11.010612        4.650438
  H           -2.503694        6.028051       11.048460
  H            8.748737        1.507342        2.155250
  H           -6.801542        1.221893       10.903644
  H           11.114246        7.503838        2.029089
  H            4.372721       -5.862020       10.962653
  H           -2.589143        8.456181        2.095703
  H            4.656966        3.204147        6.826953
  H           -0.045224        3.670268        8.406030
  H           12.440918       -1.828167        6.378540
  H           -2.327232        0.331938       12.984230
  H            5.927385        5.077403        0.154584
  H            3.761426       -2.506617        5.844726
  H            0.745560        9.314262        7.279431
  H           -6.059913        3.661213        9.037490
  H           10.641247        3.393379        4.132134
  H           -3.728587        2.298708        5.688870
  H           -1.703972       10.903386        4.124923
  H            1.733452       12.300945        2.609537
  H            8.667985       -0.517063        3.355831
  H            4.606680        7.297451        2.297825
  H            0.215487        0.134620       10.719246
  H            7.415332        0.218685        9.728366
  H            5.955496       -0.302534       10.483299
  H            7.828656        4.670987        8.632537
  H            7.237651        5.011538        7.017709
  H            7.098177       -4.749977        9.534320
  H            5.784030       -3.695029       10.000157
  H            1.411485        1.911548        9.356085
  H            0.863759        5.227040        6.648574
  H            5.741023        9.069333        3.845371
  H            7.999135        8.609993        4.744623
  C            8.422325        4.659191        4.703706
  C           -3.853328        2.346718        8.423899
  C            3.961595       -2.592630        8.476524
  C            0.513540        9.443357        4.621320
  C            9.344336        4.085192        5.693105
  C           -4.811926        2.940026        7.452907
  C            4.917315       -3.172748        7.523270
  C           -0.392661       10.057561        5.626884
  C            9.101042        4.149763        7.100999
  C           -4.599256        2.829342        6.063538
  C            6.075072       -3.893771        7.969088
  C           -1.516055       10.792469        5.189090
  C           -0.124811        9.894234        6.980095
  C            4.657405       -3.047644        6.140915
  C           10.498947        3.426687        5.210054
  C           -5.932679        3.593124        7.958691
  C            2.813684        4.307411        6.639567
  C            1.802100        2.580168        8.590925
  C            6.161473        9.726276        4.605129
  C           -1.730084       -2.944720        6.528234
  C            8.715175        1.588330        0.011262
  C            1.839040       13.147429        0.088587
  C            6.684170        0.195343       12.990012
  C           -6.719779        1.271810       13.046845
  C            3.350517        5.224492        5.605606
  C           -1.145018       -2.033515        7.540248
  C            4.215985       -4.201651       13.101266
  C            1.796086       11.711651        0.049701
  C            5.408882       -0.466276       13.043122
  C           -5.332575        1.734605       13.064020
  C            1.482906        4.442604        7.078738
  C            3.125222        2.436827        8.154613
  C            5.424120       10.827594        5.058747
  C           -8.018869       10.319594        6.073436
  C            8.784652        0.919515        1.239780
  C           -2.508142        6.615249       11.963065
  C           -4.360552        7.730507        1.110303
  C           -7.351366        1.022025       11.821932
  C            7.441371        9.469644        5.112723
  C           12.991193       -2.694552        6.017481
  C            3.632637        3.298056        7.181208
  C            0.980621        3.578705        8.052889
  C            7.361766        0.489528       11.753548
  C           -3.089201        8.254946        1.152479
  C            4.438003       -6.388560       11.910676
  C            8.855538       -0.479663        1.318796
  N            8.938305       -1.077634        2.555968
  N            6.782516        0.288157       10.517426
  N            8.001283        4.757340        7.639127
  N            6.418775       -4.042078        9.284423
  O            7.234665        5.022637        5.076604
  O           -3.053924        1.423703        8.020113
  O            4.345224       -2.456407        9.695708
  O            0.426054        9.871897        3.422680
  O            1.318961        8.513079        5.002228
  O            2.776776       -2.264724        8.078087
  O            8.824398        4.755701        3.489805
  O           -3.903766        2.779752        9.624467
  O            6.156697        4.409127        2.505218
  O           -1.367975        1.993658       10.109628
  O            7.017801        6.727170        2.953185
  O           -3.056279        0.208461       10.609657
  O            1.659621       -2.837312       10.674383
  O            2.969458        9.121937        2.909279
  O            2.531624       -0.543378       10.208048
  O            1.322575        7.306972        2.398893
  O            4.575167        5.087631        5.244337
  O           -1.836144       -1.022528        7.923516
  O            4.066391       -3.610049       11.962095
  O            1.743514       11.006429        1.144350
  O            4.771026       -0.795498       11.956418
  O           -0.427504        9.094025        1.094098
  O            0.028867       -2.288059        7.991258
  O            2.574295        6.119616        5.117796
  O            9.199419        6.452785        1.083295
  O           -4.748114        1.988975       11.944029
  O            8.500254        3.672420        1.113292
  O           -2.542975        3.849240       12.015231
  O            4.269171        6.735574        3.019668
  O           -0.147093       -0.436062       10.017030
  O            6.748057        5.600086        0.071530
  O           -2.238358        1.302347       13.044892
  S            7.955846       14.527115        8.835425
  S            7.642294       17.154753        7.825670
  F            5.661107       13.576302        7.861352
  F            6.075955       13.006446        9.914395
  F            5.400740       15.017069        9.460912
  F            5.905584       18.594750        6.455599
  F            6.714046       16.928285        5.326994
  F            5.220716       16.576298        6.860220
  O            8.320536       15.010812       10.140520
  O            8.578498       13.332187        8.330892
  O            8.717950       17.936182        7.273218
  O            7.021112       17.594602        9.047604
  N            7.935075       15.606506        7.688019
  C            6.168088       14.013066        9.025171
  C            6.296220       17.309764        6.541607
  S           17.315762       11.456171        5.709848
  S           17.304545       14.285507        5.840743
  F           14.780862       11.129606        6.475567
  F           16.192576        9.783250        7.427517
  F           16.081981       11.857975        8.049974
  F           15.682690       16.268422        6.476732
  F           14.991991       15.109789        4.778212
  F           14.806796       14.307625        6.784938
  O           18.557748       11.370747        6.431240
  O           17.044367       10.504737        4.665232
  O           17.959800       15.136157        4.881626
  O           17.788747       14.265952        7.196333
  N           16.920971       12.892569        5.197055
  C           16.017509       11.044750        6.991097
  C           15.595117       15.024074        5.971645
  S            2.664825       16.286377       18.225373
  S            4.221919       13.967190       17.757156
  F            0.324691       15.019307       18.417723
  F            0.277485       16.825961       17.215394
  F            1.159630       15.012759       16.416468
  F            3.921848       11.360274       17.472914
  F            3.339651       12.079357       19.434655
  F            2.045806       12.419810       17.727387
  O            3.289566       16.994499       17.139787
  O            2.284970       17.010736       19.409061
  O            5.528347       13.749851       18.321850
  O            4.098979       14.122218       16.331214
  N            3.367450       14.945001       18.660209
  C            1.017508       15.744958       17.525701
  C            3.324085       12.372956       18.127389
  S          -13.979528       -5.939313       15.872459
  S          -11.561143       -6.607670       14.558263
  F          -13.862616       -7.892645       17.686161
  F          -15.813766       -7.622534       16.774090
  F          -14.223014       -8.596059       15.666876
  F           -9.633201       -8.406647       14.674753
  F           -9.769014       -7.181743       16.459586
  F          -11.222115       -8.753823       16.110625
  O          -14.690892       -5.823482       14.627157
  O          -14.314292       -5.054537       16.956529
  O          -10.617604       -5.635911       14.070114
  O          -12.257591       -7.436640       13.609460
  N          -12.410496       -6.023130       15.757700
  C          -14.489385       -7.612887       16.532400
  C          -10.491361       -7.800670       15.515905
  S           14.905312       -2.820046       11.059348
  S           17.665414       -2.496718       11.606791
  F           14.307130       -0.220025       11.086903
  F           12.901897       -1.481567       12.157255
  F           14.830136       -1.016686       13.034719
  F           19.413794       -0.580150       12.093394
  F           18.523968       -0.445254       10.119951
  F           17.381915        0.145785       11.866691
  O           14.769926       -3.849447       12.055460
  O           14.131959       -2.908692        9.849319
  O           18.703593       -3.279464       10.988435
  O           17.442892       -2.633308       13.022519
  N           16.382909       -2.422652       10.684061
  C           14.207111       -1.294687       11.885255
  C           18.270894       -0.742843       11.401662
  S          -14.496380        7.351354       -4.872276
  S          -16.735691        9.084919       -4.923635
  F          -12.682979        9.249189       -4.394272
  F          -12.107465        7.812869       -5.916635
  F          -13.559483        9.357525       -6.374725
  F          -17.303380       11.653016       -4.701248
  F          -16.438145       10.809258       -2.900164
  F          -15.177084       11.230962       -4.613816
  O          -14.905185        6.694361       -6.085319
  O          -13.853756        6.582090       -3.840108
  O          -18.017376        8.757840       -4.355152
  O          -16.629860        9.246669       -6.350203
  N          -15.574447        8.286704       -4.205232
  C          -13.142331        8.517808       -5.422059
  C          -16.384220       10.785571       -4.238790
  S          -17.675824       -4.679494       15.626937
  S          -17.001132       -2.760125       17.597524
  F          -20.140959       -3.763991       15.175660
  F          -19.997214       -5.922771       15.351237
  F          -19.892604       -4.679727       17.125516
  F          -18.075597       -0.711475       18.868512
  F          -17.902968       -0.395877       16.729572
  F          -19.450248       -1.699378       17.511570
  O          -17.184876       -5.764729       16.434073
  O          -17.517533       -4.740416       14.198184
  O          -15.706053       -2.140248       17.704258
  O          -17.443704       -3.630139       18.655665
  N          -17.284634       -3.233606       16.115235
  C          -19.531721       -4.758269       15.840873
  C          -18.176877       -1.311894       17.668335
  S            7.623612      -11.951261        8.806876
  S            9.067631       -9.528091        9.062718
  F            9.618448      -13.549076        9.572581
  F            8.525395      -14.240799        7.829430
  F            9.942630      -12.609312        7.645422
  F           11.481140       -8.677489        9.709479
  F           10.464148       -9.684884       11.339003
  F           11.303005      -10.839701        9.705777
  O            7.128483      -11.585419        7.506399
  O            6.778074      -12.706960        9.692363
  O            8.504626       -8.309033        9.582135
  O            9.469688       -9.573664        7.681150
  N            8.305437      -10.793078        9.628937
  C            9.014484      -13.146866        8.443102
  C           10.664176       -9.702618       10.014215
  S           -6.701268       17.531107        9.674944
  S           -9.517298       17.522463        9.978753
  F           -6.653790       16.051568        7.455169
  F           -5.177260       15.492710        8.944920
  F           -7.259382       14.953292        9.224134
  F          -11.668087       16.528939        8.815195
  F          -10.568638       17.904312        7.548694
  F           -9.814741       15.897761        7.880512
  O           -6.493684       17.196997       11.058965
  O           -5.771371       18.411255        9.018642
  O          -10.282302       18.665261       10.404958
  O           -9.462959       16.365403       10.833574
  N           -8.165087       17.968060        9.289766
  C           -6.444859       15.912802        8.774017
  C          -10.433991       16.933931        8.462816
  S           -2.649289       11.387176       -5.659100
  S           -2.106141       14.144990       -5.310024
  F           -3.959168       11.065391       -3.357066
  F           -2.526242        9.498379       -3.807641
  F           -1.836366       11.432752       -3.110192
  F           -2.486464       16.067173       -3.541574
  F           -4.335047       15.266504       -4.345399
  F           -3.209786       14.132236       -2.878451
  O           -1.289922       11.109215       -6.040011
  O           -3.717023       10.651862       -6.283086
  O           -2.168653       15.116131       -6.371085
  O           -0.831743       13.859635       -4.704270
  N           -3.047803       12.910683       -5.612507
  C           -2.745687       10.824774       -3.878444
  C           -3.099668       14.938557       -3.943306
  S            2.165392       -4.534239       17.633953
  S            1.865135       -7.263120       18.330699
  F            2.385579       -4.938055       15.005809
  F            3.819475       -3.530199       15.826604
  F            4.083506       -5.659208       16.145620
  F            1.818372       -9.642520       17.189158
  F            0.201711       -8.350492       16.539900
  F            2.213288       -8.027139       15.795782
  O            3.150429       -4.321349       18.660896
  O            1.241165       -3.477631       17.318537
  O            0.960303       -7.737856       19.344984
  O            3.281864       -7.407991       18.541290
  N            1.368140       -5.890184       17.722603
  C            3.171061       -4.685741       16.064876
  C            1.498733       -8.373424       16.875454
  S           27.322530       12.254897       -2.010535
  S           26.664942       10.999721        0.441915
  F           28.748030       14.238558       -0.937348
  F           27.372555       14.856788       -2.498656
  F           26.623341       14.366486       -0.523195
  F           27.032190       11.324258        3.035494
  F           28.878919       11.005702        1.943442
  F           27.875745       12.926018        1.839798
  O           25.962235       12.188984       -2.474741
  O           28.395025       12.096110       -2.956391
  O           26.633582        9.572702        0.630338
  O           25.433979       11.739926        0.538269
  N           27.649780       11.397142       -0.730216
  C           27.525240       14.027041       -1.449514
  C           27.679797       11.601100        1.888696
  S           -8.686283       -0.332937       -0.138490
  S           -6.358302        0.585112        1.188195
  F           -9.842479        2.060870       -0.365616
  F          -11.173608        0.472454        0.280026
  F           -9.747043        1.326791        1.672572
  F           -5.314953        2.827007        2.111331
  F           -5.592536        2.834991       -0.039796
  F           -7.300243        3.082320        1.274462
  O           -8.869662       -1.404905        0.803577
  O           -9.028852       -0.546388       -1.519499
  O           -5.034531        0.082962        0.926765
  O           -6.949296        0.345671        2.478873
  N           -7.294977        0.403319       -0.073284
  C           -9.924659        0.960701        0.399330
  C           -6.135850        2.437257        1.118654
  S           16.883967        9.888990       15.699822
  S           14.205602        8.991558       15.491558
  F           17.943327        7.494531       16.212672
  F           18.689336        9.100067       17.468677
  F           16.717124        8.270457       17.824055
  F           12.802240        6.766124       15.703386
  F           14.249221        6.714347       14.088447
  F           14.909945        6.499570       16.143204
  O           16.511451       10.980834       16.559672
  O           17.950392       10.074780       14.752023
  O           13.267366        9.484124       14.516899
  O           13.963880        9.259539       16.885192
  N           15.693647        9.149994       14.979351
  C           17.587984        8.610584       16.868739
  C           14.044555        7.137697       15.343148
  S            8.784179       -3.880521       13.987998
  S           10.466161       -6.159391       13.978534
  F           10.536113       -2.233668       12.831584
  F            9.490903       -1.388351       14.535930
  F           11.088170       -2.822900       14.844102
  F           12.910704       -6.858593       13.269894
  F           11.683749       -6.224570       11.597453
  F           12.496240       -4.750819       12.965892
  O            8.419186       -4.084896       15.364677
  O            7.804038       -3.360217       13.072187
  O           10.007766       -7.494353       13.694597
  O           10.950989       -5.858241       15.300165
  N            9.533660       -5.080319       13.294587
  C           10.055912       -2.511342       14.054111
  C           11.967539       -5.979615       12.883863
  S           23.264890      -13.062449       10.954655
  S           22.148760      -13.810217        8.461164
  F           24.302913      -10.752032       10.116101
  F           25.626595      -11.937228       11.363096
  F           25.288334      -12.501023        9.296244
  F           21.987550      -12.928964        5.978373
  F           21.028194      -11.617759        7.415328
  F           23.191511      -11.662786        7.264523
  O           23.845912      -14.364232       11.149615
  O           22.766401      -12.338928       12.094010
  O           20.864123      -14.443438        8.314159
  O           23.331912      -14.549708        8.106534
  N           22.211390      -12.952231        9.788445
  C           24.699672      -12.005159       10.389088
  C           22.085087      -12.417764        7.219479
  S            3.297938        1.511376       17.343600
  S            6.087311        1.713353       17.791930
  F            2.849160        4.136313       17.179294
  F            1.407940        3.047144       18.382796
  F            3.385242        3.464750       19.170226
  F            7.955484        3.555763       18.078816
  F            7.015063        3.588335       16.124586
  F            5.962045        4.380177       17.847621
  O            3.134830        0.572656       18.421763
  O            2.484325        1.374223       16.164904
  O            7.060162        0.824941       17.211277
  O            5.900611        1.701058       19.219322
  N            4.783567        1.790548       16.899726
  C            2.712759        3.135025       18.063085
  C            6.784672        3.407148       17.432057
  S          -15.655309        8.822633       15.416231
  S          -13.817062        6.930063       16.446489
  F          -16.083502       10.085087       17.727411
  F          -17.877889        9.671783       16.577987
  F          -16.894131        8.074759       17.666977
  F          -12.700220        6.244019       18.737527
  F          -12.177048        8.249328       18.097612
  F          -14.140551        7.854947       18.930575
  O          -16.400571        7.806159       14.722259
  O          -15.517398       10.123500       14.817208
  O          -12.636797        6.494025       15.746693
  O          -14.869854        5.979273       16.691608
  N          -14.253140        8.376985       15.979594
  C          -16.679795        9.175824       16.940046
  C          -13.174689        7.356190       18.146646
  S           17.468676       -1.365481        4.318833
  S           17.906741       -3.895929        3.124122
  F           19.484897       -0.122337        3.090770
  F           19.314935        0.309484        5.211257
  F           20.124713       -1.591441        4.551783
  F           19.567774       -5.072134        1.443540
  F           18.433391       -3.460566        0.537732
  F           20.088137       -3.008564        1.865219
  O           17.350210       -1.942143        5.631715
  O           16.657260       -0.227699        3.976546
  O           16.850434       -4.769048        2.682819
  O           18.741499       -4.314771        4.219662
  N           17.435982       -2.385930        3.118970
  C           19.201000       -0.662384        4.286604
  C           19.060887       -3.843994        1.657831
  S            0.629941       20.605219       14.325300
  S           -0.358683       18.224367       13.152029
  F            2.843404       19.518169       15.343923
  F            1.784541       20.845907       16.695863
  F            1.019441       18.853430       16.310086
  F            0.272497       15.670775       12.933793
  F            1.721941       16.992220       12.007855
  F            1.657091       16.797141       14.167126
  O           -0.647469       20.914944       14.910558
  O            1.464010       21.678330       13.853215
  O           -1.000329       18.170318       11.864302
  O           -1.132470       17.917817       14.326652
  N            0.626495       19.458251       13.245250
  C            1.622578       19.904909       15.746766
  C            0.903974       16.852518       13.059903
  S            9.901588       14.297975       14.640588
  S           12.081902       12.513720       14.348928
  F           11.321537       16.311492       15.664397
  F            9.442557       15.923463       16.679627
  F           11.138065       14.607765       16.993247
  F           14.676533       12.405873       14.821269
  F           14.132148       13.933603       13.381078
  F           13.755440       14.251629       15.493342
  O            9.082810       13.287257       15.255635
  O            9.285664       15.270125       13.777068
  O           12.256324       11.636925       13.220355
  O           11.836668       11.936815       15.644883
  N           11.223656       13.782839       13.955878
  C           10.494456       15.337880       16.077053
  C           13.750483       13.333729       14.516803
  S           10.178966        2.787534       12.792912
  S           10.077396        5.519579       12.052633
  F           12.827190        2.677765       13.098775
  F           11.972159        0.999241       12.020212
  F           12.195151        2.920469       11.038723
  F           11.702313        7.556477       11.631275
  F           11.749125        6.833760       13.675769
  F           12.740290        5.711544       12.106395
  O            9.318823        2.401997       11.705830
  O           10.080235        2.089457       14.047122
  O            9.055041        6.433005       12.492306
  O           10.155973        5.186326       10.654340
  N           10.262054        4.333824       13.082984
  C           11.892466        2.331134       12.199662
  C           11.659412        6.449402       12.395296
  S            1.998585       12.194526       12.163310
  S            0.319768       10.014597       11.491084
  F            3.594045       10.824340       13.805195
  F            2.977260       12.765221       14.556446
  F            1.584445       11.102686       14.570845
  F            0.014312        7.454868       12.057942
  F            1.906093        7.897522       11.093739
  F            1.610193        8.400911       13.182699
  O            0.874460       13.057562       12.411797
  O            3.193954       12.748452       11.585070
  O           -0.197987        9.778036       10.168647
  O           -0.600309       10.343640       12.548271
  N            1.669681       10.836966       11.434675
  C            2.564079       11.682920       13.870590
  C            1.013755        8.353060       11.983463
  S           -6.509784       19.932942        3.716609
  S           -3.748502       20.515322        3.474627
  F           -6.348625       18.805819        6.129556
  F           -7.585627       17.726661        4.709322
  F           -5.424107       17.635626        4.555356
  F           -1.496677       20.203506        4.815860
  F           -2.936562       21.459626        5.842192
  F           -3.213042       19.308783        5.795896
  O           -6.565520       19.370614        2.393388
  O           -7.643545       20.664337        4.216358
  O           -3.231551       21.729773        2.899526
  O           -3.502294       19.267843        2.799620
  N           -5.200023       20.737284        4.062466
  C           -6.451994       18.440670        4.841825
  C           -2.806428       20.365817        5.079279
  S           25.428587       -7.146492       17.591513
  S           27.838028       -5.837530       16.881854
  F           24.330761       -7.050638       15.161640
  F           22.985818       -6.523611       16.781885
  F           24.496238       -5.113692       16.122395
  F           28.983642       -4.720911       14.782430
  F           28.610959       -6.842201       14.526110
  F           26.970993       -5.429213       14.389411
  O           25.257426       -6.322041       18.758225
  O           25.019085       -8.524906       17.640345
  O           29.134310       -6.215626       17.381419
  O           27.298584       -4.555021       17.251489
  N           26.841442       -7.065640       16.899155
  C           24.251991       -6.409937       16.338741
  C           28.108825       -5.710834       15.039198
  S          -12.730555       -8.376754       -1.822571
  S          -11.829399       -9.820303       -4.086745
  F          -10.521068       -8.727087       -0.368569
  F          -12.375305       -9.027410        0.719287
  F          -11.669861      -10.542495       -0.663113
  F           -9.730221      -11.202655       -4.892600
  F           -9.281929       -9.116885       -4.501369
  F           -9.561162      -10.494026       -2.849031
  O          -13.999469       -9.055053       -1.823955
  O          -12.675699       -6.992074       -1.435588
  O          -12.080895       -9.419660       -5.446564
  O          -12.425516      -11.036887       -3.599891
  N          -11.849281       -8.573603       -3.113564
  C          -11.764494       -9.224085       -0.464233
  C           -9.995289      -10.167642       -4.074266
  S           16.945293        2.964312        2.777381
  S           17.329470        3.851998        5.439490
  F           14.464751        3.912750        2.520349
  F           14.744722        1.898379        1.761570
  F           14.624353        2.246573        3.898960
  F           16.019303        5.109881        7.354703
  F           16.334934        6.330820        5.590007
  F           14.826378        4.772384        5.574271
  O           17.446657        1.650632        3.082525
  O           17.217832        3.536664        1.485778
  O           18.565943        4.400851        5.932200
  O           16.867917        2.595377        5.968951
  N           17.195568        4.063669        3.877759
  C           15.088426        2.746181        2.749291
  C           16.053596        5.089742        6.009488
  S           16.785560      -10.326234        5.871337
  S           16.803442       -7.912416        7.353079
  F           18.647879      -11.563316        7.327388
  F           18.887690      -11.780553        5.180968
  F           19.414558       -9.912444        6.148824
  F           18.044382       -6.817588        9.409354
  F           16.901222       -8.582502        9.941078
  F           18.793976       -8.789323        8.902127
  O           16.853559       -9.623814        4.617456
  O           16.020295      -11.541825        5.953863
  O           15.619710       -7.157651        7.672421
  O           17.781263       -7.330127        6.471453
  N           16.461357       -9.440991        7.133593
  C           18.535942      -10.919775        6.154532
  C           17.682812       -8.045679        8.994332
  S           14.980170        3.953421       -2.761941
  S           14.341106        2.273143       -4.950700
  F           17.219048        2.676615       -2.072098
  F           15.928699        3.200996       -0.407212
  F           15.412774        1.536459       -1.698454
  F           15.258184        0.123893       -6.178112
  F           16.619348        1.809861       -6.274067
  F           16.420923        0.680311       -4.433020
  O           13.638061        3.889393       -2.247278
  O           15.725333        5.176871       -2.627768
  O           13.803247        2.749605       -6.198322
  O           13.522515        1.430795       -4.118343
  N           15.178131        3.401593       -4.224252
  C           15.937844        2.765570       -1.681109
  C           15.747755        1.167991       -5.484309
  S           20.120983      -13.003198       -1.677050
  S           21.819999      -11.973484       -3.695819
  F           21.507414      -12.025710        0.382323
  F           20.863186      -14.084556        0.623037
  F           22.529237      -13.613858       -0.683440
  F           24.051921      -10.585561       -3.938809
  F           22.451791       -9.472380       -2.987558
  F           23.517176      -11.001420       -1.877736
  O           20.092260      -14.306441       -2.286120
  O           18.940062      -12.509905       -1.019637
  O           21.347049      -11.420291       -4.938062
  O           22.589965      -13.189505       -3.725864
  N           20.723113      -11.848098       -2.563187
  C           21.332965      -13.188645       -0.265300
  C           23.019756      -10.682396       -3.080646
  S           23.249926       12.438041       11.665034
  S           22.954946       11.200260        9.134563
  F           20.642247       12.591134       12.208416
  F           21.765982       14.392941       12.658451
  F           21.278364       13.902422       10.602780
  F           21.051309       10.379141        7.500924
  F           21.066411        9.323681        9.395717
  F           20.293089       11.347326        9.288277
  O           24.183612       13.402949       11.147911
  O           23.423616       11.941617       13.004249
  O           23.817042       10.155533        8.646496
  O           22.960321       12.474436        8.464561
  N           22.927473       11.222666       10.715853
  C           21.639367       13.381085       11.779469
  C           21.243062       10.523132        8.825190
  S           17.084983       19.938384        3.707099
  S           16.668876       19.885723        0.905941
  F           19.744920       20.112517        3.592613
  F           18.994742       18.691349        5.051837
  F           18.966102       18.196773        2.940265
  F           18.055790       19.911499       -1.339644
  F           18.299754       21.717131       -0.162936
  F           19.298056       19.887943        0.438875
  O           16.201636       18.822169        3.916850
  O           17.133194       20.989008        4.688917
  O           15.590480       20.570160        0.241503
  O           16.693508       18.446446        0.887685
  N           17.032850       20.590976        2.274108
  C           18.795260       19.190671        3.817586
  C           18.169553       20.385809       -0.085343
  S          -14.991182       -1.157596        5.434685
  S          -13.483077        1.238477        5.517480
  F          -17.375070        0.000266        5.743100
  F          -17.071130       -1.777201        6.951426
  F          -16.124152        0.091796        7.512003
  F          -13.839096        3.835758        5.824446
  F          -14.800692        3.044664        4.048504
  F          -15.672068        2.688868        6.002685
  O          -14.110837       -1.811162        6.366392
  O          -15.585230       -1.926296        4.373407
  O          -12.343729        1.499414        4.676844
  O          -13.283703        1.112613        6.937644
  N          -14.466124        0.202525        4.837657
  C          -16.469846       -0.672478        6.471285
  C          -14.515931        2.782268        5.331254
  S           23.267180       11.542314        2.865552
  S           23.490737       14.365841        2.854695
  F           20.631139       11.467799        2.460058
  F           21.348361       10.106296        3.990980
  F           21.193583       12.228455        4.411275
  F           21.965895       16.508634        2.630774
  F           21.960076       15.265246        0.853581
  F           20.846813       14.650097        2.610552
  O           24.060885       11.426974        4.060108
  O           23.376633       10.529003        1.850011
  O           24.578795       15.082670        2.242196
  O           23.338480       14.424721        4.285013
  N           23.281544       12.955650        2.169614
  C           21.508854       11.336133        3.467305
  C           21.977547       15.236053        2.193070
  S          -15.049552        7.996090        4.583957
  S          -13.171166        6.808772        2.827727
  F          -14.336952        6.599792        6.742948
  F          -16.480207        6.768820        6.443429
  F          -15.316334        5.410064        5.217318
  F          -11.287271        4.960088        2.840188
  F          -10.858809        6.626748        4.160463
  F          -12.329557        5.139434        4.734491
  O          -16.123061        7.828825        3.640646
  O          -15.029893        9.163583        5.424598
  O          -12.444200        7.535186        1.819406
  O          -14.125177        5.813215        2.413978
  N          -13.598791        7.760028        4.016839
  C          -15.302868        6.607774        5.810633
  C          -11.838062        5.836237        3.700522
  S            4.221081       19.072268        9.808355
  S            1.779400       20.006712        8.718672
  F            4.117427       20.543264       12.031892
  F            6.056878       20.514555       11.057457
  F            4.443683       21.705185       10.230313
  F           -0.158696       21.708613        9.279173
  F            0.011293       20.099893       10.724021
  F            1.448561       21.724336       10.736357
  O            4.915022       19.259499        8.561910
  O            4.577517       17.960834       10.649646
  O            0.835417       19.167587        8.027560
  O            2.456387       21.042376        7.982772
  N            2.650018       19.165089        9.736233
  C            4.729217       20.548809       10.836924
  C            0.715661       20.930464        9.943377
  S           16.378244       -5.758856       -2.351676
  S           14.769929       -3.479303       -2.840919
  F           14.407323       -7.544375       -2.566349
  F           15.738885       -7.866907       -0.882682
  F           14.257146       -6.284827       -0.807607
  F           12.249762       -2.853216       -3.313806
  F           13.125920       -4.098742       -4.858305
  F           12.557778       -4.970633       -2.955221
  O           17.000716       -5.145113       -1.208837
  O           17.157273       -6.629091       -3.191860
  O           15.192593       -2.353503       -3.632628
  O           14.537708       -3.289758       -1.432870
  N           15.535001       -4.795526       -3.269822
  C           15.115222       -6.921619       -1.610671
  C           13.085528       -3.884327       -3.536267
  S           -3.984082       -8.550880       -0.013440
  S           -6.572772       -8.794086       -1.136800
  F           -3.663640       -5.968546       -0.602983
  F           -1.934935       -7.212249       -1.023224
  F           -3.658287       -7.268010       -2.338942
  F           -8.356606       -7.337180       -2.426067
  F           -7.944231       -6.610508       -0.424478
  F           -6.510431       -6.273676       -2.016794
  O           -3.527069       -9.750435       -0.663394
  O           -3.492838       -8.234686        1.301399
  O           -7.636475       -9.561844       -0.543544
  O           -6.029639       -9.220721       -2.399909
  N           -5.540781       -8.309997       -0.040264
  C           -3.280072       -7.170943       -1.060566
  C           -7.384674       -7.155787       -1.513035
  S            5.730977        6.579305       -3.715666
  S            8.141185        7.784541       -4.587849
  F            6.861255        4.372853       -2.729395
  F            5.074127        4.021720       -3.910370
  F            6.946518        4.506051       -4.892074
  F           10.731291        7.283369       -4.671674
  F            9.949548        7.409951       -2.652437
  F            9.564044        5.646805       -3.855522
  O            5.076430        6.847854       -4.968536
  O            4.967700        6.642652       -2.497676
  O            8.422638        9.191794       -4.472561
  O            8.002155        7.209601       -5.900317
  N            7.102661        7.320325       -3.488891
  C            6.189963        4.769795       -3.822131
  C            9.676336        6.981806       -3.892371
  S            1.478029      -12.068588        8.933648
  S           -1.181949      -11.652693        8.053905
  F            2.313413       -9.573560        8.491318
  F            3.684681      -11.117295        7.821746
  F            1.891757      -10.687674        6.679373
  F           -2.696892       -9.740768        7.045768
  F           -1.974630       -9.296557        9.042134
  F           -0.634436       -9.137303        7.344127
  O            1.604647      -13.276899        8.162813
  O            2.130996      -11.980784       10.212721
  O           -2.337989      -12.223430        8.694765
  O           -0.849872      -12.074066        6.718006
  N            0.016190      -11.498379        9.074878
  C            2.383467      -10.785662        7.918459
  C           -1.638821       -9.852085        7.869952
  S           -6.907603        9.896820       10.974782
  S           -7.241713        8.597394       13.469228
  F           -8.484099       11.976934       11.528386
  F           -8.781467       11.117558        9.557379
  F           -9.554024       10.103272       11.311956
  F           -8.547897        8.901679       15.742584
  F           -7.117253       10.486273       15.359456
  F           -8.997583       10.439001       14.279255
  O           -7.141522        8.679307       10.244592
  O           -5.956617       10.848726       10.465270
  O           -6.179438        7.929477       14.175152
  O           -8.337533        7.814108       12.961194
  N           -6.671987        9.730031       12.523563
  C           -8.527614       10.821644       10.845977
  C           -8.015203        9.677570       14.780599
  S           24.560084       20.969419       17.703230
  S           27.119651       20.622727       16.540980
  F           24.597484       18.721749       19.140334
  F           22.730010       19.097427       18.099553
  F           24.461341       18.389067       17.001882
  F           29.110097       18.889297       16.527103
  F           28.750388       19.762954       18.479485
  F           27.411465       18.239750       17.710171
  O           23.964035       21.290243       16.433572
  O           24.084142       21.631126       18.888863
  O           28.058384       21.694211       16.332242
  O           26.554763       19.961311       15.393858
  N           26.135158       20.953412       17.733942
  C           24.069319       19.189389       17.998134
  C           28.149451       19.306269       17.372371
  S           27.431740       19.495679       11.019016
  S           27.691068       17.069932       12.458078
  F           24.799566       19.751712       11.372281
  F           25.482718       20.151150        9.351001
  F           25.350179       18.108697       10.068626
  F           26.195971       15.329498       13.762846
  F           26.193898       17.302991       14.662728
  F           25.053779       16.934920       12.854590
  O           28.210796       18.992750        9.918849
  O           27.539491       20.884855       11.377741
  O           28.794739       16.769177       13.332336
  O           27.523915       16.292166       11.258246
  N           27.471583       18.631532       12.335723
  C           25.664465       19.358398       10.423850
  C           26.196331       16.648121       13.493742
  S           -7.320813       13.896327        1.044830
  S           -7.080770       16.713912        1.206062
  F           -9.987609       13.837889        1.103768
  F           -9.023558       12.369421        2.378927
  F           -9.085785       14.453214        2.977342
  F           -8.604612       18.859022        1.414043
  F           -8.931672       17.752354       -0.422470
  F           -9.724249       17.001090        1.451598
  O           -6.330814       13.696135        2.069554
  O           -7.399022       12.962620       -0.047039
  O           -6.111488       17.480631        0.467478
  O           -6.979342       16.664557        2.641239
  N           -7.417790       15.357917        0.464824
  C           -8.947884       13.635923        1.928661
  C           -8.679763       17.622920        0.887178
  S           24.409571       -7.457661        2.800091
  S           23.787355      -10.207210        3.074374
  F           25.391489       -7.145115        5.261156
  F           24.055474       -5.561485        4.613853
  F           23.250360       -7.484675        5.211596
  F           23.893572      -12.128351        4.881246
  F           25.846072      -11.353834        4.340570
  F           24.543053      -10.200630        5.635550
  O           23.119934       -7.163681        2.233834
  O           25.563039       -6.737991        2.329254
  O           23.983809      -11.182487        2.033648
  O           22.445069       -9.903730        3.497016
  N           24.777879       -8.985950        2.903719
  C           24.265316       -6.890783        4.576089
  C           24.571235      -11.008920        4.566874
  S          -12.866360       19.186187       -4.482488
  S          -10.189211       18.374972       -4.926568
  F          -13.858059       16.727863       -4.179391
  F          -15.052427       18.035212       -5.434837
  F          -13.219116       17.168474       -6.204188
  F           -8.757196       16.166262       -5.120945
  F           -9.656595       16.433126       -3.165355
  F          -10.876602       15.796010       -4.841773
  O          -12.841797       20.082127       -5.608064
  O          -13.616456       19.552407       -3.310592
  O           -9.042631       19.065287       -4.395824
  O          -10.388448       18.354025       -6.352163
  N          -11.467537       18.621345       -4.028280
  C          -13.791519       17.689080       -5.114218
  C           -9.861169       16.592364       -4.479959
  S          -10.666670       -8.500401       10.147727
  S          -11.743398       -7.212206        7.866585
  F           -8.485693       -6.974213       10.328778
  F           -8.124133       -9.099767       10.580010
  F           -8.492199       -8.287206        8.603033
  F          -11.156787       -5.262623        6.186745
  F          -11.423274       -4.581081        8.228545
  F           -9.607233       -5.622985        7.661849
  O          -10.883624       -9.806071        9.583466
  O          -10.823638       -8.314060       11.565733
  O          -13.145362       -6.938875        7.685867
  O          -11.098993       -8.148150        6.982725
  N          -11.375805       -7.307467        9.402012
  C           -8.840455       -8.192383        9.890060
  C          -10.933732       -5.576068        7.476389
  S           18.710364       -8.600196       14.488528
  S           16.156744       -8.100038       15.607127
  F           19.534735       -6.062919       14.524998
  F           19.968807       -7.127304       12.683670
  F           17.950950       -6.446287       13.094319
  F           14.688163       -6.078047       16.456640
  F           16.505149       -6.358351       17.607491
  F           16.599695       -5.466809       15.632415
  O           18.155152       -9.416885       13.442109
  O           19.992054       -8.946250       15.043163
  O           15.519420       -8.960381       16.569676
  O           15.566261       -7.961552       14.301520
  N           17.730615       -8.244058       15.669762
  C           19.050018       -6.961896       13.653701
  C           15.990875       -6.404854       16.371065
  S          -17.732120       13.772697        1.802055
  S          -15.087476       13.144535        2.598090
  F          -18.899867       11.743023        3.080913
  F          -19.613200       12.065092        1.056253
  F          -17.685855       11.128861        1.392373
  F          -13.780693       11.329124        3.999321
  F          -15.186031       12.477674        5.186892
  F          -15.908149       10.931854        3.847602
  O          -17.338541       13.946392        0.429044
  O          -18.765165       14.612685        2.347344
  O          -14.105131       14.129777        2.968450
  O          -14.871559       12.361562        1.409481
  N          -16.554103       13.683156        2.844320
  C          -18.517161       12.076010        1.837964
  C          -14.997264       11.904505        3.990551
  S            8.120122       19.598069        0.825847
  S            9.846313       18.209613        2.590742
  F            7.439196       17.470264       -0.632740
  F            7.906963       19.246302       -1.789764
  F            9.502874       18.083327       -0.892701
  F           10.782998       15.775420        2.995926
  F            8.631183       15.913842        3.230440
  F            9.508469       15.926990        1.246780
  O            9.086060       20.642718        0.611590
  O            6.720901       19.931802        0.855922
  O            9.928441       18.470725        4.004229
  O           10.989596       18.496336        1.764212
  N            8.428892       18.616268        2.018652
  C            8.257900       18.531825       -0.704012
  C            9.670080       16.353080        2.507146
