         874
  Built with Packmol                                             
  Ti          -2.868335        2.115442       11.265214
  Ti           7.802788        5.383210        1.844391
  Ti           1.352572       -1.673500        9.417113
  Ti           2.511792        7.542652        3.648414
  Ti           1.444672        9.187418        1.751989
  Ti           3.259458       -1.864257       11.359530
  Ti          -1.869782        0.416024        9.366140
  Ti           5.815984        5.614284        3.703281
  H            3.746896        1.652626        8.583439
  H           -7.024875       10.142785        6.478257
  H            4.431630       11.010612        4.650438
  H           -2.503694        6.028051       11.048460
  H            8.748737        1.507342        2.155250
  H           -6.801542        1.221893       10.903644
  H           11.114246        7.503838        2.029089
  H            4.372721       -5.862020       10.962653
  H           -2.589143        8.456181        2.095703
  H            4.656966        3.204147        6.826953
  H           -0.045224        3.670268        8.406030
  H           12.440918       -1.828167        6.378540
  H           -2.327232        0.331938       12.984230
  H            5.927385        5.077403        0.154584
  H            3.761426       -2.506617        5.844726
  H            0.745560        9.314262        7.279431
  H           -6.059913        3.661213        9.037490
  H           10.641247        3.393379        4.132134
  H           -3.728587        2.298708        5.688870
  H           -1.703972       10.903386        4.124923
  H            1.733452       12.300945        2.609537
  H            8.667985       -0.517063        3.355831
  H            4.606680        7.297451        2.297825
  H            0.215487        0.134620       10.719246
  H            7.415332        0.218685        9.728366
  H            5.955496       -0.302534       10.483299
  H            7.828656        4.670987        8.632537
  H            7.237651        5.011538        7.017709
  H            7.098177       -4.749977        9.534320
  H            5.784030       -3.695029       10.000157
  H            1.411485        1.911548        9.356085
  H            0.863759        5.227040        6.648574
  H            5.741023        9.069333        3.845371
  H            7.999135        8.609993        4.744623
  C            8.422325        4.659191        4.703706
  C           -3.853328        2.346718        8.423899
  C            3.961595       -2.592630        8.476524
  C            0.513540        9.443357        4.621320
  C            9.344336        4.085192        5.693105
  C           -4.811926        2.940026        7.452907
  C            4.917315       -3.172748        7.523270
  C           -0.392661       10.057561        5.626884
  C            9.101042        4.149763        7.100999
  C           -4.599256        2.829342        6.063538
  C            6.075072       -3.893771        7.969088
  C           -1.516055       10.792469        5.189090
  C           -0.124811        9.894234        6.980095
  C            4.657405       -3.047644        6.140915
  C           10.498947        3.426687        5.210054
  C           -5.932679        3.593124        7.958691
  C            2.813684        4.307411        6.639567
  C            1.802100        2.580168        8.590925
  C            6.161473        9.726276        4.605129
  C           -1.730084       -2.944720        6.528234
  C            8.715175        1.588330        0.011262
  C            1.839040       13.147429        0.088587
  C            6.684170        0.195343       12.990012
  C           -6.719779        1.271810       13.046845
  C            3.350517        5.224492        5.605606
  C           -1.145018       -2.033515        7.540248
  C            4.215985       -4.201651       13.101266
  C            1.796086       11.711651        0.049701
  C            5.408882       -0.466276       13.043122
  C           -5.332575        1.734605       13.064020
  C            1.482906        4.442604        7.078738
  C            3.125222        2.436827        8.154613
  C            5.424120       10.827594        5.058747
  C           -8.018869       10.319594        6.073436
  C            8.784652        0.919515        1.239780
  C           -2.508142        6.615249       11.963065
  C           -4.360552        7.730507        1.110303
  C           -7.351366        1.022025       11.821932
  C            7.441371        9.469644        5.112723
  C           12.991193       -2.694552        6.017481
  C            3.632637        3.298056        7.181208
  C            0.980621        3.578705        8.052889
  C            7.361766        0.489528       11.753548
  C           -3.089201        8.254946        1.152479
  C            4.438003       -6.388560       11.910676
  C            8.855538       -0.479663        1.318796
  N            8.938305       -1.077634        2.555968
  N            6.782516        0.288157       10.517426
  N            8.001283        4.757340        7.639127
  N            6.418775       -4.042078        9.284423
  O            7.234665        5.022637        5.076604
  O           -3.053924        1.423703        8.020113
  O            4.345224       -2.456407        9.695708
  O            0.426054        9.871897        3.422680
  O            1.318961        8.513079        5.002228
  O            2.776776       -2.264724        8.078087
  O            8.824398        4.755701        3.489805
  O           -3.903766        2.779752        9.624467
  O            6.156697        4.409127        2.505218
  O           -1.367975        1.993658       10.109628
  O            7.017801        6.727170        2.953185
  O           -3.056279        0.208461       10.609657
  O            1.659621       -2.837312       10.674383
  O            2.969458        9.121937        2.909279
  O            2.531624       -0.543378       10.208048
  O            1.322575        7.306972        2.398893
  O            4.575167        5.087631        5.244337
  O           -1.836144       -1.022528        7.923516
  O            4.066391       -3.610049       11.962095
  O            1.743514       11.006429        1.144350
  O            4.771026       -0.795498       11.956418
  O           -0.427504        9.094025        1.094098
  O            0.028867       -2.288059        7.991258
  O            2.574295        6.119616        5.117796
  O            9.199419        6.452785        1.083295
  O           -4.748114        1.988975       11.944029
  O            8.500254        3.672420        1.113292
  O           -2.542975        3.849240       12.015231
  O            4.269171        6.735574        3.019668
  O           -0.147093       -0.436062       10.017030
  O            6.748057        5.600086        0.071530
  O           -2.238358        1.302347       13.044892
  S          -15.824353        3.373788       10.476491
  S          -16.110466        5.433135        8.553049
  F          -17.450822        1.635840        9.271158
  F          -17.737222        1.802751       11.416370
  F          -18.473241        3.360004       10.098266
  F          -17.410987        5.931976        6.311030
  F          -16.023958        4.272825        6.144209
  F          -17.908615        4.009682        7.185137
  O          -16.030951        4.287127       11.568902
  O          -14.901204        2.282329       10.639635
  O          -15.027262        6.268733        8.104367
  O          -17.188598        6.032909        9.294910
  N          -15.575615        4.036992        9.069243
  C          -17.468415        2.501273       10.297308
  C          -16.904039        4.867965        6.960697
  S           21.437266        8.690121        3.500000
  S           24.257502        8.724697        3.759749
  F           21.149749       11.326660        3.208989
  F           19.724199       10.406582        4.562904
  F           21.772425       10.730246        5.198651
  F           26.256179       10.447658        3.819277
  F           25.191910       10.437287        1.929386
  F           24.309452       11.392860        3.665145
  O           21.285716        7.825405        4.639970
  O           20.539850        8.544566        2.384850
  O           25.129887        7.741142        3.172862
  O           24.165787        8.803616        5.194259
  N           22.905040        8.841993        2.948069
  C           21.007800       10.387116        4.157342
  C           25.037760       10.344378        3.257164
  S          -13.712793       10.015305       16.738309
  S          -13.854346       11.719329       14.480286
  F          -11.051181       10.015855       16.924080
  F          -11.971763        8.062703       17.146671
  F          -11.804997        8.966948       15.182315
  F          -12.254475       13.005302       12.820909
  F          -12.086495       13.688354       14.872661
  F          -11.192720       11.802549       14.281378
  O          -14.637031        9.076770       16.159369
  O          -13.737349       10.238295       18.159496
  O          -14.847175       12.748336       14.312046
  O          -13.860092       10.595365       13.580769
  N          -13.610156       11.409580       16.012006
  C          -12.038559        9.226198       16.472645
  C          -12.253255       12.602793       14.105108
  S           16.434777       -7.554974        0.813789
  S           14.618118       -9.721550        0.646162
  F           17.705101       -8.421745        2.994083
  F           17.217722       -6.306585        3.013590
  F           15.667207       -7.781405        3.367104
  F           13.994919      -11.935505        1.941103
  F           16.010606      -11.951588        1.140347
  F           15.556515      -10.782399        2.909953
  O           15.385881       -6.587006        0.631894
  O           17.733468       -7.296202        0.251168
  O           14.216380      -10.338495       -0.591115
  O           13.633739       -9.009783        1.418719
  N           16.044096       -9.050786        0.510522
  C           16.767586       -7.523223        2.653506
  C           15.083760      -11.176275        1.719341
  S           25.036794       14.979390       13.047836
  S           25.665142       17.676159       12.452000
  F           26.724134       14.745030       15.101284
  F           26.736759       13.065946       13.725662
  F           27.708888       14.925779       13.177803
  F           27.267584       19.603552       13.279154
  F           25.838907       18.973936       14.784787
  F           27.558162       17.730463       14.334622
  O           25.141626       14.590028       11.666663
  O           24.050891       14.345730       13.882446
  O           24.689150       18.661155       12.064583
  O           26.664261       17.275441       11.496153
  N           25.003893       16.530872       13.319643
  C           26.648165       14.407014       13.804272
  C           26.631957       18.536470       13.797323
  S            0.582457       -9.916502       -3.520180
  S           -0.851903       -7.490369       -3.801058
  F            3.012534       -8.823078       -3.653751
  F            2.768616      -10.629087       -4.833013
  F            1.920826       -8.756939       -5.526180
  F           -0.405285       -4.912392       -4.149505
  F            0.379968       -5.670794       -2.275294
  F            1.406634       -6.105569       -4.135842
  O           -0.230885      -10.577897       -4.505708
  O            1.063564      -10.665894       -2.390114
  O           -2.052256       -7.178144       -3.069937
  O           -0.931725       -7.654784       -5.229012
  N            0.042637       -8.527266       -3.009617
  C            2.156454       -9.496884       -4.438212
  C            0.199851       -5.965523       -3.569930
  S          -10.370718       -6.032169        1.954373
  S           -9.803341       -7.341704        4.400922
  F           -9.888317       -3.561898        2.839663
  F          -11.686980       -3.756357        1.640156
  F          -11.667719       -4.462825        3.690691
  F           -9.097103       -6.768304        6.878681
  F           -7.605900       -6.197919        5.410539
  F           -9.406782       -5.011670        5.643672
  O          -11.593508       -6.769526        1.777386
  O           -9.583513       -5.691455        0.799243
  O           -9.101601       -8.595205        4.496659
  O          -11.186062       -7.288070        4.797988
  N           -9.406986       -6.567446        3.079875
  C          -10.934196       -4.361805        2.577834
  C           -8.923791       -6.261836        5.643919
  S            8.567155       15.632144        9.796102
  S            7.983168       17.381356       11.945896
  F            8.066189       13.374594       11.126964
  F            9.876491       13.334678        9.929869
  F            9.841615       14.415557       11.809935
  F            7.252005       17.287726       14.480355
  F            5.771782       16.454160       13.131811
  F            7.565390       15.328786       13.602145
  O            9.794639       16.319804        9.495038
  O            7.789031       15.081460        8.718432
  O            7.285945       18.632129       11.796507
  O            9.361983       17.400213       12.359382
  N            7.595531       16.372637       10.790925
  C            9.117809       14.108104       10.729061
  C            7.087759       16.557716       13.361743
  S           10.205998       12.165164       -4.056630
  S           12.369470       12.972810       -2.416662
  F           11.151169       13.230196       -6.312966
  F            9.039546       13.588615       -5.960252
  F           10.530746       14.701286       -4.845601
  F           14.632399       14.321245       -2.583170
  F           14.612912       12.528965       -3.804570
  F           13.512609       14.286497       -4.441065
  O            9.234614       12.633740       -3.104221
  O            9.922737       10.980572       -4.822535
  O           12.940289       12.153349       -1.379590
  O           11.689991       14.186966       -2.047078
  N           11.690309       12.083894       -3.534833
  C           10.242894       13.502759       -5.362695
  C           13.862468       13.552748       -3.375510
  S           13.836826      -11.309788       10.508157
  S           15.306587       -9.331746        9.111894
  F           14.900829      -10.811522       12.903636
  F           14.744926      -12.918405       12.405076
  F           16.292317      -11.699452       11.497388
  F           17.161888       -7.508025        9.557706
  F           15.321374       -7.139137       10.644395
  F           16.680745       -8.692560       11.310501
  O           14.128004      -12.308956        9.514621
  O           12.555833      -11.324138       11.163103
  O           14.753178       -8.506376        8.070082
  O           16.337987      -10.277564        8.774107
  N           14.179314       -9.825698       10.105374
  C           15.018862      -11.699391       11.903623
  C           16.156725       -8.100609       10.228285
  S            8.059924      -10.784484       -4.271584
  S            7.233044       -8.126587       -3.747892
  F           10.600870      -10.184809       -4.821743
  F            9.685739      -11.590261       -6.199808
  F            9.194343       -9.480868       -6.314505
  F            8.211366       -5.675130       -3.738328
  F            9.159419       -6.980015       -2.288178
  F            9.640646       -7.169558       -4.394645
  O            6.923980      -11.031473       -5.119440
  O            8.567703      -11.851375       -3.450603
  O            6.323257       -7.761894       -2.693304
  O            6.821340       -7.941427       -5.114886
  N            7.992381       -9.470897       -3.404415
  C            9.463097      -10.481265       -5.469704
  C            8.648612       -6.930071       -3.525906
  S          -14.556028       -7.751205        1.319930
  S          -15.541995       -5.097720        1.416307
  F          -13.512980       -7.574390       -1.129453
  F          -14.629292       -9.397463       -0.752524
  F          -15.680797       -7.532231       -1.098085
  F          -15.676655       -2.940192       -0.098218
  F          -13.643455       -3.518636        0.387543
  F          -14.763398       -4.636445       -1.096014
  O          -15.800258       -8.291696        1.799509
  O          -13.321078       -8.371726        1.719874
  O          -15.491340       -4.264564        2.589403
  O          -16.825889       -5.512577        0.914344
  N          -14.397093       -6.188679        1.443648
  C          -14.601985       -8.071386       -0.521726
  C          -14.857136       -3.993370        0.076105
  S          -13.328383       -6.616820       12.220435
  S          -14.549761       -7.606898        9.864510
  F          -15.247828       -4.861747       12.815533
  F          -13.227600       -4.093438       13.016039
  F          -14.104993       -4.340415       11.047956
  F          -16.707270       -7.217121        8.394790
  F          -17.152799       -7.912307       10.400453
  F          -16.552733       -5.853475       10.075117
  O          -12.055879       -6.466426       11.565952
  O          -13.363552       -7.011052       13.603710
  O          -14.544908       -8.994307        9.479878
  O          -13.839587       -6.657586        9.047860
  N          -14.407762       -7.450758       11.432054
  C          -14.022419       -4.881188       12.267570
  C          -16.342772       -7.118834        9.686558
  S           -3.108886       11.905475       15.104369
  S           -4.897040        9.767969       15.610310
  F           -0.966571       10.379422       14.656776
  F           -0.598942       12.103051       15.923967
  F           -1.630173       10.369502       16.721171
  F           -4.898952        7.132710       15.759487
  F           -4.394131        7.877271       13.785848
  F           -2.933459        7.972138       15.386519
  O           -3.550938       12.626248       16.268547
  O           -2.740174       12.639321       13.923004
  O           -6.261917        9.737744       15.153070
  O           -4.640198        9.833441       17.025302
  N           -4.004791       10.681913       14.677393
  C           -1.489548       11.135695       15.634945
  C           -4.236039        8.099088       15.097790
  S           -7.468035       15.731372       15.341691
  S           -5.384894       16.376404       17.149136
  F           -7.400245       13.097701       15.763439
  F           -7.544005       13.674751       13.675817
  F           -5.655710       13.861423       14.726368
  F           -3.695474       15.182314       18.788300
  F           -5.772227       14.903976       19.348738
  F           -4.942472       13.796691       17.678368
  O           -6.902383       16.555245       14.306555
  O           -8.898853       15.638127       15.460713
  O           -5.398578       17.529174       18.011577
  O           -4.398654       16.303747       16.102949
  N           -6.855101       15.924704       16.780089
  C           -6.979571       13.993059       14.855895
  C           -4.935369       14.981296       18.305148
  S          -12.223731       -4.349766        7.278292
  S          -10.677447       -2.066516        6.631626
  F          -11.750770       -4.274995        9.903060
  F          -11.600163       -6.249515        9.014010
  F          -10.013294       -4.801123        8.717076
  F           -9.138369       -0.273942        7.808385
  F          -11.195617       -0.216500        8.493145
  F           -9.873639       -1.799814        9.164115
  O          -11.634467       -5.120388        6.215680
  O          -13.608678       -4.555592        7.609444
  O          -11.067693       -1.082805        5.655465
  O           -9.514557       -2.875524        6.375402
  N          -11.941412       -2.800385        7.236249
  C          -11.338738       -4.944007        8.814519
  C          -10.205025       -1.035408        8.114324
  S            8.885370      -12.607732        2.462314
  S           10.063661      -11.783519        0.022088
  F            7.155418      -10.583965        2.636448
  F            8.182668      -11.056122        4.489458
  F            9.223153       -9.991705        2.911936
  F            9.898124       -9.821620       -1.735865
  F            8.074247      -10.984827       -1.578111
  F            8.587888       -9.558559       -0.026775
  O           10.168995      -12.831903        3.072469
  O            7.788205      -13.476195        2.797135
  O           10.444754      -12.688031       -1.031238
  O           11.092217      -11.054530        0.717146
  N            8.898949      -12.393140        0.901602
  C            8.334962      -10.960539        3.155231
  C            9.090201      -10.466984       -0.874501
  S            0.423646       12.234699       10.193250
  S           -1.484680       12.467619        8.113241
  F           -0.237196       14.501463       11.435732
  F            1.898539       14.179556       11.219322
  F            0.716377       14.805733        9.512113
  F           -3.358656       14.125202        7.272122
  F           -3.768062       13.295997        9.234078
  F           -2.278352       14.855932        9.005872
  O            1.478252       11.916640        9.267573
  O            0.415532       11.609695       11.489170
  O           -2.235950       11.358765        7.585124
  O           -0.534463       13.131739        7.259725
  N           -1.037329       12.192441        9.605183
  C            0.709192       14.036156       10.605005
  C           -2.794587       13.757519        8.437377
  S           24.097366        4.876469       14.361750
  S           26.817438        5.380296       13.753665
  F           23.964167        2.518609       13.120200
  F           22.276981        3.832419       12.747205
  F           24.178812        4.204234       11.773059
  F           28.829235        4.279008       12.447263
  F           28.140737        3.084721       14.121812
  F           26.981490        3.152970       12.289819
  O           23.702818        6.200136       13.958674
  O           23.421710        4.248816       15.466124
  O           27.749167        5.975965       14.675582
  O           26.459753        6.105332       12.562514
  N           25.647352        4.645004       14.523068
  C           23.612502        3.797627       12.913532
  C           27.735769        3.882002       13.123947
  S           26.344242       -1.603940       11.106116
  S           24.122289       -1.141210       12.800578
  F           26.194788       -4.267118       11.168055
  F           28.200611       -3.469450       11.396575
  F           26.802297       -3.382301       13.052258
  F           22.330400       -2.491769       14.190533
  F           22.199803       -2.845262       12.054543
  F           23.792250       -3.759388       13.209184
  O           27.163701       -0.668814       11.830175
  O           26.504886       -1.720738        9.681105
  O           23.161928       -0.088313       12.595674
  O           24.967685       -1.092855       13.964805
  N           24.804507       -1.562037       11.437046
  C           26.909210       -3.275827       11.724122
  C           23.054883       -2.649266       13.067367
  S           12.819903        2.746481        0.205816
  S           13.552381        1.853948        2.792176
  F           15.307476        3.176302       -0.657853
  F           13.897090        4.752734       -1.145190
  F           14.662676        4.567307        0.875617
  F           15.714508        1.480002        4.259221
  F           15.651534        0.222922        2.492799
  F           16.135016        2.329258        2.307594
  O           11.817493        3.633580        0.733512
  O           12.579331        2.082468       -1.047705
  O           12.904261        0.767876        3.480116
  O           13.435488        3.184382        3.329519
  N           13.410331        1.699663        1.224453
  C           14.258360        3.872767       -0.192492
  C           15.366306        1.446052        2.959688
  S            9.380119       -6.482883        4.009848
  S           11.862194       -5.695884        2.895247
  F           10.409614       -7.760979        6.113488
  F            8.804042       -8.821750        5.109135
  F           10.781647       -8.752444        4.221193
  F           14.449190       -5.943865        3.356559
  F           13.401401       -4.864429        4.919065
  F           13.214329       -7.020811        4.778605
  O            8.894556       -6.954496        2.740186
  O            8.459303       -5.867962        4.928582
  O           12.098847       -4.411656        2.288927
  O           11.911417       -6.873513        2.068672
  N           10.694659       -5.615999        3.959303
  C            9.883540       -8.042112        4.910792
  C           13.305160       -5.891037        4.063376
  S           20.157681      -12.857821       14.393063
  S           20.472566      -10.953576       16.466007
  F           19.512556      -11.099865       12.492511
  F           18.273888      -12.881974       12.532595
  F           17.992381      -11.330287       14.021617
  F           20.259169       -8.353175       16.865038
  F           21.795569       -8.874327       15.425475
  F           19.703796       -8.964421       14.858836
  O           19.354529      -13.714620       15.224373
  O           21.055449      -13.449133       13.436786
  O           21.509586      -11.016026       17.462782
  O           19.102707      -11.114625       16.878323
  N           20.913129      -11.694275       15.139731
  C           18.912734      -11.983775       13.305644
  C           20.567630       -9.191131       15.858130
  S            3.056370       14.228253       18.227853
  S            5.538573       13.195672       17.336314
  F            2.376268       15.363767       15.911226
  F            2.028505       16.601421       17.660253
  F            4.043176       16.333242       16.903056
  F            7.047845       13.161625       15.171184
  F            5.133295       12.180551       14.894676
  F            5.244401       14.346164       14.944542
  O            3.644918       14.764357       19.426367
  O            1.717647       13.703440       18.277820
  O            6.048859       11.901110       17.705892
  O            6.236486       14.371462       17.786749
  N            3.959022       13.227260       17.412202
  C            2.876274       15.713967       17.106894
  C            5.739486       13.222004       15.480592
  S          -15.807657       -4.233954       -3.512801
  S          -13.291371       -3.058918       -4.069574
  F          -14.868720       -6.677892       -2.998743
  F          -16.637304       -6.635843       -4.256583
  F          -14.704718       -6.099529       -5.082199
  F          -10.741888       -3.726584       -4.215199
  F          -11.577258       -3.968642       -2.228234
  F          -12.047707       -5.404686       -3.784244
  O          -16.400909       -3.658870       -4.690749
  O          -16.603318       -4.370468       -2.321839
  O          -12.914860       -1.732971       -3.653671
  O          -13.428461       -3.332583       -5.476262
  N          -14.394964       -3.663665       -3.111398
  C          -15.474729       -6.010087       -3.993256
  C          -11.840065       -4.104297       -3.535108
  S          -12.847517        5.453230       12.737480
  S          -10.239511        6.515036       13.042889
  F          -14.003109        7.748766       12.020674
  F          -15.121148        6.590865       13.477065
  F          -13.363220        7.702463       14.092048
  F           -8.967028        8.820542       12.863238
  F           -9.818590        8.164572       10.979356
  F          -11.102950        8.987535       12.521388
  O          -12.776428        4.764089       13.998536
  O          -13.554102        4.842386       11.643081
  O           -9.040560        5.827908       12.638857
  O          -10.459434        6.762102       14.443977
  N          -11.485105        6.030826       12.196856
  C          -13.882979        6.966231       13.104867
  C          -10.029798        8.215388       12.301550
  S          -13.974407       -9.556416        5.232387
  S          -11.351224      -10.615905        5.095288
  F          -15.196362      -11.699782        4.216760
  F          -15.883122       -9.803513        3.414050
  F          -13.978957      -10.625448        2.779429
  F          -10.096049      -12.795822        4.295699
  F          -11.488777      -13.157451        5.918658
  F          -12.229703      -12.839076        3.905110
  O          -13.563965       -8.311335        4.639476
  O          -14.995082       -9.547754        6.246414
  O          -10.352324      -10.420710        6.113604
  O          -11.140019      -10.034880        3.795188
  N          -12.808702      -10.507458        5.700048
  C          -14.794755      -10.479147        3.828135
  C          -11.300291      -12.457144        4.791967
  S           21.157453       17.056033        0.896649
  S           20.732662       17.166384        3.694822
  F           20.679210       14.443455        0.642858
  F           22.419502       15.152852       -0.443402
  F           22.512780       14.896352        1.708265
  F           20.140157       15.566987        5.709200
  F           18.569356       15.682220        4.217969
  F           20.360036       14.525081        3.818963
  O           22.381849       17.805261        0.995370
  O           20.308856       17.246626       -0.249501
  O           20.056941       18.248456        4.362198
  O           22.132216       16.954740        3.957335
  N           20.259172       17.041534        2.190842
  C           21.723768       15.284713        0.701613
  C           19.898010       15.647203        4.387794
  S           23.054471       -9.912621        8.438685
  S           23.616765       -7.146244        8.669725
  F           25.582400      -10.733437        8.672198
  F           24.457577      -11.710652        7.093703
  F           25.173100       -9.681448        6.820717
  F           25.679870       -5.524611        8.953899
  F           25.414726       -6.873410       10.631666
  F           26.244476       -7.611164        8.768351
  O           22.212422       -9.703869        7.290813
  O           22.711341      -10.943102        9.382335
  O           22.793305       -6.217864        9.399722
  O           23.721868       -7.006090        7.240821
  N           23.457313       -8.614630        9.235548
  C           24.662671      -10.533945        7.714822
  C           25.336205       -6.779652        9.297338
  S           11.346205      -12.825253        8.969289
  S           12.588229      -11.272727        6.952004
  F           10.139092      -14.529433        7.308765
  F            8.887556      -13.807080        8.928544
  F            9.327746      -12.519681        7.239462
  F           12.740827      -11.134994        4.320542
  F           13.546723      -12.979445        5.128622
  F           11.399830      -12.688318        5.024686
  O           10.872520      -11.654478        9.658595
  O           11.750833      -13.974359        9.734752
  O           13.925371      -10.748333        7.051652
  O           11.481925      -10.352063        6.921575
  N           12.417520      -12.568320        7.843090
  C            9.842724      -13.449818        8.049619
  C           12.567040      -12.075860        5.266984
  S          -15.002144        0.704536        7.019723
  S          -14.883356       -1.666104        8.565153
  F          -17.641404        0.654843        6.631746
  F          -16.476563        1.119122        4.859907
  F          -16.575654       -0.920635        5.590480
  F          -16.478636       -3.560881        9.477158
  F          -16.945774       -1.595762       10.267446
  F          -17.496321       -2.104524        8.232067
  O          -13.899855        0.289148        6.193500
  O          -15.151047        2.098901        7.341711
  O          -14.036847       -1.831346        9.717970
  O          -14.627008       -2.465068        7.395367
  N          -15.231345       -0.141364        8.328912
  C          -16.510980        0.359199        5.970684
  C          -16.549497       -2.252765        9.168947
  S            4.113469        2.823538       13.142340
  S            4.658593        5.600754       13.253307
  F            1.472843        3.067232       12.848402
  F            2.086567        1.557039       14.281748
  F            2.192011        3.658811       14.806723
  F            3.382030        7.910281       13.195689
  F            3.166662        6.768081       11.364443
  F            2.057352        6.193090       13.137443
  O            4.933246        2.558542       14.294719
  O            4.067650        1.857674       12.076925
  O            5.797738        6.220894       12.628289
  O            4.568187        5.603106       14.690067
  N            4.263443        4.260027       12.513005
  C            2.367075        2.786162       13.809452
  C            3.231222        6.668571       12.699104
  S            5.212008        8.959492        9.629968
  S            5.876728       10.927357       11.555600
  F            2.926055       10.092048        8.848668
  F            2.811383        7.946723        9.158910
  F            2.859627        9.289033       10.861861
  F            4.903192       13.156918       12.579383
  F            5.339937       13.308180       10.460223
  F            3.583066       12.227009       11.130436
  O            5.490245        7.886241       10.547000
  O            5.516286        8.786434        8.234414
  O            7.212986       11.416027       11.775791
  O            5.229174       10.180949       12.602504
  N            5.704876       10.386877       10.079088
  C            3.346537        9.087289        9.633475
  C            4.866876       12.490669       11.410632
  S           24.050441        2.871124        1.640421
  S           21.840686        1.277493        2.414838
  F           25.928162        1.211255        2.555675
  F           26.261383        3.302674        3.031859
  F           24.768562        2.165901        4.119699
  F           21.330575       -1.002595        3.642776
  F           22.447195       -1.254499        1.800449
  F           23.443274       -0.513364        3.579004
  O           23.461658        4.059665        2.198040
  O           24.833465        2.974012        0.437761
  O           20.655130        1.106386        1.616058
  O           21.735030        1.963631        3.675992
  N           23.089868        1.629148        1.510614
  C           25.316322        2.351049        2.914547
  C           22.301920       -0.471139        2.877775
  S           22.384312        8.616054       14.261606
  S           25.152967        8.510275       14.849620
  F           22.233921       11.274715       14.095475
  F           20.623637       10.347275       15.217377
  F           22.592637       10.544021       16.105351
  F           27.194502       10.136321       15.243266
  F           26.362706       10.276077       13.245005
  F           25.317257       11.174642       14.919618
  O           22.065601        7.698440       15.323040
  O           21.620869        8.571483       13.042889
  O           26.050850        7.521948       14.311211
  O           24.894526        8.515312       16.265826
  N           23.911975        8.731808       13.894318
  C           21.944657       10.292419       14.963628
  C           26.048462       10.118293       14.537964
  S           12.412255       16.415561       17.158546
  S            9.927145       15.144141       16.678837
  F           11.481914       18.912279       17.018712
  F           13.345294       18.581825       15.955493
  F           11.475868       17.870093       15.117133
  F            7.411079       15.760587       16.172621
  F            8.087517       16.453239       18.113531
  F            8.709744       17.492722       16.314360
  O           13.087676       15.584842       16.197324
  O           13.111470       16.822362       18.348384
  O            9.492847       13.949483       17.354890
  O           10.182775       15.086811       15.263272
  N           10.961040       15.953032       17.561160
  C           12.153434       18.033530       16.257706
  C            8.457708       16.284555       16.836858
  S           20.251954       17.992186       17.563921
  S           21.978225       20.198856       17.147988
  F           22.180767       16.215667       18.056211
  F           20.620060       15.508448       16.723599
  F           22.122570       16.893791       15.997340
  F           24.556750       20.760526       17.097207
  F           23.867012       20.083276       19.038871
  F           24.140509       18.657092       17.427689
  O           19.495363       18.287132       16.376146
  O           19.571766       17.460778       18.715030
  O           21.702236       21.532984       17.613609
  O           22.018646       19.952861       15.730134
  N           21.241910       19.121011       18.041201
  C           21.365788       16.579703       17.053438
  C           23.730170       19.899317       17.718711
  S           -6.049975        2.811294       -2.803327
  S           -3.575112        2.138876       -1.601119
  F           -7.498161        2.661351       -0.567491
  F           -8.408603        1.719336       -2.298249
  F           -6.769811        0.742314       -1.266769
  F           -2.592790        1.477392        0.757765
  F           -3.440177        3.473496        0.713378
  F           -4.746067        1.742424        0.765827
  O           -5.844403        1.880578       -3.881169
  O           -6.725305        4.053754       -3.068519
  O           -2.321629        2.759034       -1.943250
  O           -3.762929        0.742847       -1.898249
  N           -4.789590        3.105525       -1.905045
  C           -7.240418        1.929086       -1.662764
  C           -3.599510        2.221400        0.263648
  S           -1.273467       -9.818758        8.191608
  S           -1.853567       -8.660086        5.673005
  F           -0.395962       -7.574790        9.337593
  F            0.831573       -9.323826        9.719499
  F            0.918040       -8.336892        7.790082
  F           -1.698473       -6.330956        4.440954
  F           -3.038257       -6.308787        6.146519
  F           -0.891230       -6.294908        6.454401
  O           -0.580568      -10.925332        7.586944
  O           -2.041072      -10.041021        9.388055
  O           -3.008728       -8.995621        4.881873
  O           -0.546867       -8.996282        5.171044
  N           -2.120311       -8.924099        7.209521
  C            0.097629       -8.693453        8.783311
  C           -1.874561       -6.793553        5.692426
  S           14.708210       12.582553       14.579773
  S           11.929700       12.078762       14.799943
  F           15.483404       10.061352       14.981410
  F           16.632801       11.544488       16.072747
  F           14.640796       11.007031       16.741494
  F           10.274231       10.078114       15.272891
  F           11.434847        9.817376       13.459207
  F           12.365109        9.512166       15.394709
  O           14.630247       13.717494       15.460718
  O           15.632428       12.612280       13.477485
  O           10.932727       12.699890       13.967407
  O           11.944594       12.380171       16.207561
  N           13.329061       12.021350       14.064940
  C           15.394476       11.217567       15.657818
  C           11.486736       10.267075       14.720344
  S           21.124115       -1.553775        9.261876
  S           19.929474        0.854509       10.153726
  F           23.639354       -0.667735        9.346725
  F           23.137280       -1.791152        7.558520
  F           22.441948        0.250277        7.789270
  F           20.613232        3.304945       10.857067
  F           21.435962        1.779730       12.161405
  F           22.291188        2.100072       10.194001
  O           20.185910       -1.685070        8.178933
  O           21.597986       -2.738318        9.927014
  O           18.816711        0.908988       11.065681
  O           19.741654        1.310639        8.801274
  N           20.762681       -0.475238       10.351911
  C           22.670384       -0.891895        8.444994
  C           21.143867        2.068509       10.885993
  S           19.894759      -10.985120       -1.655226
  S           21.595422       -9.151466       -0.325618
  F           17.764215      -10.567312       -0.104450
  F           18.174347      -12.655480       -0.532427
  F           19.393566      -11.581843        0.904574
  F           21.561194       -7.494144        1.728393
  F           20.145900       -6.959356        0.174234
  F           19.721526       -8.621557        1.501525
  O           20.902731      -12.011861       -1.649759
  O           19.002909      -10.883573       -2.779679
  O           22.528320       -8.287187       -1.000593
  O           22.105624      -10.185783        0.535974
  N           20.390490       -9.539071       -1.274110
  C           18.747404      -11.468095       -0.260006
  C           20.694399       -7.992611        0.827626
  S            3.847993        1.483245        1.867524
  S            3.121046       -0.726240        3.483731
  F            5.523752        0.136196        0.287657
  F            6.268708        2.059936        0.963000
  F            6.238262        0.369591        2.321666
  F            3.666534       -3.294795        3.751725
  F            2.754199       -2.808594        1.844969
  F            4.837321       -2.323172        2.205078
  O            4.071589        2.322004        3.015009
  O            3.303933        2.064449        0.669066
  O            1.784377       -0.965668        3.962124
  O            4.155612       -0.421843        4.437394
  N            3.104042        0.123495        2.149790
  C            5.566749        0.973442        1.336198
  C            3.622735       -2.376217        2.769136
  S           -7.834719        7.339226        1.427994
  S           -5.836162        5.348836        1.170077
  F           -8.668687        6.587762        3.848425
  F          -10.261267        7.030169        2.441377
  F           -9.153924        5.172329        2.278939
  F           -4.851350        3.295159        2.504020
  F           -4.581358        5.188477        3.527208
  F           -6.532162        4.240737        3.497832
  O           -8.346747        7.076979        0.109173
  O           -7.840235        8.688633        1.927166
  O           -4.541953        5.581881        0.583918
  O           -6.750244        4.458798        0.503186
  N           -6.441173        6.684816        1.762409
  C           -9.041612        6.473453        2.563852
  C           -5.431282        4.479712        2.771781
  S           -8.600823       10.786889       -2.881179
  S           -5.927650       10.062214       -2.288398
  F           -9.706331        8.521410       -2.007024
  F          -10.477412        9.227432       -3.909335
  F           -8.529181        8.279234       -3.811978
  F           -4.559425        8.028590       -1.309021
  F           -5.948418        8.890660        0.116460
  F           -6.684506        7.629792       -1.487628
  O           -8.246184       11.238296       -4.200533
  O           -9.630478       11.481736       -2.155161
  O           -4.949438       10.972007       -1.751509
  O           -5.732588        9.536240       -3.614204
  N           -7.394486       10.513334       -1.905488
  C           -9.361297        9.102734       -3.166887
  C           -5.783576        8.571270       -1.174356
  S            7.858211        6.946145       -4.914438
  S           10.485678        6.624322       -3.906844
  F            8.008611        9.588520       -5.251967
  F            6.164968        8.898230       -4.337473
  F            7.993085        8.973018       -3.172759
  F           12.604640        8.076370       -3.299878
  F           12.092066        8.150092       -5.406130
  F           10.911849        9.259825       -3.963808
  O            7.295203        6.140559       -3.863588
  O            7.280192        6.886145       -6.230644
  O           11.345737        5.520449       -4.245419
  O           10.025366        6.754699       -2.549062
  N            9.426811        6.892044       -5.050900
  C            7.496096        8.702135       -4.383683
  C           11.578034        8.115187       -4.169222
  S           11.393738       18.882367       -2.958524
  S            8.841269       17.890670       -2.234756
  F           11.054994       21.315681       -1.917887
  F           11.952199       21.295443       -3.894357
  F            9.826267       20.933291       -3.663223
  F            6.627464       18.697294       -1.045103
  F            8.357926       18.719575        0.262364
  F            8.117103       20.262080       -1.243422
  O           11.269161       18.384524       -4.302721
  O           12.684763       18.872208       -2.323500
  O            8.605944       16.553937       -1.754509
  O            8.284254       18.280585       -3.503677
  N           10.323684       18.351275       -1.931400
  C           11.024451       20.708700       -3.114928
  C            7.946854       18.956968       -0.990653
  S           -5.647432       18.995209       14.651612
  S           -3.732976       19.761232       16.593381
  F           -4.974416       20.843771       12.849236
  F           -7.111741       20.606117       13.144503
  F           -5.921668       21.656749       14.622361
  F           -1.846230       21.570042       16.961134
  F           -1.446683       20.244720       15.291300
  F           -2.925551       21.819331       15.095704
  O           -6.702047       18.942933       15.629000
  O           -5.646334       18.047135       13.569365
  O           -2.987865       18.828225       17.397855
  O           -4.676884       20.635550       17.239186
  N           -4.185461       19.101182       15.229075
  C           -5.922000       20.623506       13.774349
  C           -2.415311       20.908793       15.936400
  S            0.312846       -7.797099        2.802961
  S            1.650589       -5.645227        4.068778
  F            1.375346       -9.718743        4.318570
  F            1.333864      -10.163024        2.194255
  F            2.798242       -8.771690        2.984161
  F            3.404096       -5.213339        5.993755
  F            1.558701       -6.106045        6.702315
  F            3.012321       -7.318165        5.642851
  O            0.648591       -7.309349        1.491623
  O           -0.957301       -8.441162        3.007930
  O            1.038570       -4.372299        4.347986
  O            2.730117       -5.702893        3.118119
  N            0.565304       -6.793173        3.990586
  C            1.531817       -9.184155        3.097096
  C            2.442467       -6.106256        5.695168
  S          -10.404373       11.229491        3.850163
  S          -11.006262       10.243480        6.436263
  F          -12.931278       11.697585        3.132996
  F          -11.725958       10.725327        1.611898
  F          -12.450245        9.590802        3.312612
  F          -13.097421        9.737177        7.965172
  F          -12.893707       11.837297        7.462720
  F          -13.630590       10.434813        5.981250
  O           -9.513710       10.132968        3.577050
  O          -10.093076       12.533159        3.327051
  O          -10.226603       10.539537        7.609870
  O          -11.048319        8.887499        5.954595
  N          -10.856692       11.384624        5.351295
  C          -11.971510       10.780144        2.934468
  C          -12.756104       10.593234        6.984431
