         874
  Built with Packmol                                             
  Ti          -2.868335        2.115442       11.265214
  Ti           7.802788        5.383210        1.844391
  Ti           1.352572       -1.673500        9.417113
  Ti           2.511792        7.542652        3.648414
  Ti           1.444672        9.187418        1.751989
  Ti           3.259458       -1.864257       11.359530
  Ti          -1.869782        0.416024        9.366140
  Ti           5.815984        5.614284        3.703281
  H            3.746896        1.652626        8.583439
  H           -7.024875       10.142785        6.478257
  H            4.431630       11.010612        4.650438
  H           -2.503694        6.028051       11.048460
  H            8.748737        1.507342        2.155250
  H           -6.801542        1.221893       10.903644
  H           11.114246        7.503838        2.029089
  H            4.372721       -5.862020       10.962653
  H           -2.589143        8.456181        2.095703
  H            4.656966        3.204147        6.826953
  H           -0.045224        3.670268        8.406030
  H           12.440918       -1.828167        6.378540
  H           -2.327232        0.331938       12.984230
  H            5.927385        5.077403        0.154584
  H            3.761426       -2.506617        5.844726
  H            0.745560        9.314262        7.279431
  H           -6.059913        3.661213        9.037490
  H           10.641247        3.393379        4.132134
  H           -3.728587        2.298708        5.688870
  H           -1.703972       10.903386        4.124923
  H            1.733452       12.300945        2.609537
  H            8.667985       -0.517063        3.355831
  H            4.606680        7.297451        2.297825
  H            0.215487        0.134620       10.719246
  H            7.415332        0.218685        9.728366
  H            5.955496       -0.302534       10.483299
  H            7.828656        4.670987        8.632537
  H            7.237651        5.011538        7.017709
  H            7.098177       -4.749977        9.534320
  H            5.784030       -3.695029       10.000157
  H            1.411485        1.911548        9.356085
  H            0.863759        5.227040        6.648574
  H            5.741023        9.069333        3.845371
  H            7.999135        8.609993        4.744623
  C            8.422325        4.659191        4.703706
  C           -3.853328        2.346718        8.423899
  C            3.961595       -2.592630        8.476524
  C            0.513540        9.443357        4.621320
  C            9.344336        4.085192        5.693105
  C           -4.811926        2.940026        7.452907
  C            4.917315       -3.172748        7.523270
  C           -0.392661       10.057561        5.626884
  C            9.101042        4.149763        7.100999
  C           -4.599256        2.829342        6.063538
  C            6.075072       -3.893771        7.969088
  C           -1.516055       10.792469        5.189090
  C           -0.124811        9.894234        6.980095
  C            4.657405       -3.047644        6.140915
  C           10.498947        3.426687        5.210054
  C           -5.932679        3.593124        7.958691
  C            2.813684        4.307411        6.639567
  C            1.802100        2.580168        8.590925
  C            6.161473        9.726276        4.605129
  C           -1.730084       -2.944720        6.528234
  C            8.715175        1.588330        0.011262
  C            1.839040       13.147429        0.088587
  C            6.684170        0.195343       12.990012
  C           -6.719779        1.271810       13.046845
  C            3.350517        5.224492        5.605606
  C           -1.145018       -2.033515        7.540248
  C            4.215985       -4.201651       13.101266
  C            1.796086       11.711651        0.049701
  C            5.408882       -0.466276       13.043122
  C           -5.332575        1.734605       13.064020
  C            1.482906        4.442604        7.078738
  C            3.125222        2.436827        8.154613
  C            5.424120       10.827594        5.058747
  C           -8.018869       10.319594        6.073436
  C            8.784652        0.919515        1.239780
  C           -2.508142        6.615249       11.963065
  C           -4.360552        7.730507        1.110303
  C           -7.351366        1.022025       11.821932
  C            7.441371        9.469644        5.112723
  C           12.991193       -2.694552        6.017481
  C            3.632637        3.298056        7.181208
  C            0.980621        3.578705        8.052889
  C            7.361766        0.489528       11.753548
  C           -3.089201        8.254946        1.152479
  C            4.438003       -6.388560       11.910676
  C            8.855538       -0.479663        1.318796
  N            8.938305       -1.077634        2.555968
  N            6.782516        0.288157       10.517426
  N            8.001283        4.757340        7.639127
  N            6.418775       -4.042078        9.284423
  O            7.234665        5.022637        5.076604
  O           -3.053924        1.423703        8.020113
  O            4.345224       -2.456407        9.695708
  O            0.426054        9.871897        3.422680
  O            1.318961        8.513079        5.002228
  O            2.776776       -2.264724        8.078087
  O            8.824398        4.755701        3.489805
  O           -3.903766        2.779752        9.624467
  O            6.156697        4.409127        2.505218
  O           -1.367975        1.993658       10.109628
  O            7.017801        6.727170        2.953185
  O           -3.056279        0.208461       10.609657
  O            1.659621       -2.837312       10.674383
  O            2.969458        9.121937        2.909279
  O            2.531624       -0.543378       10.208048
  O            1.322575        7.306972        2.398893
  O            4.575167        5.087631        5.244337
  O           -1.836144       -1.022528        7.923516
  O            4.066391       -3.610049       11.962095
  O            1.743514       11.006429        1.144350
  O            4.771026       -0.795498       11.956418
  O           -0.427504        9.094025        1.094098
  O            0.028867       -2.288059        7.991258
  O            2.574295        6.119616        5.117796
  O            9.199419        6.452785        1.083295
  O           -4.748114        1.988975       11.944029
  O            8.500254        3.672420        1.113292
  O           -2.542975        3.849240       12.015231
  O            4.269171        6.735574        3.019668
  O           -0.147093       -0.436062       10.017030
  O            6.748057        5.600086        0.071530
  O           -2.238358        1.302347       13.044892
  S           -6.320935      -12.582011        4.638929
  S           -6.790450      -10.615151        2.655644
  F           -7.824341      -14.478284        3.515270
  F           -8.094338      -14.263225        5.658322
  F           -8.965645      -12.811248        4.303054
  F           -8.155133      -10.291609        0.419619
  F           -6.646609      -11.844155        0.283899
  F           -8.491416      -12.216542        1.362198
  O           -6.582876      -11.651698        5.704826
  O           -5.314282      -13.593529        4.822193
  O           -5.780948       -9.714221        2.163604
  O           -7.901712      -10.075664        3.394906
  N           -6.142734      -11.948421        3.207543
  C           -7.895039      -13.583406        4.513499
  C           -7.559083      -11.291646        1.094773
  S            4.306703       18.692770       -1.345305
  S            4.092107       15.929638       -1.929643
  F            6.058614       18.422818        0.648843
  F            4.432764       19.802354        1.055431
  F            4.081695       17.662850        1.114063
  F            5.015636       13.609803       -1.073892
  F            6.566376       14.916252       -1.843868
  F            5.698615       15.296588        0.107297
  O            2.878139       18.864079       -1.354867
  O            5.143871       19.754428       -1.837378
  O            4.002542       15.395791       -3.263755
  O            2.962636       15.788730       -1.048225
  N            4.834765       17.326123       -1.924512
  C            4.744092       18.629885        0.471578
  C            5.426345       14.889683       -1.140297
  S          -10.427408        9.359772        5.876564
  S          -11.215176       10.080068        8.500111
  F          -12.791503        9.832700        4.733721
  F          -11.844343        7.979710        4.116359
  F          -12.790961        8.119292        6.062790
  F          -13.355423       10.899433        9.809625
  F          -12.692298       12.300746        8.292703
  F          -13.734035       10.488641        7.713244
  O           -9.805621        8.145945        6.335081
  O           -9.837118       10.079213        4.779265
  O          -10.380638       10.813029        9.416181
  O          -11.561966        8.718629        8.814239
  N          -10.822849       10.391296        6.999792
  C          -12.061886        8.792538        5.167300
  C          -12.838980       10.998233        8.570792
  S           -4.550893       11.175529        2.673518
  S           -4.179110       13.978898        2.514457
  F           -7.045219       11.168896        1.726425
  F           -6.735791        9.906474        3.464920
  F           -6.860690       12.059535        3.694902
  F           -5.507149       16.153398        1.825467
  F           -5.210039       14.774594        0.177715
  F           -6.695460       14.342704        1.698144
  O           -4.030133       11.125014        4.013850
  O           -4.287179       10.081738        1.776758
  O           -2.950726       14.603455        2.097478
  O           -4.621940       14.156315        3.872722
  N           -4.316548       12.527905        1.900073
  C           -6.404351       11.084143        2.903018
  C           -5.472934       14.850684        1.489387
  S           13.196836       15.472999        3.647394
  S           10.416920       15.140361        4.076135
  F           13.727787       12.891454        3.232178
  F           15.138281       13.905777        4.533513
  F           13.178097       13.352007        5.278619
  F            8.609016       13.220425        4.186482
  F            9.542769       13.404963        2.237503
  F           10.626661       12.485792        3.876104
  O           13.334161       16.308951        4.810390
  O           14.001344       15.748146        2.486720
  O            9.414324       16.048842        3.583862
  O           10.608412       15.021943        5.498023
  N           11.719148       15.190438        3.179791
  C           13.835721       13.807404        4.207704
  C            9.772145       13.467442        3.556166
  S           22.339775       -6.488195        9.606649
  S           19.775745       -7.280287       10.512598
  F           22.037289       -3.892046       10.142562
  F           22.929044       -4.317451        8.209785
  F           20.798922       -4.596566        8.507848
  F           17.576339       -6.222262       11.517606
  F           19.310300       -5.964725       12.794915
  F           19.086895       -4.749199       11.012417
  O           22.204889       -7.241574        8.388265
  O           23.632166       -6.389991       10.231297
  O           19.523248       -8.491406       11.249013
  O           19.220898       -7.142692        9.191360
  N           21.265146       -6.789397       10.718632
  C           21.995302       -4.724432        9.090118
  C           18.899319       -5.975474       11.519624
  S           -7.531561       -1.908691       14.449903
  S           -9.346849       -0.283902       13.005191
  F           -7.430661       -3.880810       12.655675
  F           -7.622090       -4.541642       14.714431
  F           -9.339104       -3.722257       13.672973
  F          -10.724695       -0.309562       10.754030
  F           -8.578254       -0.337315       10.443410
  F           -9.602284       -2.134269       11.096884
  O           -8.277292       -1.755465       15.670821
  O           -6.096382       -1.990805       14.510079
  O           -9.251114        1.150362       12.924005
  O          -10.473997       -0.867089       13.684815
  N           -7.931014       -0.933870       13.278486
  C           -8.017025       -3.605214       13.831469
  C           -9.563404       -0.800706       11.224523
  S          -15.457552       18.512874        7.794280
  S          -18.228720       19.098544        7.789788
  F          -14.634306       21.050518        7.830586
  F          -13.566395       19.774332        6.436765
  F          -15.568441       20.461889        5.964280
  F          -19.849588       21.181568        7.764396
  F          -18.613222       21.081554        9.543683
  F          -17.751220       21.722610        7.659350
  O          -15.598614       17.561979        6.723703
  O          -14.492344       18.263238        8.831660
  O          -19.208212       18.352209        8.535744
  O          -18.276137       19.062385        6.351421
  N          -16.800898       18.993902        8.462180
  C          -14.778933       20.041098        6.957419
  C          -18.621795       20.871937        8.220287
  S          -12.256291       -9.400763        8.832627
  S          -14.956551       -8.550532        8.922661
  F          -12.397988      -10.530661        6.419757
  F          -11.349474      -11.710813        7.909616
  F          -13.514684      -11.589911        7.947228
  F          -17.153476       -8.655342        7.463422
  F          -15.545376       -7.555233        6.510405
  F          -15.482855       -9.722200        6.581521
  O          -12.326158       -9.952758       10.159523
  O          -11.031619       -8.787936        8.391350
  O          -15.382451       -7.285989        9.463411
  O          -15.358826       -9.761469        9.589192
  N          -13.461086       -8.476441        8.412921
  C          -12.399397      -10.891396        7.712868
  C          -15.821986       -8.623644        7.270258
  S           14.480285       19.257746       15.128020
  S           12.849932       16.953682       15.363899
  F           12.491317       21.027860       15.299470
  F           13.942224       21.447685       13.740483
  F           12.476817       19.872723       13.464358
  F           10.304404       16.301286       15.611921
  F           11.058781       17.454845       17.286639
  F           10.629061       18.435955       15.400512
  O           15.188076       18.711466       14.000703
  O           15.191418       20.077611       16.072590
  O           13.217744       15.783728       16.118082
  O           12.723159       16.846349       13.933911
  N           13.575630       18.242698       15.923842
  C           13.270516       20.461695       14.364283
  C           11.117063       17.317673       15.955032
  S          -12.289114      -13.368440       11.792532
  S          -10.274148      -11.936498       13.175231
  F          -14.330241      -12.459995       13.251030
  F          -14.380320      -14.594184       12.857900
  F          -13.007958      -13.794046       14.334574
  F          -10.015993      -10.277685       15.212028
  F          -11.216036       -9.468390       13.596663
  F          -12.050807      -10.971103       14.919432
  O          -11.536575      -14.593528       11.848016
  O          -13.092325      -13.090491       10.631628
  O           -9.146920      -11.313416       12.531807
  O          -10.040771      -13.043293       14.065736
  N          -11.498152      -12.062609       12.181426
  C          -13.567605      -13.559587       13.143550
  C          -10.937186      -10.586293       14.280713
  S           25.285241       15.015920        2.226630
  S           24.772783       15.933613       -0.403508
  F           25.194592       17.417848        3.384737
  F           26.843842       16.164208        4.032952
  F           26.914255       17.134577        2.094502
  F           24.361561       18.191493       -1.707243
  F           22.831803       17.766278       -0.229577
  F           24.780428       18.479592        0.401894
  O           26.386077       14.199522        1.788578
  O           24.449664       14.549175        3.300903
  O           23.930584       15.242824       -1.344988
  O           26.180532       16.045382       -0.683161
  N           24.363385       15.589450        1.085008
  C           26.105388       16.524642        2.966525
  C           24.146559       17.690667       -0.476742
  S           19.237145       16.322672        1.036442
  S           17.461160       18.482750        0.586613
  F           20.874107       16.877087       -0.996209
  F           20.355581       14.778351       -0.800614
  F           18.916271       16.180948       -1.616257
  F           17.109129       20.487652       -1.093651
  F           18.960609       20.626456        0.027607
  F           18.788934       19.215905       -1.611167
  O           18.153793       15.385510        1.171757
  O           20.416868       16.152323        1.842256
  O           16.868490       19.267183        1.638411
  O           16.607562       17.664044       -0.234086
  N           18.830318       17.844574        1.055522
  C           19.875090       16.031698       -0.696962
  C           18.129778       19.772580       -0.585585
  S           -2.807136       14.139526       17.248588
  S           -2.360923       11.423178       16.581693
  F           -0.354066       14.604290       18.189405
  F           -1.957860       15.402154       19.415406
  F           -1.530461       13.275871       19.435836
  F           -0.454416        9.602255       16.709438
  F            0.052845       11.283837       15.436869
  F            0.108768       11.501429       17.594237
  O           -4.048779       13.833048       17.907851
  O           -2.683485       15.377489       16.525912
  O           -2.875742       10.793116       15.393899
  O           -2.844821       10.985665       17.865002
  N           -2.195093       12.982145       16.372272
  C           -1.589974       14.356504       18.651359
  C           -0.558446       10.937561       16.577836
  S          -15.510601        0.081797       16.641019
  S          -17.343904        1.456891       18.305506
  F          -16.928323       -2.171453       16.463200
  F          -14.807092       -2.464605       16.818533
  F          -16.099089       -1.814499       18.434784
  F          -19.654335        1.061506       19.518942
  F          -19.793863        0.952142       17.357222
  F          -18.921233       -0.691402       18.471668
  O          -14.393273        0.453226       17.467972
  O          -15.329869       -0.007714       15.216439
  O          -17.661847        2.854248       18.167023
  O          -16.660954        1.014685       19.493146
  N          -16.858109        0.845115       16.930199
  C          -15.864314       -1.689397       17.124844
  C          -19.021060        0.643552       18.407429
  S          -17.865025       -7.753275       12.686002
  S          -18.774553      -10.422753       12.423233
  F          -15.489410       -8.151823       11.538698
  F          -15.427430       -6.965541       13.355485
  F          -15.698928       -9.114313       13.470512
  F          -17.937932      -12.758909       11.523628
  F          -18.084009      -11.248214        9.974135
  F          -16.438599      -11.196827       11.386472
  O          -18.269356       -7.690914       14.065444
  O          -17.978976       -6.575403       11.867628
  O          -20.126062      -10.780193       12.078952
  O          -18.277609      -10.764451       13.730423
  N          -18.407483       -8.987079       11.870207
  C          -16.016528       -8.023244       12.766657
  C          -17.747263      -11.454128       11.254600
  S           19.219415       12.473057       14.698346
  S           19.571381       15.006006       15.916003
  F           21.796971       11.784752       14.731961
  F           20.773931       11.363767       12.864347
  F           21.341635       13.398326       13.356737
  F           21.503728       16.547703       16.841235
  F           21.311428       14.676437       17.920980
  F           22.224310       14.703857       15.953595
  O           18.383362       13.022667       13.664335
  O           18.937948       11.154794       15.201398
  O           18.669439       15.559855       16.892026
  O           19.689488       15.651611       14.634713
  N           19.511757       13.425445       15.918817
  C           20.880991       12.253049       13.869438
  C           21.248309       15.233508       16.703985
  S           -6.277544      -10.395050       17.530729
  S           -7.519974      -12.704456       16.460490
  F           -8.456501       -9.437062       18.736174
  F           -7.298717       -7.955155       17.652056
  F           -8.550182       -9.358608       16.571166
  F           -9.892227      -13.857894       16.366437
  F           -9.093677      -13.707043       18.377413
  F           -9.903578      -11.949329       17.398018
  O           -5.655061      -10.077293       16.273042
  O           -5.570839      -10.118166       18.753025
  O           -6.893878      -13.999708       16.403963
  O           -7.818379      -12.023219       15.227880
  N           -6.916221      -11.831588       17.633231
  C           -7.735728       -9.228211       17.623010
  C           -9.193293      -13.069058       17.203343
  S           -7.978656       17.542679        9.061700
  S           -5.197225       18.015863        8.812421
  F           -7.772076       15.611203       10.890747
  F           -9.174712       15.191351        9.288201
  F           -7.040803       15.040048        8.930846
  F           -2.905133       17.112669        9.759733
  F           -4.173746       17.991307       11.283898
  F           -4.630183       16.022503       10.496380
  O           -8.157540       17.501716        7.634620
  O           -9.016845       18.106425        9.882953
  O           -4.615378       19.324791        8.667401
  O           -5.095062       17.085627        7.718491
  N           -6.588757       18.091708        9.560501
  C           -7.979908       15.743549        9.571066
  C           -4.179388       17.242448       10.172788
  S           13.424327       11.859207       10.486425
  S           11.736370       13.013985        8.526913
  F           11.461269       10.907530       12.022461
  F           13.063453       11.889165       13.109300
  F           11.602599       13.071369       12.026497
  F            9.167129       13.337735        8.015997
  F            9.777548       11.256644        8.046201
  F            9.550212       12.346737        9.907578
  O           14.227402       13.049521       10.578381
  O           14.056021       10.574174       10.626978
  O           12.007886       12.981379        7.113376
  O           11.746287       14.282964        9.206657
  N           12.428394       11.799540        9.267158
  C           12.316486       11.941865       11.990481
  C            9.961572       12.445673        8.635891
  S          -15.518614       -4.300642        8.076948
  S          -17.452678       -2.231639        8.045001
  F          -13.412517       -2.710238        8.468948
  F          -13.117009       -4.245802        6.963445
  F          -14.315851       -2.496332        6.509249
  F          -17.596209        0.397642        8.227022
  F          -16.826561       -0.543299       10.023334
  F          -15.563071       -0.358275        8.270031
  O          -16.061138       -4.904041        6.888751
  O          -14.978371       -5.145392        9.108761
  O          -18.753639       -2.339353        8.652262
  O          -17.362565       -2.113117        6.613117
  N          -16.414148       -3.193411        8.750826
  C          -14.011590       -3.375814        7.468753
  C          -16.814824       -0.597979        8.684580
  S           -4.714494      -12.526920       12.352304
  S           -4.929909       -9.727516       11.979025
  F           -2.074851      -12.656728       11.986067
  F           -3.205678      -14.201970       10.963678
  F           -3.184014      -12.177624       10.185398
  F           -3.409792       -7.646030       11.410248
  F           -2.882993       -8.603332       13.283886
  F           -2.330467       -9.528020       11.401234
  O           -5.822322      -12.787154       11.471833
  O           -4.520812      -13.367868       13.503562
  O           -5.792810       -8.877817       12.757668
  O           -5.202196       -9.893971       10.575241
  N           -4.527336      -11.024891       12.789267
  C           -3.208285      -12.900802       11.309292
  C           -3.290926       -8.835319       12.028831
  S            4.626460       11.042839       11.567090
  S            3.991425       13.600621       12.604821
  F            5.328266        9.958891       13.901873
  F            6.674147        9.513142       12.258178
  F            6.709995       11.471138       13.190449
  F            3.991886       14.902214       14.901057
  F            2.635919       13.209503       14.877692
  F            4.773008       12.884080       15.055625
  O            5.403450       11.607390       10.495734
  O            3.864131        9.846658       11.326035
  O            2.871827       14.390806       12.163258
  O            5.324162       14.080980       12.348842
  N            3.728020       12.059032       12.368472
  C            5.906807       10.474396       12.805601
  C            3.836194       13.638667       14.464718
  S           24.282857      -12.708804        7.226335
  S           25.841773      -10.360556        7.505457
  F           25.717850      -13.764002        5.239870
  F           23.568194      -13.879718        4.961646
  F           24.601299      -11.995548        4.667095
  F           27.945277       -9.195288        6.417216
  F           28.407706      -11.100050        7.345927
  F           27.382678      -11.046208        5.435135
  O           23.053068      -11.961948        7.233992
  O           24.318053      -14.008657        7.842166
  O           26.172766       -9.762581        8.772635
  O           24.989761       -9.637379        6.597961
  N           25.569508      -11.910761        7.661893
  C           24.565239      -13.099615        5.419721
  C           27.487072      -10.443103        6.627427
  S           -8.349152       -5.077258        6.674542
  S           -9.276456       -3.966969        4.239431
  F          -10.536264       -6.520857        7.175793
  F           -9.753640       -5.442214        8.889225
  F          -10.844555       -4.381026        7.343927
  F          -11.416755       -3.997254        2.695069
  F          -10.470337       -5.939758        2.883309
  F          -11.655034       -5.148120        4.518703
  O           -7.910379       -3.795164        7.158222
  O           -7.588201       -6.251430        7.009768
  O           -8.447727       -3.774022        3.078031
  O           -9.800427       -2.810644        4.918272
  N           -8.722296       -5.139265        5.145171
  C           -9.969029       -5.367147        7.562400
  C          -10.786461       -4.822167        3.551475
  S            8.834007       15.454203       -5.182428
  S            9.736304       13.702798       -3.147523
  F            9.212597       17.706302       -3.802786
  F            7.324777       17.607102       -4.869612
  F            7.598660       16.475367       -3.039768
  F           10.636919       13.786573       -0.667862
  F           11.929322       14.803573       -2.082029
  F           10.075420       15.732481       -1.445722
  O            7.659091       14.659711       -5.424480
  O            9.475955       16.112488       -6.289075
  O           10.536917       12.531647       -3.393073
  O            8.399165       13.535947       -2.640888
  N            9.941310       14.780950       -4.286513
  C            8.209634       16.886501       -4.155291
  C           10.649344       14.564478       -1.765993
  S            7.044094        2.464137       18.285847
  S            9.290576        3.981237       17.464792
  F            8.412242        0.270039       18.943720
  F            6.600770       -0.101953       17.807053
  F            8.368495        0.665806       16.812137
  F           11.905912        3.734450       17.207963
  F           11.226624        3.548308       19.259397
  F           10.930107        1.912134       17.866657
  O            6.301960        2.817733       17.104983
  O            6.345257        2.312104       19.534292
  O            9.455399        5.384833       17.739787
  O            9.130820        3.555487       16.098896
  N            8.356992        3.296346       18.542329
  C            7.651041        0.730058       17.938123
  C           10.924647        3.246725       17.989260
  S            6.508468       -3.913891       -3.767247
  S            7.294754       -1.318041       -2.951333
  F            7.163248       -3.611210       -6.335970
  F            5.240008       -4.559873       -5.999806
  F            5.458275       -2.419812       -5.722924
  F            8.283109        0.904832       -3.975461
  F            9.624284       -0.790206       -4.155906
  F            7.898404       -0.629902       -5.459881
  O            5.250569       -3.812184       -3.076177
  O            7.176617       -5.186850       -3.824315
  O            7.961945       -1.035198       -1.707256
  O            5.965577       -0.805370       -3.158489
  N            7.570577       -2.803376       -3.419776
  C            6.069930       -3.596705       -5.557053
  C            8.338017       -0.418970       -4.211505
  S            0.058519        0.758017        1.304256
  S            0.170170        1.645162       -1.383291
  F            0.453007        3.154954        2.407780
  F            1.606088        1.547991        3.302148
  F            2.194190        2.368192        1.382364
  F            0.554517        3.864023       -2.760164
  F           -1.219087        3.927569       -1.513267
  F            0.744616        4.137665       -0.616361
  O            0.951757       -0.338439        1.039410
  O           -1.008808        0.580031        2.252537
  O           -0.689440        1.152250       -2.427790
  O            1.581456        1.371172       -1.458519
  N           -0.514037        1.494696        0.034792
  C            1.141759        2.035093        2.136119
  C            0.049245        3.498866       -1.567460
  S           10.538703        0.270096       14.614120
  S            9.573039       -1.093309       12.326977
  F           11.632870       -1.868658       15.774820
  F           10.494015       -0.596892       17.115506
  F            9.465289       -1.911735       15.730922
  F            9.487179       -3.531325       11.319231
  F           11.505189       -2.767200       11.538812
  F           10.406463       -3.443475       13.282419
  O            9.280517        0.937699       14.817853
  O           11.760055        0.967109       14.918382
  O            9.606698       -0.549417       10.994341
  O            8.296239       -1.322060       12.951406
  N           10.708050       -0.460250       13.228489
  C           10.527621       -1.112911       15.872491
  C           10.294205       -2.801571       12.111286
  S           26.108845       -9.810555       -4.879781
  S           23.395932       -9.064312       -4.554784
  F           25.715453      -12.433344       -4.588392
  F           27.424824      -11.650360       -3.503585
  F           25.416063      -11.297379       -2.765719
  F           21.045864      -10.164387       -4.071192
  F           21.928918      -10.820448       -5.940487
  F           22.682145      -11.588921       -4.057189
  O           26.557030       -8.796739       -3.962425
  O           26.924500      -10.135324       -6.019664
  O           22.749117       -8.033555       -5.324226
  O           23.577255       -8.864624       -3.140676
  N           24.610295       -9.691156       -5.351105
  C           26.157788      -11.386207       -3.874171
  C           22.204479      -10.496784       -4.669779
  S           14.492393       17.348897       -2.562479
  S           16.001818       19.463973       -3.689641
  F           12.900459       16.984564       -4.672384
  F           11.877004       16.985498       -2.758132
  F           12.553385       18.853349       -3.628653
  F           16.121773       20.900582       -5.900661
  F           16.516830       18.793086       -6.227551
  F           14.486075       19.475365       -5.888079
  O           14.305649       18.063878       -1.327910
  O           14.649424       15.919116       -2.528281
  O           17.423830       19.613864       -3.521456
  O           15.126690       20.450957       -3.113040
  N           15.568336       17.949838       -3.543944
  C           12.867532       17.564813       -3.462220
  C           15.765160       19.656567       -5.531287
  S          -12.065084       10.320199       -1.605935
  S           -9.823298       11.701371       -0.562307
  F          -13.657604       12.454465       -1.771700
  F          -14.602856       10.684240       -0.944281
  F          -13.224201       11.843970        0.263403
  F           -9.121172       14.134215        0.182769
  F           -9.610904       13.993298       -1.925493
  F          -11.193681       13.990131       -0.442416
  O          -11.952841        9.277199       -0.621157
  O          -12.500124        9.985428       -2.935886
  O           -8.463096       11.433605       -0.950923
  O          -10.227192       11.419309        0.790382
  N          -10.833046       11.296525       -1.710456
  C          -13.459084       11.393781       -0.973073
  C           -9.952470       13.558167       -0.705091
  S           17.560894       -5.269630        1.012560
  S           15.721172       -3.856076       -0.612152
  F           18.164897       -3.215842        2.604988
  F           19.874693       -4.374996        1.938068
  F           18.901080       -2.994916        0.577325
  F           14.715465       -1.430273       -0.878386
  F           14.225504       -2.355547        1.021159
  F           16.219077       -1.572350        0.679137
  O           18.229474       -5.829137       -0.132073
  O           17.433461       -6.061517        2.207038
  O           14.488196       -4.415225       -1.102045
  O           16.753036       -3.516259       -1.556735
  N           16.179077       -4.570684        0.722537
  C           18.683143       -3.876924        1.557773
  C           15.193009       -2.215417        0.104816
  S          -12.874376        3.270700       12.425675
  S          -13.864617        3.202500       15.078441
  F          -15.222928        3.769604       11.262020
  F          -14.029837        2.249452       10.273336
  F          -15.075570        1.781390       12.114945
  F          -16.146996        3.425304       16.385328
  F          -15.589668        5.232430       15.323187
  F          -16.375284        3.531423       14.230442
  O          -12.131484        2.052489       12.610902
  O          -12.325769        4.307055       11.591947
  O          -13.168776        3.758409       16.209654
  O          -14.057419        1.777331       15.013817
  N          -13.443964        3.929827       13.738372
  C          -14.393092        2.736011       11.474918
  C          -15.589561        3.894310       15.253744
  S           16.203032       18.485179        4.814276
  S           14.452649       19.531861        6.779731
  F           15.903162       15.925717        5.505596
  F           17.955360       16.525672        5.130949
  F           16.973371       17.107804        6.975125
  F           12.937289       18.705183        8.776513
  F           12.307823       17.934610        6.849220
  F           14.057956       17.107836        7.828093
  O           17.221742       19.452875        5.124161
  O           16.031540       18.059301        3.450707
  O           13.539384       20.619642        6.544039
  O           15.539422       19.725624        7.703764
  N           14.782898       18.765241        5.436240
  C           16.785533       16.924952        5.664402
  C           13.379321       18.239528        7.593737
  S            2.582640      -12.115427        4.432695
  S            1.700393       -9.630066        5.465664
  F            0.788639      -12.253444        2.462619
  F            1.063595      -14.102978        3.565090
  F           -0.068956      -12.474321        4.441997
  F           -0.163529       -7.812616        5.030332
  F            1.214486       -8.039012        3.370728
  F           -0.317514       -9.534390        3.719343
  O            2.621965      -12.710540        5.742095
  O            3.570652      -12.496840        3.458807
  O            2.585126       -8.600221        5.944765
  O            0.824031      -10.283526        6.402379
  N            2.421650      -10.548583        4.398962
  C            0.995325      -12.763954        3.686926
  C            0.548753       -8.708067        4.321809
  S            4.870478       -1.502743        3.248226
  S            3.344400       -3.880521        3.049083
  F            3.200749        0.021992        1.831936
  F            5.298046        0.274067        1.332311
  F            4.223337       -1.482712        0.651948
  F            1.111548       -4.757390        1.948029
  F            0.784044       -3.201873        3.423688
  F            1.556477       -2.690216        1.462499
  O            6.086214       -2.185480        2.893135
  O            4.922769       -0.427950        4.203313
  O            3.173862       -4.817783        4.128586
  O            4.068830       -4.296339        1.876585
  N            3.644667       -2.428193        3.598920
  C            4.362459       -0.631906        1.673460
  C            1.601090       -3.604828        2.441115
  S           21.296636        3.155631       11.005157
  S           21.618199        4.748877        8.685552
  F           18.976990        2.059128       10.273302
  F           19.048951        2.727083       12.337395
  F           18.836684        4.173218       10.734959
  F           20.356950        5.314818        6.437039
  F           20.936356        3.230368        6.591385
  F           19.247584        3.973336        7.731892
  O           21.607874        4.258463       11.875288
  O           21.721335        1.830878       11.372258
  O           22.879837        4.959038        8.024515
  O           20.969005        5.869193        9.314754
  N           21.612404        3.380079        9.478079
  C           19.432731        3.028423       11.082644
  C           20.474575        4.278210        7.287211
  S           24.208023       -3.171217       -2.401096
  S           21.539305       -4.063060       -2.725074
  F           23.969982       -2.501363        0.170543
  F           25.017415       -1.043177       -1.049456
  F           22.858776       -1.213197       -1.174090
  F           19.304264       -4.283220       -1.338362
  F           20.922174       -5.494321       -0.550918
  F           20.917441       -3.349446       -0.228120
  O           24.153905       -2.390034       -3.608182
  O           25.440135       -3.820833       -2.040539
  O           21.167568       -5.219652       -3.497716
  O           21.115520       -2.762619       -3.174204
  N           23.023121       -4.188204       -2.191813
  C           23.989508       -1.912494       -1.035740
  C           20.630828       -4.313725       -1.113678
  S           -5.602569       11.061845       16.356946
  S           -7.802775       11.433426       18.101486
  F           -5.875937        8.418457       16.119330
  F           -3.835450        9.091361       16.428254
  F           -5.230346        9.056301       18.088736
  F           -9.657410       10.019553       19.337665
  F           -9.801541        9.915299       17.175994
  F           -8.254888        8.804044       18.214110
  O           -4.741405       11.870436       17.178413
  O           -5.445680       11.098939       14.927221
  O           -8.712804       12.546129       18.020187
  O           -6.957561       11.311077       19.260409
  N           -7.139113       11.137627       16.696569
  C           -5.116861        9.306589       16.780611
  C           -8.939583        9.956092       18.201056
  S           -7.911022       19.355315        2.606156
  S           -7.865174       16.887805        3.996008
  F           -8.750891       18.352249        0.280824
  F           -7.131138       19.787545        0.113053
  F           -6.728058       17.771221        0.803076
  F           -8.325590       14.324071        3.569233
  F          -10.087319       15.563398        3.314586
  F           -8.544819       15.545680        1.789761
  O           -6.601658       19.713593        3.083059
  O           -8.900987       20.385092        2.434019
  O           -8.282760       16.729470        5.364738
  O           -6.479902       16.679404        3.664274
  N           -8.585157       18.123852        3.321065
  C           -7.612311       18.772287        0.854819
  C           -8.763900       15.511319        3.111509
  S           -6.058272       20.989256        5.706868
  S           -3.606764       20.232713        4.506804
  F           -6.412813       18.724918        7.072799
  F           -8.189330       19.459118        6.064454
  F           -6.616735       18.491419        4.926620
  F           -1.955454       18.175521        4.417456
  F           -2.144507       19.035036        6.399868
  F           -3.736298       17.798942        5.598005
  O           -6.594442       21.451750        4.454329
  O           -6.403228       21.685839        6.917603
  O           -2.493936       21.127202        4.321403
  O           -4.285870       19.719518        3.345812
  N           -4.510879       20.693526        5.720050
  C           -6.855483       19.315653        5.951486
  C           -2.822572       18.728306        5.285626
  S           -2.312347       -7.845026        8.455280
  S           -1.201573       -5.854434        6.774172
  F           -4.714006       -7.885325        7.293771
  F           -4.760103       -7.885831        9.463954
  F           -4.303498       -6.058787        8.388042
  F           -1.895343       -4.304369        4.753571
  F           -1.973855       -6.418627        4.275856
  F           -3.525475       -5.525687        5.500537
  O           -1.828460       -7.192906        9.643062
  O           -2.348931       -9.282623        8.409662
  O            0.150647       -5.883438        6.280685
  O           -1.584849       -4.810184        7.688010
  N           -1.721325       -7.313410        7.095084
  C           -4.123085       -7.383234        8.389666
  C           -2.210831       -5.518863        5.240043
  S           21.959309       -9.238676        2.641173
  S           22.536927       -6.853526        4.055322
  F           24.499163       -9.964132        2.264947
  F           23.231952      -10.171047        0.514752
  F           23.915657       -8.208177        1.134312
  F           24.615314       -5.446193        4.871758
  F           24.511430       -7.417817        5.769739
  F           25.162895       -7.196533        3.712718
  O           21.012510       -8.571061        1.787888
  O           21.708131      -10.598370        3.038970
  O           21.784620       -6.392536        5.193036
  O           22.506668       -6.078292        2.842657
  N           22.433619       -8.424548        3.903822
  C           23.493000       -9.394276        1.582915
  C           24.307346       -6.734751        4.635208
  S           -4.025440       12.086072        9.984387
  S           -1.607120       13.510019        9.601630
  F           -5.093148       12.705022        7.618886
  F           -6.457881       12.875414        9.298259
  F           -4.939109       14.389763        8.975393
  F           -0.435408       15.048413        7.805166
  F           -0.805380       13.032848        7.094473
  F           -2.443210       14.446912        7.244953
  O           -4.210812       12.641024       11.298882
  O           -4.435828       10.730552        9.730908
  O           -0.317193       13.029672       10.023798
  O           -2.150796       14.684676       10.231753
  N           -2.604123       12.309756        9.342609
  C           -5.186305       13.078019        8.905146
  C           -1.313556       14.028960        7.832652
  S           -7.488339        9.128296       -2.869958
  S           -9.754569        7.905032       -4.049038
  F           -5.765281        7.189817       -3.496105
  F           -5.590397        7.932025       -1.463775
  F           -7.225047        6.611427       -2.000531
  F          -10.415814        5.691761       -5.326158
  F           -8.967542        6.898225       -6.399197
  F           -8.344207        5.727853       -4.682690
  O           -8.206662        9.423308       -1.658672
  O           -6.497890       10.058776       -3.342524
  O          -10.764275        8.623347       -4.782105
  O          -10.114722        7.277334       -2.804553
  N           -8.369679        8.667905       -4.091979
  C           -6.467634        7.622620       -2.437026
  C           -9.335198        6.480539       -5.180281
  S           -3.475082       10.367412       -2.101660
  S           -5.198896       12.614136       -2.046004
  F           -1.508233       11.556086       -3.457111
  F           -1.993623        9.553500       -4.139656
  F           -3.297591       11.214807       -4.633511
  F           -5.292606       15.105942       -2.911433
  F           -3.684119       14.750517       -1.500438
  F           -3.510510       14.041981       -3.543119
  O           -4.537541        9.490788       -2.517527
  O           -2.459613        9.866881       -1.213745
  O           -5.997393       12.985354       -0.906939
  O           -5.862903       12.186422       -3.249588
  N           -3.921856       11.793222       -1.602148
  C           -2.520663       10.701676       -3.674453
  C           -4.362978       14.213573       -2.523292
  S           26.752669       -2.289816        9.667598
  S           24.147289       -1.204409        9.430349
  F           27.983671        0.032517       10.125957
  F           28.994578       -1.260732        8.705606
  F           27.219778       -0.167486        8.106388
  F           22.922739        1.132900        9.496000
  F           23.876059        0.613761       11.373802
  F           25.077620        1.284377        9.697128
  O           26.595531       -3.076586        8.473221
  O           27.514505       -2.824592       10.764742
  O           22.964596       -1.832867        9.958696
  O           24.286268       -1.075230        8.003305
  N           25.434070       -1.643666       10.238424
  C           27.786815       -0.832129        9.118037
  C           24.008131        0.553881       10.041751
  S           -4.756577       -5.767393       -2.952479
  S           -6.550048       -7.906943       -2.474790
  F           -2.593564       -7.288328       -3.308596
  F           -2.275635       -5.545276       -2.054598
  F           -3.324009       -7.272892       -1.266930
  F           -6.544249      -10.539837       -2.288546
  F           -5.978959       -9.820276       -4.255052
  F           -4.571675       -9.695436       -2.609246
  O           -5.239752       -5.032755       -1.813583
  O           -4.353080       -5.048195       -4.131481
  O           -7.899146       -7.950684       -2.975682
  O           -6.339753       -7.820380       -1.053263
  N           -5.632250       -7.001463       -3.391027
  C           -3.151730       -6.521215       -2.358725
  C           -5.864749       -9.579340       -2.941928
