         874
  Built with Packmol                                             
  Ti          -2.868335        2.115442       11.265214
  Ti           7.802788        5.383210        1.844391
  Ti           1.352572       -1.673500        9.417113
  Ti           2.511792        7.542652        3.648414
  Ti           1.444672        9.187418        1.751989
  Ti           3.259458       -1.864257       11.359530
  Ti          -1.869782        0.416024        9.366140
  Ti           5.815984        5.614284        3.703281
  H            3.746896        1.652626        8.583439
  H           -7.024875       10.142785        6.478257
  H            4.431630       11.010612        4.650438
  H           -2.503694        6.028051       11.048460
  H            8.748737        1.507342        2.155250
  H           -6.801542        1.221893       10.903644
  H           11.114246        7.503838        2.029089
  H            4.372721       -5.862020       10.962653
  H           -2.589143        8.456181        2.095703
  H            4.656966        3.204147        6.826953
  H           -0.045224        3.670268        8.406030
  H           12.440918       -1.828167        6.378540
  H           -2.327232        0.331938       12.984230
  H            5.927385        5.077403        0.154584
  H            3.761426       -2.506617        5.844726
  H            0.745560        9.314262        7.279431
  H           -6.059913        3.661213        9.037490
  H           10.641247        3.393379        4.132134
  H           -3.728587        2.298708        5.688870
  H           -1.703972       10.903386        4.124923
  H            1.733452       12.300945        2.609537
  H            8.667985       -0.517063        3.355831
  H            4.606680        7.297451        2.297825
  H            0.215487        0.134620       10.719246
  H            7.415332        0.218685        9.728366
  H            5.955496       -0.302534       10.483299
  H            7.828656        4.670987        8.632537
  H            7.237651        5.011538        7.017709
  H            7.098177       -4.749977        9.534320
  H            5.784030       -3.695029       10.000157
  H            1.411485        1.911548        9.356085
  H            0.863759        5.227040        6.648574
  H            5.741023        9.069333        3.845371
  H            7.999135        8.609993        4.744623
  C            8.422325        4.659191        4.703706
  C           -3.853328        2.346718        8.423899
  C            3.961595       -2.592630        8.476524
  C            0.513540        9.443357        4.621320
  C            9.344336        4.085192        5.693105
  C           -4.811926        2.940026        7.452907
  C            4.917315       -3.172748        7.523270
  C           -0.392661       10.057561        5.626884
  C            9.101042        4.149763        7.100999
  C           -4.599256        2.829342        6.063538
  C            6.075072       -3.893771        7.969088
  C           -1.516055       10.792469        5.189090
  C           -0.124811        9.894234        6.980095
  C            4.657405       -3.047644        6.140915
  C           10.498947        3.426687        5.210054
  C           -5.932679        3.593124        7.958691
  C            2.813684        4.307411        6.639567
  C            1.802100        2.580168        8.590925
  C            6.161473        9.726276        4.605129
  C           -1.730084       -2.944720        6.528234
  C            8.715175        1.588330        0.011262
  C            1.839040       13.147429        0.088587
  C            6.684170        0.195343       12.990012
  C           -6.719779        1.271810       13.046845
  C            3.350517        5.224492        5.605606
  C           -1.145018       -2.033515        7.540248
  C            4.215985       -4.201651       13.101266
  C            1.796086       11.711651        0.049701
  C            5.408882       -0.466276       13.043122
  C           -5.332575        1.734605       13.064020
  C            1.482906        4.442604        7.078738
  C            3.125222        2.436827        8.154613
  C            5.424120       10.827594        5.058747
  C           -8.018869       10.319594        6.073436
  C            8.784652        0.919515        1.239780
  C           -2.508142        6.615249       11.963065
  C           -4.360552        7.730507        1.110303
  C           -7.351366        1.022025       11.821932
  C            7.441371        9.469644        5.112723
  C           12.991193       -2.694552        6.017481
  C            3.632637        3.298056        7.181208
  C            0.980621        3.578705        8.052889
  C            7.361766        0.489528       11.753548
  C           -3.089201        8.254946        1.152479
  C            4.438003       -6.388560       11.910676
  C            8.855538       -0.479663        1.318796
  N            8.938305       -1.077634        2.555968
  N            6.782516        0.288157       10.517426
  N            8.001283        4.757340        7.639127
  N            6.418775       -4.042078        9.284423
  O            7.234665        5.022637        5.076604
  O           -3.053924        1.423703        8.020113
  O            4.345224       -2.456407        9.695708
  O            0.426054        9.871897        3.422680
  O            1.318961        8.513079        5.002228
  O            2.776776       -2.264724        8.078087
  O            8.824398        4.755701        3.489805
  O           -3.903766        2.779752        9.624467
  O            6.156697        4.409127        2.505218
  O           -1.367975        1.993658       10.109628
  O            7.017801        6.727170        2.953185
  O           -3.056279        0.208461       10.609657
  O            1.659621       -2.837312       10.674383
  O            2.969458        9.121937        2.909279
  O            2.531624       -0.543378       10.208048
  O            1.322575        7.306972        2.398893
  O            4.575167        5.087631        5.244337
  O           -1.836144       -1.022528        7.923516
  O            4.066391       -3.610049       11.962095
  O            1.743514       11.006429        1.144350
  O            4.771026       -0.795498       11.956418
  O           -0.427504        9.094025        1.094098
  O            0.028867       -2.288059        7.991258
  O            2.574295        6.119616        5.117796
  O            9.199419        6.452785        1.083295
  O           -4.748114        1.988975       11.944029
  O            8.500254        3.672420        1.113292
  O           -2.542975        3.849240       12.015231
  O            4.269171        6.735574        3.019668
  O           -0.147093       -0.436062       10.017030
  O            6.748057        5.600086        0.071530
  O           -2.238358        1.302347       13.044892
  S           16.247513       -8.934016        5.892949
  S           17.549015      -11.367522        5.255344
  F           18.414086       -7.391916        5.677118
  F           17.185639       -6.984877        7.419834
  F           18.464586       -8.736078        7.377962
  F           19.957633      -12.272091        4.666136
  F           19.191993      -10.863531        3.205239
  F           19.922106      -10.150695        5.119269
  O           15.591041       -9.517479        7.032619
  O           15.554567       -7.940168        5.116937
  O           16.967218      -12.398332        4.435702
  O           17.800595      -11.645115        6.645347
  N           16.937371       -9.951050        4.907153
  C           17.665869       -7.965816        6.632669
  C           19.247528      -11.138860        4.515391
  S            9.153940       10.943113       12.991129
  S            7.479488       11.836670       10.888710
  F            8.944271        8.342869       12.431255
  F            8.767601        8.830069       14.539156
  F            7.114132        9.222987       13.191631
  F            6.010385       10.858342        8.926197
  F            8.123063       10.414520        8.716242
  F            6.925510        9.327635       10.161669
  O            8.485724       11.777179       13.954485
  O           10.570893       10.725896       13.114274
  O            7.738766       13.013473       10.100813
  O            6.322838       11.815828       11.745555
  N            8.820166       11.241785       11.480684
  C            8.446508        9.239587       13.297509
  C            7.125784       10.529613        9.603698
  S           12.817633        8.970569        1.315291
  S           13.719438        6.502026        0.259144
  F           13.093024       10.360569       -0.945406
  F           13.829268       11.368892        0.830277
  F           14.976399        9.756024       -0.056804
  F           14.637963        5.489829       -1.998868
  F           12.605464        6.230207       -2.157773
  F           14.265810        7.624757       -2.101300
  O           13.657578        8.845765        2.476820
  O           11.523797        9.585772        1.448012
  O           13.135594        5.227412        0.586792
  O           15.072012        6.772578        0.671215
  N           12.669140        7.671235        0.436805
  C           13.736657       10.173576        0.217795
  C           13.802681        6.468969       -1.605458
  S          -15.445462       -3.746606       16.137271
  S          -14.843940       -6.056769       14.612896
  F          -17.948790       -4.449199       16.735938
  F          -17.713611       -2.380645       16.121450
  F          -17.654020       -3.966113       14.642632
  F          -15.998357       -8.278506       13.777400
  F          -15.848055       -8.152828       15.937511
  F          -17.335855       -6.977361       14.884212
  O          -14.905936       -2.871885       15.130291
  O          -15.290690       -3.398725       17.524760
  O          -13.575656       -6.737027       14.652602
  O          -15.245110       -5.406601       13.392731
  N          -15.113429       -5.276689       15.962188
  C          -17.295496       -3.638899       15.888066
  C          -16.079274       -7.439861       14.826834
  S           21.240921       14.393245       10.914421
  S           20.799279       12.221891        9.150173
  F           18.760560       15.367987       10.786445
  F           20.327217       16.864266       10.650223
  F           19.885055       15.596947        8.946533
  F           18.877314       11.189220        7.664748
  F           18.424816       11.166371        9.785877
  F           18.297271       13.022108        8.670223
  O           22.457413       14.765981       10.242521
  O           21.150178       14.553615       12.341359
  O           21.349805       10.905669        9.343438
  O           21.236444       12.998082        8.019301
  N           20.651148       12.984380       10.527999
  C           19.978403       15.617832       10.279786
  C           18.994738       11.886237        8.809982
  S            6.415553       16.557244        4.679273
  S            8.227588       15.553348        6.610884
  F            5.043740       14.289069        4.375623
  F            5.539814       15.299984        2.519880
  F            7.065693       14.197837        3.597437
  F            8.780982       13.306803        7.881176
  F            6.803546       14.077550        8.328569
  F            7.182653       13.102726        6.428383
  O            7.476210       17.151014        3.909418
  O            5.144904       17.227714        4.756891
  O            8.681964       16.304328        7.752130
  O            9.179376       15.194780        5.592069
  N            6.812423       16.062839        6.121533
  C            5.999981       14.990736        3.746707
  C            7.706924       13.920802        7.351468
  S           24.585361       -6.866305       -1.105647
  S           25.614649       -4.446340       -2.157663
  F           26.922004       -8.151363       -1.019544
  F           25.275031       -9.323685       -1.810088
  F           26.198819       -7.787584       -3.031225
  F           27.905310       -3.409293       -2.960318
  F           27.894385       -3.932949       -0.855531
  F           28.065440       -5.487518       -2.358450
  O           23.508619       -6.889714       -2.059751
  O           24.352343       -7.355381        0.227248
  O           25.174060       -3.139535       -1.744127
  O           25.351481       -4.872869       -3.507209
  N           25.385879       -5.512620       -1.012041
  C           25.821322       -8.093451       -1.785972
  C           27.474954       -4.320019       -2.067819
  S           16.668217       -4.797826        8.495164
  S           14.589583       -6.230377        9.779485
  F           18.594836       -6.567263        9.020448
  F           19.154501       -4.496743        9.354430
  F           17.871342       -5.517256       10.774367
  F           14.222727       -8.455295       11.151347
  F           14.886580       -8.804917        9.116272
  F           16.295298       -8.108930       10.611539
  O           16.292360       -3.565551        9.135838
  O           17.170858       -4.762954        7.147485
  O           13.248492       -6.332345        9.265726
  O           14.808214       -5.522468       11.013796
  N           15.627369       -5.974544        8.613601
  C           18.149573       -5.384653        9.473707
  C           15.032061       -7.999745       10.177367
  S          -13.399185       -0.299114       10.966612
  S          -11.840410        1.619946       12.348577
  F          -13.758805       -1.923499       13.052454
  F          -13.248102       -2.932274       11.199517
  F          -11.718057       -1.880414       12.320552
  F          -10.824604        2.043553       14.747648
  F          -12.992993        1.995121       14.733344
  F          -11.866432        0.148231       14.576607
  O          -12.475984       -0.338773        9.863724
  O          -14.807381       -0.441582       10.708175
  O          -11.958914        3.041499       12.153605
  O          -10.617620        0.965764       11.962201
  N          -13.192224        0.881851       11.988641
  C          -13.000983       -1.840463       11.947430
  C          -11.895874        1.435678       14.205384
  S           -0.274212        9.538149       15.610923
  S           -0.391639       11.982868       17.036392
  F           -2.576520        8.560693       16.539712
  F           -0.935908        7.139546       16.516163
  F           -1.012706        8.684138       18.036855
  F           -1.937881       13.232713       18.772443
  F           -2.910726       12.867382       16.868613
  F           -2.637055       11.239815       18.276036
  O            1.093124        9.312339       15.997749
  O           -0.711368        9.123094       14.304506
  O            0.009227       13.252169       16.487709
  O            0.363887       11.429402       18.129695
  N           -0.834286       10.983374       15.893233
  C           -1.257177        8.426168       16.748290
  C           -2.069555       12.343766       17.770635
  S           -3.181783        8.135735       -1.996070
  S           -5.727020        6.965675       -2.414554
  F           -4.093457       10.486873       -1.124469
  F           -2.466882       10.623038       -2.555389
  F           -4.468476       10.130919       -3.230377
  F           -8.286233        7.582373       -2.222302
  F           -7.249380        7.630842       -0.317820
  F           -6.964509        9.236239       -1.748295
  O           -2.708445        7.704717       -3.284638
  O           -2.266910        8.163498       -0.885962
  O           -6.040088        5.594007       -2.108964
  O           -5.742561        7.391567       -3.789629
  N           -4.536664        7.491301       -1.515384
  C           -3.586880        9.944380       -2.243106
  C           -7.127575        7.911960       -1.622246
  S          -17.241401        3.439380       -1.931278
  S          -15.550930        1.318520       -1.114786
  F          -15.622473        5.408235       -1.143007
  F          -17.709928        5.690898       -0.619123
  F          -16.491873        4.283760        0.494641
  F          -13.220816        0.936806        0.064922
  F          -13.059812        1.983205       -1.828116
  F          -13.784589        3.027431       -0.070561
  O          -18.392624        2.834985       -1.315141
  O          -17.405237        4.167539       -3.161338
  O          -15.361420        0.106987       -1.869201
  O          -16.197163        1.242796        0.169390
  N          -15.971029        2.516323       -2.058460
  C          -16.729802        4.774136       -0.725865
  C          -13.806980        1.856976       -0.723039
  S            5.566902        9.902415       -4.981851
  S            6.530394       11.901463       -3.221768
  F            3.192835       11.037255       -5.423025
  F            3.117703        8.899158       -5.055983
  F            3.434844       10.273235       -3.408106
  F            5.737091       14.157452       -2.104613
  F            5.841573       14.265020       -4.268401
  F            4.204546       13.210202       -3.313303
  O            5.978685        8.844728       -4.097563
  O            5.650924        9.700513       -6.403920
  O            7.886850       12.384054       -3.220504
  O            6.049110       11.180068       -2.072676
  N            6.129817       11.334299       -4.642895
  C            3.725016       10.044446       -4.692695
  C            5.517435       13.469372       -3.240166
  S           22.696375       11.046513        0.717136
  S           25.512261       11.337361        0.809863
  F           22.167703       12.816831        2.642018
  F           21.039991       10.967321        2.781287
  F           23.130595       11.010308        3.357211
  F           27.359393       12.665911        2.147738
  F           26.022870       13.954386        1.026130
  F           25.345662       13.030553        2.868039
  O           22.787069        9.610589        0.728545
  O           21.652894       11.677481       -0.046492
  O           26.357155       11.347163       -0.355867
  O           25.634985       10.251557        1.747107
  N           24.046732       11.814254        0.454144
  C           22.244291       11.486692        2.477304
  C           26.080868       12.837581        1.764215
  S            3.893677       17.147965        9.730123
  S            3.186793       17.259977       12.470592
  F            2.857044       14.732697        9.271247
  F            4.827289       15.047306        8.416273
  F            4.610522       14.702704       10.546632
  F            2.012927       15.778126       14.312604
  F            0.693616       16.312239       12.675959
  F            2.202069       14.778945       12.396156
  O            5.238360       17.582729       10.000383
  O            3.249790       17.572765        8.515604
  O            2.707267       18.447668       13.128098
  O            4.459775       16.714680       12.863814
  N            2.873570       17.302018       10.920798
  C            4.053855       15.300701        9.488693
  C            1.949589       15.958381       12.980432
  S            0.330196       -5.938693       14.170329
  S           -1.144616       -6.468742       11.811012
  F           -1.494907       -6.897828       15.863772
  F           -0.618206       -5.003251       16.458577
  F           -2.098803       -5.064925       14.874849
  F           -3.478494       -7.454314       11.070398
  F           -2.224974       -8.899833       12.091979
  F           -3.233290       -7.348108       13.223420
  O            0.638627       -4.599239       13.744927
  O            1.308250       -6.678497       14.922794
  O           -0.557680       -6.955041       10.589582
  O           -1.722632       -5.150369       11.826685
  N           -0.274697       -6.884324       13.064914
  C           -1.057385       -5.715007       15.403581
  C           -2.596256       -7.612500       12.074299
  S           18.090638       -7.951671       14.005719
  S           19.849655       -5.787985       13.509003
  F           17.916501       -7.572686       16.641006
  F           18.188105       -9.641305       16.041950
  F           19.863780       -8.265430       15.984955
  F           21.137624       -3.894064       14.820888
  F           18.980570       -3.720948       14.967893
  F           20.027236       -5.235007       16.115422
  O           18.884133       -8.853172       13.213320
  O           16.658843       -8.093315       14.006908
  O           19.752657       -4.921162       12.363542
  O           21.001967       -6.641152       13.638393
  N           18.444854       -6.423288       13.862080
  C           18.549132       -8.373430       15.768736
  C           19.995152       -4.595657       14.937969
  S          -16.573464        7.899110       -1.986025
  S          -14.242913        6.760909       -3.124193
  F          -16.780108        9.912795       -3.724145
  F          -17.079539       10.476150       -1.649346
  F          -15.079349       10.081906       -2.389600
  F          -12.542270        7.195941       -5.095337
  F          -14.563878        6.809400       -5.779555
  F          -14.061677        8.733985       -4.914407
  O          -16.028294        7.827432       -0.656406
  O          -17.983458        7.687017       -2.178476
  O          -14.022537        5.344052       -3.253890
  O          -13.392754        7.517926       -2.242936
  N          -15.788465        7.095379       -3.090492
  C          -16.355390        9.692053       -2.469890
  C          -13.842623        7.414727       -4.826266
  S          -13.989801      -10.228176        7.883714
  S          -13.891816      -10.371167       10.710789
  F          -15.622442      -12.312444        7.553565
  F          -13.935317      -12.261543        6.188707
  F          -13.643442      -12.855462        8.254193
  F          -14.827627      -11.846949       12.688963
  F          -16.384405      -10.845934       11.558088
  F          -15.387274      -12.583428       10.726489
  O          -12.560185      -10.100062        7.783625
  O          -14.824615       -9.521550        6.948904
  O          -13.900230       -9.218694       11.573694
  O          -12.714681      -11.198872       10.669398
  N          -14.591967      -10.052102        9.328861
  C          -14.315912      -12.019271        7.457148
  C          -15.204391      -11.471899       11.452609
  S           12.741714       13.120411        9.930505
  S           11.036778       11.059173        8.999435
  F           13.322487       11.970475       12.266964
  F           12.864073       14.088509       12.391890
  F           11.267935       12.646723       12.113038
  F           10.051680        8.743394        9.795426
  F           12.212591        8.734836        9.608729
  F           11.274396        9.720547       11.297774
  O           11.796401       14.143424        9.569867
  O           14.149217       13.387310        9.797080
  O           11.005496       10.597761        7.635987
  O            9.875890       11.720743        9.535272
  N           12.445511       11.683488        9.356422
  C           12.529184       12.937442       11.779203
  C           11.163103        9.478408        9.984314
  S           22.961298        5.409234       14.804058
  S           20.224719        6.125087       14.658847
  F           23.692269        6.635385       12.549967
  F           24.509296        4.639762       12.798512
  F           22.432132        4.899714       12.231078
  F           18.562638        7.429270       13.076619
  F           20.124643        8.688537       13.900543
  F           20.581435        7.307718       12.291384
  O           22.645532        4.035704       15.093779
  O           24.117812        6.007369       15.416278
  O           19.434357        6.511335       15.798589
  O           19.899115        4.903630       13.970019
  N           21.758847        6.422287       14.903511
  C           23.413395        5.398005       12.989723
  C           19.865204        7.467803       13.412803
  S           -7.634205       -9.194282        1.782087
  S           -4.825401       -9.048225        2.116285
  F           -7.827967      -11.825298        2.180715
  F           -8.984611      -11.078392        0.502582
  F           -6.833401      -11.293363        0.328669
  F           -2.765617      -10.630185        2.586966
  F           -4.204129      -10.593306        4.209861
  F           -4.644626      -11.697743        2.395780
  O           -7.589793       -8.403489        0.580877
  O           -8.753768       -9.052167        2.674548
  O           -4.153496       -7.977299        2.805147
  O           -4.607276       -9.208946        0.702408
  N           -6.310071       -9.215340        2.635482
  C           -7.818894      -10.949174        1.163565
  C           -4.079150      -10.581509        2.875833
  S           -3.219249       19.839539        5.163501
  S           -0.545366       20.355728        5.942155
  F           -2.706381       19.570990        2.558978
  F           -4.455388       20.772637        3.015971
  F           -2.468711       21.598062        3.291565
  F            1.850694       20.628066        4.869040
  F            1.008019       18.649193        4.588993
  F            0.282006       20.314233        3.403558
  O           -3.718297       20.945230        5.937214
  O           -4.013463       18.644830        5.053973
  O            0.056808       19.833174        7.140985
  O           -0.742597       21.777102        5.827030
  N           -1.725554       19.426446        5.446847
  C           -3.200141       20.485422        3.408851
  C            0.711615       19.955519        4.621324
  S          -19.229454       14.864073        1.024150
  S          -16.765355       15.017970        2.412290
  F          -18.167172       14.457891       -1.389408
  F          -19.783778       15.905831       -1.346096
  F          -17.818990       16.449586       -0.605756
  F          -14.171497       14.921361        1.933318
  F          -15.200219       13.074557        1.448024
  F          -15.383423       14.793836        0.138358
  O          -19.731469       16.048952        1.667794
  O          -20.138976       13.790934        0.722082
  O          -16.540677       14.447176        3.714821
  O          -16.724532       16.449454        2.265179
  N          -17.918094       14.251893        1.646746
  C          -18.709269       15.454734       -0.671979
  C          -15.305659       14.410031        1.420091
  S           14.606421        6.741354        5.447273
  S           15.980258        8.967131        4.360586
  F           12.787738        8.160899        6.787413
  F           13.649807        6.512107        7.905511
  F           14.793797        8.328190        7.593594
  F           15.906104       11.605033        4.413712
  F           14.123788       10.716441        3.554517
  F           14.427759       10.676431        5.701774
  O           15.833251        6.113617        5.860876
  O           13.517925        5.919806        4.988647
  O           16.497152        9.014035        3.017645
  O           16.906890        8.985422        5.462165
  N           14.761685        7.964314        4.466295
  C           13.925991        7.488381        7.020580
  C           15.045556       10.575457        4.516731
  S           -5.630891      -11.086076       15.530094
  S           -3.451050       -9.294384       15.284061
  F           -4.163653      -13.233103       16.126898
  F           -5.733645      -13.588343       14.670619
  F           -3.922022      -12.550694       14.082852
  F           -0.815732       -9.292349       15.432195
  F           -1.777228       -9.814810       17.304900
  F           -1.690678      -11.260770       15.690459
  O           -6.216427      -10.633080       14.296329
  O           -6.492724      -11.465209       16.618031
  O           -3.473197       -7.933751       15.754229
  O           -3.356844       -9.538272       13.868398
  N           -4.463606      -10.194681       16.100108
  C           -4.805424      -12.700866       15.074700
  C           -1.850019       -9.960820       15.974948
  S           22.761404      -10.289144        4.139591
  S           23.175986       -8.279747        6.092242
  F           24.235473      -12.158999        5.343524
  F           24.562812      -11.989415        3.204386
  F           25.396301      -10.507671        4.551195
  F           24.479839       -7.906714        8.356677
  F           22.969365       -9.457991        8.485016
  F           24.842761       -9.850900        7.464860
  O           23.051208       -9.381470        3.061456
  O           21.760792      -11.305670        3.951039
  O           22.152956       -7.369842        6.537611
  O           24.306314       -7.754714        5.371719
  N           22.544327       -9.625355        5.551794
  C           24.332311      -11.285558        4.328639
  C           23.902891       -8.921730        7.687306
  S           13.789363       11.878382       -3.269892
  S           16.484018       11.141504       -3.737058
  F           12.877722        9.396635       -2.911380
  F           11.627202       10.644926       -4.172249
  F           13.475874        9.821184       -4.952008
  F           17.980461        8.974402       -3.913626
  F           17.099358        9.247750       -1.950618
  F           15.877317        8.544663       -3.598949
  O           13.771448       12.754919       -4.410767
  O           13.044015       12.241929       -2.094140
  O           17.615815       11.875570       -3.234016
  O           16.266592       11.089675       -5.159203
  N           15.210779       11.364418       -2.825515
  C           12.902291       10.343009       -3.863241
  C           16.872540        9.377766       -3.264786
  S           22.565129       19.697267        5.230867
  S           19.755361       19.345477        5.168838
  F           22.631247       21.733637        3.508220
  F           24.145769       20.215658        3.170904
  F           22.086705       19.840337        2.602085
  F           17.622975       20.350069        3.981164
  F           18.658746       21.784592        5.235670
  F           19.483260       21.238512        3.305208
  O           22.802620       18.287930        5.064728
  O           23.456243       20.466070        6.058491
  O           18.958781       19.039592        6.328479
  O           19.859754       18.364940        4.119978
  N           21.082484       20.104370        5.574502
  C           22.862711       20.411413        3.528584
  C           18.838016       20.767914        4.381494
  S           -4.013801       -8.502070       -4.483045
  S           -4.754341       -5.772818       -4.324353
  F           -6.476296       -9.436896       -4.908383
  F           -5.320617      -10.563591       -3.456906
  F           -6.174984       -8.645985       -2.911921
  F           -6.914771       -4.260100       -4.429585
  F           -6.526973       -5.327163       -6.277679
  F           -7.342768       -6.382542       -4.567309
  O           -3.210594       -8.412411       -3.292644
  O           -3.584051       -9.358359       -5.556445
  O           -3.980129       -4.696915       -4.886402
  O           -4.897035       -5.851949       -2.894026
  N           -4.486203       -7.128655       -5.093473
  C           -5.591179       -9.323377       -3.905412
  C           -6.481511       -5.426577       -4.942224
  S            4.918476       -8.909727        3.005673
  S            4.679306       -9.325428        0.214188
  F            6.006603       -6.479563        2.835452
  F            6.957489       -7.796134        4.275688
  F            7.312322       -8.070957        2.153724
  F            5.233207       -8.107113       -2.060840
  F            3.791254       -7.035372       -0.845682
  F            5.893395       -7.005969       -0.311970
  O            5.497224      -10.211448        3.207682
  O            4.045198       -8.366437        4.011816
  O            3.548425       -9.962703       -0.408596
  O            5.961108       -9.978484        0.159817
  N            4.271376       -8.661882        1.590791
  C            6.383166       -7.748620        3.058976
  C            4.908336       -7.773784       -0.798091
  S           -8.638889       14.214955        3.410290
  S           -9.455151       13.958076        0.710266
  F           -6.571327       12.537255        3.239399
  F           -7.803295       12.275390        5.007309
  F           -8.502137       11.562948        3.081638
  F           -8.788627       12.647976       -1.482046
  F           -7.237558       13.994619       -0.785482
  F           -7.581498       12.114459        0.239902
  O           -9.983001       14.040018        3.892983
  O           -7.755744       15.114151        4.104267
  O           -9.923756       15.055950       -0.094689
  O          -10.373521       12.901264        1.045234
  N           -8.496415       14.465440        1.861415
  C           -7.836005       12.549520        3.689631
  C           -8.184611       13.136405       -0.383053
  S           15.124373       19.776290       -0.554805
  S           13.999724       17.517314       -1.841115
  F           15.018571       18.774261        1.915708
  F           14.359841       20.835770        1.748148
  F           13.072635       19.226243        1.072361
  F           13.018252       15.139897       -1.248284
  F           15.115618       15.350982       -0.737438
  F           13.599461       16.290546        0.496741
  O           14.259947       20.681846       -1.264008
  O           16.470322       20.184192       -0.251259
  O           14.451031       17.008645       -3.110149
  O           12.674543       18.071841       -1.747033
  N           15.157049       18.297419       -1.096956
  C           14.343365       19.635647        1.138291
  C           13.939933       15.993164       -0.764939
  S           20.709186       15.245671        6.805874
  S           22.641936       15.148852        4.737662
  F           19.086644       16.981943        5.592858
  F           19.441444       17.393689        7.694382
  F           20.972705       17.844548        6.226005
  F           23.122200       16.222079        2.374533
  F           21.306764       15.036173        2.422293
  F           21.338849       17.006149        3.329417
  O           21.717472       15.416027        7.818086
  O           19.533592       14.473778        7.109625
  O           23.312385       13.944750        4.321123
  O           23.414281       16.195789        5.353994
  N           21.234929       14.822490        5.382299
  C           20.020890       16.966294        6.556811
  C           22.057176       15.892679        3.128457
  S           22.761787        9.805353       12.454776
  S           20.901654       11.151369       14.113253
  F           24.589657       11.748941       12.447953
  F           24.205030       10.863890       10.503585
  F           22.777791       12.250060       11.367116
  F           20.612316       13.460526       15.358616
  F           22.298307       12.303798       16.082411
  F           22.430605       13.339615       14.181283
  O           21.740999        9.440760       11.508575
  O           23.843731        8.890985       12.706633
  O           20.129783       10.505497       15.142784
  O           20.216213       11.697827       12.971319
  N           22.246172       10.366638       13.833600
  C           23.625700       11.257197       11.653446
  C           21.612666       12.642717       14.982221
  S            2.893461       17.022399        3.687172
  S            0.662836       15.584937        2.697013
  F            2.609111       19.128275        2.073753
  F            4.647301       18.406902        2.266681
  F            3.221029       17.318389        1.048054
  F           -1.223154       15.801281        0.863141
  F           -1.326934       17.345202        2.383010
  F            0.193226       17.444508        0.839001
  O            3.743652       15.863760        3.616718
  O            3.077611       17.963469        4.759822
  O           -0.238936       14.830209        3.527714
  O            1.485217       14.881631        1.747536
  N            1.351232       16.749476        3.516583
  C            3.360735       18.020701        2.176750
  C           -0.484317       16.612661        1.642221
  S           -3.145395       16.581783        4.042104
  S           -1.230680       16.609575        6.129087
  F           -5.281925       16.849406        5.617637
  F           -5.491918       15.355322        4.057048
  F           -4.288681       14.931538        5.811127
  F           -1.119595       16.757873        8.762054
  F           -1.965025       18.530012        7.840512
  F           -3.145604       16.716331        7.987153
  O           -2.541755       15.429936        3.426391
  O           -3.726315       17.599734        3.207592
  O            0.040952       17.279217        6.043056
  O           -1.253885       15.173386        6.225411
  N           -2.292803       17.280186        5.167882
  C           -4.630155       15.888954        4.943104
  C           -1.912802       17.193194        7.765809
  S           22.869351       -0.102965       10.243305
  S           22.914455       -1.121472        7.600766
  F           25.018224        1.456413        9.979915
  F           24.955098        0.308992       11.821452
  F           25.469387       -0.664412        9.952721
  F           24.354601       -0.944969        5.395846
  F           23.445851        0.936827        5.976777
  F           25.174928        0.190263        7.052717
  O           22.695713       -1.415279       10.807144
  O           22.223357        1.020328       10.868612
  O           21.734789       -1.344368        6.806050
  O           23.702238       -2.255769        8.007246
  N           22.665886        0.003303        8.684663
  C           24.683812        0.266318       10.503471
  C           24.034165       -0.170604        6.448871
  S          -14.656599       14.509678        8.110173
  S          -15.245638       16.828366        9.626457
  F          -16.658895       13.030380        9.069954
  F          -14.752702       11.999346        8.946592
  F          -15.104767       13.445655       10.524061
  F          -16.960323       17.662696       11.451450
  F          -17.900509       17.151157        9.564961
  F          -17.231548       15.581057       10.903612
  O          -13.259527       14.573996        8.448237
  O          -15.041510       14.048137        6.802914
  O          -15.147841       18.169799        9.112781
  O          -14.349245       16.419899       10.676262
  N          -15.504083       15.790544        8.461180
  C          -15.334824       13.178592        9.234695
  C          -16.933950       16.795938       10.422266
  S           -5.964845       -6.818631       10.781243
  S           -4.860887       -5.525456       13.046497
  F           -8.272589       -5.479629       10.790422
  F           -8.470274       -7.617981       10.473891
  F           -8.050198       -6.848257       12.457631
  F           -5.503544       -3.694865       14.836128
  F           -5.421186       -2.920204       12.811879
  F           -7.105550       -4.133683       13.440447
  O           -5.605321       -8.120270       11.277942
  O           -5.911649       -6.568787        9.365315
  O           -3.478166       -5.139538       13.156133
  O           -5.369240       -6.544311       13.927387
  N           -5.313153       -5.596777       11.532526
  C           -7.791038       -6.677825       11.157439
  C           -5.778698       -3.979842       13.549946
  S           -3.474083       -3.497486       -1.067254
  S           -4.399117       -2.027704       -3.304765
  F           -1.158025       -4.245316       -2.160559
  F           -2.211872       -5.824657       -1.108462
  F           -2.892991       -5.180811       -3.064403
  F           -3.650261       -1.404844       -5.757948
  F           -2.320338       -0.623111       -4.233264
  F           -2.262997       -2.730130       -4.745019
  O           -4.733580       -4.177628       -0.921283
  O           -2.721641       -3.154137        0.110050
  O           -5.103106       -0.775584       -3.207480
  O           -5.094213       -3.176428       -3.824123
  N           -3.474864       -2.260119       -2.042435
  C           -2.374494       -4.754220       -1.908594
  C           -3.074394       -1.677479       -4.572524
  S           22.585791       -2.666214        2.630380
  S           25.047114       -4.006191        3.041177
  F           21.030537       -4.774001        3.137440
  F           20.446685       -3.619080        1.394713
  F           22.160053       -4.945149        1.294319
  F           25.959317       -6.409207        3.641381
  F           24.753839       -5.533660        5.217676
  F           23.800358       -6.333490        3.441203
  O           23.043872       -2.082406        1.397674
  O           21.708317       -1.908163        3.482143
  O           26.181836       -3.416151        3.702334
  O           25.150508       -4.332064        1.642759
  N           23.697096       -3.337465        3.522837
  C           21.503287       -4.089495        2.083767
  C           24.869105       -5.659906        3.888704
  S           -2.494192       16.164049       15.697265
  S           -3.700240       16.139757       13.134599
  F           -4.588430       15.149950       17.002813
  F           -3.642597       16.838492       17.985690
  F           -4.913499       17.160313       16.257857
  F           -5.995165       15.512007       11.991751
  F           -5.000457       13.813397       12.902655
  F           -6.013488       15.272101       14.147910
  O           -2.027565       17.514516       15.527761
  O           -1.681085       15.227151       16.426087
  O           -3.006392       15.784549       11.924114
  O           -4.167058       17.491980       13.295944
  N           -3.030559       15.458063       14.394978
  C           -4.002480       16.338655       16.788551
  C           -5.261188       15.119499       13.049296
  S           13.222633       13.830500        5.215400
  S           13.590928       16.637671        5.296348
  F           11.752125       13.676077        7.436312
  F           13.296564       12.160053        7.268383
  F           13.826315       14.195895        7.796468
  F           12.970643       18.710153        6.808603
  F           11.236522       17.717784        5.964511
  F           12.299191       16.816248        7.626642
  O           14.620729       13.596768        4.968560
  O           12.248041       12.969547        4.599745
  O           13.562364       17.485000        4.132695
  O           14.826195       16.496247        6.022003
  N           12.742366       15.323289        5.063800
  C           13.014238       13.455621        7.035391
  C           12.451410       17.510083        6.490148
  S           12.226848       -5.418190       16.091527
  S            9.469430       -6.064848       16.121246
  F           13.103061       -7.906157       16.492727
  F           14.103083       -6.393017       17.685280
  F           12.102689       -7.044376       18.212837
  F            7.891899       -8.155906       16.446392
  F            9.177530       -8.316689       14.706919
  F            9.997020       -8.619525       16.692224
  O           12.034866       -4.309094       16.987787
  O           13.216668       -5.317084       15.052231
  O            8.497001       -5.475245       15.238286
  O            9.379159       -5.795499       17.532543
  N           10.913871       -6.035495       15.477456
  C           12.912090       -6.771666       17.184629
  C            9.125861       -7.894064       15.977394
  S           26.104327       10.242550       16.027743
  S           26.506833       12.990298       16.584761
  F           28.256849        9.951907       14.478270
  F           26.453289        9.026792       13.701639
  F           26.702915       11.178573       13.593527
  F           28.175475       14.945893       15.986319
  F           29.117846       13.317836       17.066057
  F           28.628285       13.085682       14.965784
  O           24.715114       10.450541       15.716197
  O           26.502009        9.023620       16.680553
  O           26.272670       13.591199       17.871990
  O           25.675831       13.379366       15.475473
  N           26.835687       11.449780       16.727575
  C           26.928649       10.103558       14.355169
  C           28.207801       13.607781       16.126302
  S           17.122442      -10.814944        9.617391
  S           14.974264      -12.084273        8.277042
  F           18.793008      -12.892008        9.500334
  F           18.724366      -11.895559       11.427559
  F           17.103269      -13.203580       10.823169
  F           14.364186      -14.416415        7.201978
  F           16.021798      -13.426456        6.213663
  F           16.322126      -14.385167        8.136002
  O           16.259702      -10.331358       10.662407
  O           18.225639       -9.998967        9.184677
  O           14.125000      -11.426296        7.318560
  O           14.403393      -12.525513        9.522783
  N           16.395976      -11.394470        8.345208
  C           17.976136      -12.292815       10.381217
  C           15.460174      -13.662792        7.407025
  S           16.334673        7.467431       15.943884
  S           17.612118        5.188662       17.038302
  F           13.907921        6.372348       15.769641
  F           14.519316        7.497101       14.016658
  F           15.348782        5.527536       14.386745
  F           17.055429        2.704018       17.733637
  F           15.964795        4.180355       18.889237
  F           15.372052        3.747591       16.848139
  O           17.377813        7.655655       14.970918
  O           15.691291        8.620855       16.514650
  O           18.612653        5.248083       18.071873
  O           17.991925        4.722225       15.730388
  N           16.655090        6.446442       17.100158
  C           14.952924        6.659460       14.977301
  C           16.425155        3.891103       17.664577
  S            5.654385       14.790369       15.133326
  S            7.201234       15.747346       12.962185
  F            6.471514       12.256088       14.964762
  F            4.333775       12.498587       15.253011
  F            5.217707       12.881498       13.309764
  F            8.891164       14.854413       11.141840
  F            9.621926       14.628069       13.171426
  F            8.091604       13.290045       12.414777
  O            4.470046       15.453561       14.656095
  O            5.879341       14.690178       16.550880
  O            7.874819       17.019788       12.955622
  O            6.116707       15.531183       12.040484
  N            7.002788       15.216471       14.438846
  C            5.411405       13.007036       14.626364
  C            8.526591       14.557657       12.402874
  S          -12.134041       10.066468       16.969391
  S          -12.778284       12.727279       16.243142
  F           -9.533302       10.506782       17.370605
  F           -9.981674        8.701916       16.251122
  F          -10.131185       10.640741       15.290513
  F          -11.600915       15.063671       15.893966
  F          -11.474282       14.338542       17.934215
  F          -10.217564       13.469195       16.394861
  O          -12.857027        9.525130       15.849357
  O          -12.127747        9.345968       18.214760
  O          -13.983231       13.401469       16.651113
  O          -12.584054       12.436970       14.846555
  N          -12.385549       11.591988       17.272030
  C          -10.343737        9.985365       16.435946
  C          -11.437898       13.961566       16.648931
