         874
  Built with Packmol                                             
  Ti          -2.868335        2.115442       11.265214
  Ti           7.802788        5.383210        1.844391
  Ti           1.352572       -1.673500        9.417113
  Ti           2.511792        7.542652        3.648414
  Ti           1.444672        9.187418        1.751989
  Ti           3.259458       -1.864257       11.359530
  Ti          -1.869782        0.416024        9.366140
  Ti           5.815984        5.614284        3.703281
  H            3.746896        1.652626        8.583439
  H           -7.024875       10.142785        6.478257
  H            4.431630       11.010612        4.650438
  H           -2.503694        6.028051       11.048460
  H            8.748737        1.507342        2.155250
  H           -6.801542        1.221893       10.903644
  H           11.114246        7.503838        2.029089
  H            4.372721       -5.862020       10.962653
  H           -2.589143        8.456181        2.095703
  H            4.656966        3.204147        6.826953
  H           -0.045224        3.670268        8.406030
  H           12.440918       -1.828167        6.378540
  H           -2.327232        0.331938       12.984230
  H            5.927385        5.077403        0.154584
  H            3.761426       -2.506617        5.844726
  H            0.745560        9.314262        7.279431
  H           -6.059913        3.661213        9.037490
  H           10.641247        3.393379        4.132134
  H           -3.728587        2.298708        5.688870
  H           -1.703972       10.903386        4.124923
  H            1.733452       12.300945        2.609537
  H            8.667985       -0.517063        3.355831
  H            4.606680        7.297451        2.297825
  H            0.215487        0.134620       10.719246
  H            7.415332        0.218685        9.728366
  H            5.955496       -0.302534       10.483299
  H            7.828656        4.670987        8.632537
  H            7.237651        5.011538        7.017709
  H            7.098177       -4.749977        9.534320
  H            5.784030       -3.695029       10.000157
  H            1.411485        1.911548        9.356085
  H            0.863759        5.227040        6.648574
  H            5.741023        9.069333        3.845371
  H            7.999135        8.609993        4.744623
  C            8.422325        4.659191        4.703706
  C           -3.853328        2.346718        8.423899
  C            3.961595       -2.592630        8.476524
  C            0.513540        9.443357        4.621320
  C            9.344336        4.085192        5.693105
  C           -4.811926        2.940026        7.452907
  C            4.917315       -3.172748        7.523270
  C           -0.392661       10.057561        5.626884
  C            9.101042        4.149763        7.100999
  C           -4.599256        2.829342        6.063538
  C            6.075072       -3.893771        7.969088
  C           -1.516055       10.792469        5.189090
  C           -0.124811        9.894234        6.980095
  C            4.657405       -3.047644        6.140915
  C           10.498947        3.426687        5.210054
  C           -5.932679        3.593124        7.958691
  C            2.813684        4.307411        6.639567
  C            1.802100        2.580168        8.590925
  C            6.161473        9.726276        4.605129
  C           -1.730084       -2.944720        6.528234
  C            8.715175        1.588330        0.011262
  C            1.839040       13.147429        0.088587
  C            6.684170        0.195343       12.990012
  C           -6.719779        1.271810       13.046845
  C            3.350517        5.224492        5.605606
  C           -1.145018       -2.033515        7.540248
  C            4.215985       -4.201651       13.101266
  C            1.796086       11.711651        0.049701
  C            5.408882       -0.466276       13.043122
  C           -5.332575        1.734605       13.064020
  C            1.482906        4.442604        7.078738
  C            3.125222        2.436827        8.154613
  C            5.424120       10.827594        5.058747
  C           -8.018869       10.319594        6.073436
  C            8.784652        0.919515        1.239780
  C           -2.508142        6.615249       11.963065
  C           -4.360552        7.730507        1.110303
  C           -7.351366        1.022025       11.821932
  C            7.441371        9.469644        5.112723
  C           12.991193       -2.694552        6.017481
  C            3.632637        3.298056        7.181208
  C            0.980621        3.578705        8.052889
  C            7.361766        0.489528       11.753548
  C           -3.089201        8.254946        1.152479
  C            4.438003       -6.388560       11.910676
  C            8.855538       -0.479663        1.318796
  N            8.938305       -1.077634        2.555968
  N            6.782516        0.288157       10.517426
  N            8.001283        4.757340        7.639127
  N            6.418775       -4.042078        9.284423
  O            7.234665        5.022637        5.076604
  O           -3.053924        1.423703        8.020113
  O            4.345224       -2.456407        9.695708
  O            0.426054        9.871897        3.422680
  O            1.318961        8.513079        5.002228
  O            2.776776       -2.264724        8.078087
  O            8.824398        4.755701        3.489805
  O           -3.903766        2.779752        9.624467
  O            6.156697        4.409127        2.505218
  O           -1.367975        1.993658       10.109628
  O            7.017801        6.727170        2.953185
  O           -3.056279        0.208461       10.609657
  O            1.659621       -2.837312       10.674383
  O            2.969458        9.121937        2.909279
  O            2.531624       -0.543378       10.208048
  O            1.322575        7.306972        2.398893
  O            4.575167        5.087631        5.244337
  O           -1.836144       -1.022528        7.923516
  O            4.066391       -3.610049       11.962095
  O            1.743514       11.006429        1.144350
  O            4.771026       -0.795498       11.956418
  O           -0.427504        9.094025        1.094098
  O            0.028867       -2.288059        7.991258
  O            2.574295        6.119616        5.117796
  O            9.199419        6.452785        1.083295
  O           -4.748114        1.988975       11.944029
  O            8.500254        3.672420        1.113292
  O           -2.542975        3.849240       12.015231
  O            4.269171        6.735574        3.019668
  O           -0.147093       -0.436062       10.017030
  O            6.748057        5.600086        0.071530
  O           -2.238358        1.302347       13.044892
  S           12.837379      -11.564922        5.671678
  S           15.212386      -10.420198        4.636619
  F           11.413846       -9.308324        5.669339
  F           11.215947      -10.499253        7.473318
  F           13.011976       -9.331408        7.134820
  F           16.155073       -8.075589        3.874384
  F           14.488591       -8.760906        2.667054
  F           14.134505       -7.977158        4.658303
  O           13.554080      -12.249733        6.714563
  O           11.692872      -12.199445        5.073693
  O           16.062799      -11.069351        3.673152
  O           15.722151      -10.178352        5.961046
  N           13.724347      -10.944975        4.526685
  C           12.086317      -10.085160        6.533384
  C           14.971624       -8.715041        3.916039
  S          -11.045018       -6.247684       -0.083934
  S          -11.480766       -3.625485        0.894123
  F          -13.603517       -7.001452       -0.016073
  F          -12.208020       -8.470919        0.761793
  F          -12.721254       -6.727661        1.945773
  F          -13.454807       -2.090254        1.738563
  F          -13.659526       -2.681665       -0.338162
  F          -14.084445       -4.106039        1.241494
  O           -9.952504       -6.467111        0.826286
  O          -10.987681       -6.824568       -1.400755
  O          -10.792175       -2.460545        0.402567
  O          -11.248679       -4.048339        2.250510
  N          -11.541617       -4.757750       -0.208605
  C          -12.479513       -7.153643        0.702063
  C          -13.273300       -3.104771        0.873118
  S           26.607983        7.382688        8.781555
  S           24.494530        6.729188        7.012755
  F           27.693326        4.945907        8.834648
  F           27.523808        5.901698       10.776181
  F           25.765638        5.065185        9.820539
  F           23.525608        4.647981        5.710213
  F           25.532009        5.188023        5.087979
  F           25.221329        4.159970        6.972467
  O           25.717517        8.059654        9.686552
  O           27.941402        7.891018        8.597987
  O           24.030223        7.596508        5.961544
  O           23.611329        6.434841        8.110832
  N           26.006397        7.026926        7.369612
  C           26.905826        5.724756        9.593269
  C           24.718875        5.089865        6.148435
  S            9.480915       10.866108       14.852770
  S            9.464800        8.207568       15.829656
  F           11.505455       10.526723       13.148438
  F           11.609088       12.349479       14.322594
  F           12.095332       10.442083       15.233402
  F           10.780540        5.939620       15.526191
  F            9.777647        6.595115       13.718154
  F           11.603187        7.574361       14.360952
  O            9.423021       11.415302       16.181404
  O            8.792684       11.540516       13.784306
  O            8.265243        7.466501       16.120778
  O           10.345462        8.556654       16.913645
  N            9.194929        9.320999       14.739162
  C           11.277212       11.045442       14.365444
  C           10.460934        7.019723       14.789703
  S           14.520386        0.911504       17.654930
  S           15.525808        3.510642       17.148954
  F           16.322323        0.270639       19.515308
  F           15.937982       -1.288717       18.054996
  F           17.148587        0.428491       17.516668
  F           17.488894        5.098566       17.918133
  F           16.115950        4.597858       19.520875
  F           17.561861        3.133691       18.835114
  O           14.437041        0.608394       16.250860
  O           13.522220        0.384131       18.546920
  O           14.693517        4.661864       16.914754
  O           16.357052        3.025570       16.078348
  N           14.765898        2.425834       18.013516
  C           16.077207        0.040690       18.215574
  C           16.735906        4.111281       18.437230
  S          -14.433640       10.865552       17.336487
  S          -16.664801       10.603686       15.611452
  F          -15.366340       12.970830       18.684287
  F          -13.279129       13.120263       18.107190
  F          -14.838259       13.414016       16.628343
  F          -18.973973       11.779145       15.108591
  F          -18.856076       10.945325       17.107418
  F          -17.810387       12.786662       16.637606
  O          -13.503851       10.757216       16.243789
  O          -14.086586       10.297215       18.611889
  O          -17.227469        9.339789       15.212906
  O          -16.041960       11.432252       14.612450
  N          -15.925498       10.483173       17.004523
  C          -14.491915       12.698243       17.702786
  C          -18.156329       11.583378       16.159456
  S            9.197381       12.706121        9.873417
  S            6.787863       11.220757        9.771832
  F            8.043211       15.093807       10.165883
  F            9.668848       15.046386        8.728221
  F            7.736370       14.208994        8.210086
  F            4.177383       11.605665        9.835776
  F            5.176290       12.211729       11.663161
  F            5.320570       13.448860        9.887379
  O            9.730116       12.029277        8.720893
  O           10.088604       13.090059       10.935686
  O            6.608670        9.937634       10.399809
  O            6.750041       11.301821        8.335011
  N            7.906616       12.062742       10.507488
  C            8.617645       14.353255        9.204699
  C            5.288515       12.183631       10.328243
  S           16.109366        5.099245        4.441663
  S           15.139066        4.563798        1.835091
  F           18.501946        5.994851        3.672157
  F           18.548755        4.625461        5.355725
  F           18.219904        3.869131        3.349737
  F           15.938167        4.681147       -0.677779
  F           15.869250        6.621378        0.289286
  F           17.479702        5.240897        0.742523
  O           15.672476        3.818018        4.929329
  O           16.045855        6.241051        5.314788
  O           13.787908        4.825063        1.412027
  O           15.594404        3.199696        1.901042
  N           15.556212        5.516513        3.026755
  C           17.947811        4.881877        4.178606
  C           16.168613        5.329179        0.478998
  S           20.511595        5.273109       13.289496
  S           21.908757        7.554999       14.218645
  F           22.666521        3.730125       12.982595
  F           21.252272        3.643956       11.338121
  F           22.553249        5.364814       11.562332
  F           24.379431        8.349412       14.699817
  F           23.755077        6.691507       15.951215
  F           24.265072        6.347594       13.871229
  O           19.744911        6.052706       12.354264
  O           19.891869        4.149371       13.940077
  O           21.433191        8.413853       15.271771
  O           22.013506        8.085290       12.884375
  N           21.317846        6.095136       14.364803
  C           21.828275        4.465884       12.235421
  C           23.673482        7.203739       14.715760
  S           -1.616701       17.251116        2.377455
  S            0.537101       17.815981        0.626894
  F           -0.123588       16.929944        4.565182
  F           -1.666394       15.426927        4.295909
  F            0.136455       15.360151        3.091982
  F            3.169622       18.003943        0.663641
  F            2.189765       19.470156        1.926402
  F            2.323099       17.402658        2.568573
  O           -2.191617       16.306147        1.457270
  O           -2.487902       18.065421        3.182451
  O            0.486080       18.808912       -0.414429
  O            0.655706       16.429316        0.258720
  N           -0.472399       18.163332        1.793939
  C           -0.758637       16.181893        3.648995
  C            2.138584       18.198805        1.506359
  S           -8.503112      -13.560292       15.993078
  S          -10.665750      -13.478178       14.165879
  F           -9.917248      -12.831087       18.134846
  F           -7.999980      -11.832964       17.935704
  F           -9.664748      -11.248120       16.674486
  F          -13.241325      -12.903212       14.114145
  F          -12.767606      -14.592781       15.389062
  F          -12.325270      -12.575919       16.053381
  O           -7.649639      -12.817108       15.104543
  O           -7.930568      -14.592768       16.815446
  O          -10.864968      -14.440791       13.113948
  O          -10.369026      -12.114634       13.812100
  N           -9.839662      -14.104117       15.360666
  C           -9.062773      -12.293806       17.249708
  C          -12.339555      -13.388246       14.987493
  S           28.588332       15.114122        7.769716
  S           28.141682       17.888323        8.125682
  F           26.176919       14.567862        6.767030
  F           26.875837       13.154995        8.259390
  F           26.148144       15.105573        8.867561
  F           26.232491       19.681603        7.800130
  F           26.869772       18.763729        5.941140
  F           25.606791       17.661133        7.317318
  O           29.134582       14.974112        9.093439
  O           29.130789       14.320263        6.699374
  O           29.130504       18.901017        7.861953
  O           27.700086       17.685409        9.480774
  N           28.408480       16.593196        7.257809
  C           26.844002       14.459209        7.926971
  C           26.628329       18.524993        7.237326
  S           22.806545       -4.684304       10.412133
  S           22.617862       -4.716440        7.586223
  F           20.558912       -3.308113       10.827986
  F           22.252536       -2.652495       12.016946
  F           22.140702       -2.141380        9.912090
  F           21.052707       -3.819692        5.659313
  F           20.064152       -5.230383        6.977333
  F           20.423032       -3.196372        7.639690
  O           24.187626       -4.282719       10.372395
  O           22.364749       -5.575537       11.451663
  O           22.960577       -5.853025        6.771611
  O           23.411681       -3.520336        7.478328
  N           22.195754       -5.166960        9.042450
  C           21.885650       -3.104607       10.803076
  C           20.939312       -4.216423        6.940301
  S          -15.252461       10.652587        9.877636
  S          -14.317173       10.930964        7.218662
  F          -17.481009        9.324755        9.253834
  F          -17.751126       10.906106       10.716088
  F          -17.493219       11.398342        8.619578
  F          -15.043943       10.334060        4.752418
  F          -14.722544        8.586344        5.996064
  F          -16.518728        9.776935        6.242898
  O          -15.008599       12.040278       10.169319
  O          -15.046392        9.671977       10.910129
  O          -12.934931       10.803904        6.836387
  O          -14.960154       12.211803        7.082707
  N          -14.619480       10.114370        8.539087
  C          -17.097882       10.567046        9.588789
  C          -15.203409        9.837003        5.992857
  S           25.368308       11.793253        1.818802
  S           27.095014       10.293259        3.489401
  F           23.388977       10.004505        1.782475
  F           23.865209       10.864126       -0.153003
  F           25.165841        9.362816        0.717968
  F           27.182546        7.962673        4.725346
  F           25.588193        9.249185        5.437661
  F           25.392939        8.236062        3.529738
  O           26.425515       12.078021        0.885285
  O           24.361436       12.791291        2.064226
  O           27.905518       10.869719        4.530385
  O           27.746216        9.698092        2.351786
  N           25.821700       11.185787        3.199916
  C           24.398212       10.419937        1.000728
  C           26.255978        8.860666        4.342898
  S          -18.828905        7.554668        4.159410
  S          -17.659338        6.895380        1.665446
  F          -19.481464       10.058956        3.510257
  F          -18.582151        9.839919        5.473693
  F          -17.345658        9.732775        3.694994
  F          -17.130790        8.005206       -0.670313
  F          -19.253037        7.895634       -0.236114
  F          -18.019200        9.379476        0.754123
  O          -17.716261        7.008574        4.890190
  O          -20.154913        7.429584        4.703615
  O          -17.815943        5.619190        1.017616
  O          -16.352668        7.282943        2.128981
  N          -18.879123        7.199442        2.625347
  C          -18.537289        9.401151        4.201701
  C          -18.048488        8.116092        0.307807
  S            8.537919       -9.091316       15.868793
  S            8.780651       -7.003652       13.970072
  F            7.907791       -7.522042       17.932530
  F            9.375002       -9.057757       18.380518
  F            9.955796       -7.295983       17.256689
  F            8.608449       -4.373429       13.831793
  F            6.739839       -5.324909       14.386273
  F            8.339911       -5.149046       15.840080
  O            9.781144       -9.687360       15.457267
  O            7.454432       -9.943054       16.281954
  O            8.323373       -7.099842       12.608266
  O           10.193065       -6.883504       14.221286
  N            7.965564       -7.976656       14.913806
  C            8.970716       -8.180042       17.443148
  C            8.068986       -5.377359       14.547536
  S            1.249234       20.475421       12.383089
  S            2.580722       19.132225       10.274685
  F            3.407333       21.731661       13.322854
  F            2.144771       20.841482       14.847761
  F            3.437767       19.586780       13.640265
  F            5.006425       18.861594        9.269911
  F            4.256193       20.893620        9.158173
  F            4.946387       20.095614       11.053306
  O            0.576994       19.273738       12.800566
  O            0.562627       21.735541       12.486873
  O            2.021681       18.947525        8.960824
  O            2.809514       17.975580       11.100690
  N            1.964474       20.406202       10.981056
  C            2.646589       20.663768       13.611198
  C            4.290390       19.794665        9.924018
  S           18.649243       19.620754        0.872378
  S           20.491067       17.471034        0.778620
  F           17.828537       19.397845       -1.656543
  F           18.226469       21.432070       -1.012030
  F           19.873026       20.093216       -1.459786
  F           21.425553       15.689202       -0.929788
  F           19.300806       15.476920       -0.549198
  F           20.019392       17.080642       -1.820583
  O           19.608596       20.490320        1.499859
  O           17.261104       19.730045        1.234632
  O           20.687484       16.534640        1.854472
  O           21.569342       18.356102        0.423045
  N           19.038339       18.094820        0.825635
  C           18.652590       20.158428       -0.918494
  C           20.285099       16.370772       -0.715288
  S           -6.228377       14.024226       -4.514675
  S           -8.075143       11.928011       -4.981299
  F           -8.039632       15.981721       -4.435536
  F           -6.263667       16.440787       -5.596150
  F           -7.776684       15.114103       -6.405380
  F          -10.665108       11.564149       -5.337014
  F          -10.174290       12.362530       -3.380959
  F          -10.110365       13.650805       -5.124797
  O           -5.354041       13.563625       -5.560437
  O           -5.657956       14.605630       -3.328635
  O           -7.980726       10.625258       -4.375665
  O           -7.910440       12.044541       -6.406694
  N           -7.367646       13.023784       -4.086611
  C           -7.137602       15.465102       -5.285074
  C           -9.852598       12.412846       -4.680717
  S            2.774907       16.681289       16.357814
  S            2.209447       19.366476       17.059545
  F            3.677706       15.947723       18.758964
  F            4.884779       15.259624       17.091236
  F            4.983572       17.332870       17.720566
  F            2.392021       20.990374       19.132338
  F            1.051754       19.318955       19.470729
  F            3.198649       19.012966       19.514591
  O            3.455277       17.079120       15.154044
  O            2.004206       15.466332       16.359195
  O            1.050873       20.088761       16.602510
  O            3.512421       19.797825       16.625205
  N            1.938926       17.808163       17.074296
  C            4.158617       16.294329       17.554449
  C            2.209996       19.677294       18.900239
  S           23.347354       -0.765456        0.071071
  S           25.701485        0.521527       -0.836750
  F           24.507893       -3.096713        0.651660
  F           22.620416       -3.266199       -0.406889
  F           24.413711       -2.673032       -1.472914
  F           28.263704        0.009350       -1.210323
  F           27.657680       -0.130290        0.867584
  F           27.133629       -1.710339       -0.522930
  O           22.595726       -0.323064       -1.073297
  O           22.690889       -0.859533        1.347906
  O           26.022493        1.897234       -0.558805
  O           25.439872        0.130925       -2.197428
  N           24.749207       -0.076262        0.275703
  C           23.755884       -2.548606       -0.315981
  C           27.271723       -0.383871       -0.390241
  S           17.804618      -10.291989       -4.584846
  S           17.275108      -11.565928       -2.111165
  F           20.038239       -9.064275       -3.795957
  F           18.678923       -7.818288       -4.941206
  F           18.239274       -8.285082       -2.869256
  F           18.273251      -11.730499        0.326760
  F           19.607940      -12.504103       -1.197906
  F           19.361523      -10.362485       -0.958195
  O           16.445835       -9.834314       -4.705167
  O           18.523296      -10.675535       -5.770804
  O           16.775272      -12.910817       -1.991543
  O           16.441098      -10.474445       -1.680410
  N           18.065484      -11.371427       -3.467341
  C           18.742226       -8.782259       -4.003526
  C           18.719099      -11.538325       -0.928418
  S           -9.111879       15.074946       10.950449
  S          -10.274754       14.174751        8.529753
  F          -10.492276       17.353625       11.094734
  F           -8.375517       17.550550       11.533338
  F           -9.041934       17.311517        9.483236
  F          -12.029953       14.959730        6.721458
  F          -12.898334       14.672788        8.688193
  F          -11.688358       16.426754        8.282888
  O           -7.781528       14.783257       10.486427
  O           -9.427744       14.882790       12.340920
  O          -10.628835       12.803531        8.270422
  O           -9.224933       14.779632        7.752289
  N          -10.284085       14.480868       10.081508
  C           -9.269096       16.926585       10.742973
  C          -11.811729       15.114437        8.040408
  S           14.584582       -9.611703       17.862838
  S           12.720141      -11.732490       18.083119
  F           16.731712      -11.159293       17.525964
  F           17.011775       -9.516190       18.916503
  F           15.881322      -11.266808       19.517814
  F           12.658100      -14.371239       18.082570
  F           13.355020      -13.531716       16.208012
  F           14.664020      -13.557543       17.937336
  O           14.050292       -8.945697       19.020942
  O           15.073067       -8.823029       16.763075
  O           11.402684      -11.706719       17.503021
  O           12.847110      -11.750196       19.517003
  N           13.710235      -10.789480       17.288020
  C           16.134554      -10.445860       18.493787
  C           13.395888      -13.385484       17.539303
  S           12.607352       -4.843920       14.109734
  S           15.171916       -4.341394       15.201926
  F           12.577339       -7.455779       14.653778
  F           11.880748       -6.939590       12.663770
  F           14.001631       -6.900189       13.115954
  F           17.160501       -5.636056       16.357879
  F           15.320959       -5.693105       17.505614
  F           15.534717       -6.932070       15.738134
  O           12.913449       -4.114573       12.907823
  O           11.270409       -4.794398       14.639104
  O           15.504816       -3.163751       15.960348
  O           15.801737       -4.544854       13.923495
  N           13.625902       -4.661398       15.297715
  C           12.788249       -6.636939       13.611048
  C           15.821518       -5.732862       16.263338
  S           25.222412       -1.750366       16.240587
  S           23.989099       -3.531232       18.065378
  F           27.605519       -2.950148       16.244516
  F           27.683935       -0.785276       16.382360
  F           27.121064       -1.963841       18.113926
  F           24.574740       -5.656060       19.517610
  F           24.751143       -6.003311       17.383890
  F           26.274535       -4.864353       18.426369
  O           24.724463       -0.596723       16.941578
  O           25.329743       -1.707554       14.806450
  O           22.632786       -3.997583       17.939673
  O           24.333563       -2.690829       19.182304
  N           24.585475       -3.130015       16.656442
  C           27.006770       -1.876989       16.784977
  C           24.957439       -5.101090       18.352821
  S           -5.984848       11.456919       17.869150
  S           -8.121435       13.315730       17.916274
  F           -7.507865        9.285875       17.576443
  F           -5.919261        9.083924       19.041836
  F           -7.697443       10.230397       19.519154
  F          -10.758396       13.360215       17.809949
  F           -9.842707       12.579468       16.005396
  F           -9.930154       11.355057       17.793657
  O           -5.367312       12.050711       19.025132
  O           -5.151345       10.921308       16.825840
  O           -8.079160       14.603888       17.274610
  O           -8.194768       13.257791       19.352840
  N           -7.143294       12.294782       17.207300
  C           -6.835773        9.933619       18.541320
  C           -9.748613       12.603677       17.341790
  S           24.870622       13.548367       17.084281
  S           24.011375       16.246387       17.015110
  F           23.920801       13.013539       19.519542
  F           25.926757       12.271320       19.149307
  F           25.601605       14.383608       19.519007
  F           22.774834       18.008757       18.542155
  F           21.534844       16.306032       18.024838
  F           23.093826       16.097740       19.518458
  O           26.187235       13.896014       16.619628
  O           24.284284       12.303563       16.663838
  O           23.467186       16.885890       15.845596
  O           25.273857       16.704980       17.533077
  N           23.783013       14.682037       16.966146
  C           25.089429       13.301350       18.924780
  C           22.780506       16.676610       18.351010
  S          -17.306333       16.833721        4.978365
  S          -16.785567       14.103390        4.433849
  F          -19.940732       16.558555        5.299172
  F          -19.350810       18.266336        4.096136
  F          -19.274548       16.268156        3.256122
  F          -18.078124       11.816859        4.173236
  F          -18.239550       12.668815        6.161345
  F          -19.387667       13.510486        4.524847
  O          -16.513131       17.267297        3.858956
  O          -17.318468       17.626921        6.178693
  O          -15.636215       13.391158        4.928403
  O          -16.911306       14.319414        3.016111
  N          -17.152020       15.317801        5.378653
  C          -19.068269       16.978698        4.369357
  C          -18.207076       12.969426        4.855984
  S          -15.961709       17.779986       15.914575
  S          -15.821879       19.679079       13.817841
  F          -17.036314       15.824790       14.451317
  F          -17.947213       16.097674       16.402629
  F          -18.376911       17.493353       14.799007
  F          -16.444295       19.912278       11.263420
  F          -14.953204       18.383872       11.644327
  F          -17.035460       18.010051       12.123052
  O          -16.543167       18.736270       16.818821
  O          -15.050193       16.792590       16.428669
  O          -14.718020       20.583253       13.625915
  O          -17.109780       20.219879       14.166126
  N          -15.361759       18.374455       14.584642
  C          -17.414722       16.747125       15.350413
  C          -16.073637       18.943371       12.120751
  S           26.470746       -7.035144        4.643096
  S           27.261499       -8.622676        2.434737
  F           28.118391       -5.000192        4.130328
  F           28.048843       -5.603004        6.214460
  F           29.133570       -6.805734        4.771903
  F           28.963889       -8.567725        0.418379
  F           27.484168       -6.984249        0.331813
  F           29.133170       -6.851399        1.734616
  O           26.568296       -8.147415        5.550603
  O           25.440338       -6.051844        4.846776
  O           26.348852       -9.398625        1.636082
  O           28.246321       -9.309957        3.228606
  N           26.525055       -7.396931        3.110707
  C           28.037496       -6.061358        4.948650
  C           28.261501       -7.692975        1.161782
  S           15.379507        4.001688       12.032075
  S           13.320196        2.274660       11.138199
  F           13.812914        6.124574       12.429352
  F           15.684043        6.559315       11.418561
  F           14.063755        5.602961       10.339571
  F           10.725155        2.310637       10.657250
  F           11.214242        2.672279       12.739189
  F           11.514071        4.237288       11.267606
  O           16.241339        3.632221       10.940757
  O           15.958227        4.281506       13.319277
  O           13.229718        0.882256       11.493015
  O           13.565115        2.626380        9.763875
  N           14.110032        3.091766       12.238306
  C           14.686213        5.661358       11.521031
  C           11.600990        2.916832       11.479821
  S           21.594943       -9.187253       -0.655589
  S           22.782793      -11.679845       -0.024404
  F           23.885617       -7.852475       -0.955369
  F           22.370191       -6.800391        0.188496
  F           23.474683       -8.433183        1.093069
  F           25.173243      -12.745802        0.316674
  F           24.843614      -12.011674       -1.697492
  F           25.230646      -10.614400       -0.084252
  O           20.673642       -9.282818        0.445458
  O           21.161873       -8.570371       -1.881155
  O           22.291686      -12.946714       -0.500563
  O           22.723192      -11.397896        1.386060
  N           22.379141      -10.507769       -1.006768
  C           22.912865       -8.010379       -0.043729
  C           24.609105      -11.758251       -0.402822
  S            4.477838      -11.235887       13.658887
  S            2.351573      -11.933538       11.922603
  F            3.778764      -12.885578       15.635881
  F            4.338129      -10.889631       16.280182
  F            2.406983      -11.230099       15.353401
  F            0.228406      -13.500513       11.862614
  F            2.094102      -14.594125       12.028912
  F            1.287307      -13.558113       13.755316
  O            4.257329       -9.828562       13.456291
  O            5.822433      -11.717349       13.833135
  O            2.494287      -12.081321       10.497590
  O            1.531050      -10.865528       12.431085
  N            3.724984      -12.195815       12.661989
  C            3.695824      -11.583063       15.321491
  C            1.450159      -13.488515       12.426847
  S           18.652809       -0.946335       15.419340
  S           20.405753       -0.274857       13.298325
  F           19.066204        1.274527       16.839046
  F           19.067470       -0.556310       18.005174
  F           20.780225       -0.052144       16.773731
  F           22.064624        1.650637       12.585959
  F           20.003904        2.309947       12.738307
  F           21.167484        1.965331       14.536092
  O           19.199129       -2.273066       15.526834
  O           17.247590       -0.745178       15.653860
  O           20.125843       -0.539637       11.911093
  O           21.500375       -0.964583       13.929624
  N           19.068766       -0.138444       14.132349
  C           19.445411       -0.013273       16.832671
  C           20.929063        1.517042       13.295775
  S           11.161672       11.444252        3.147717
  S           12.883619        9.983896        4.857881
  F           12.804359       11.463801        1.045364
  F           11.853193       13.369059        1.466195
  F           13.494367       12.677861        2.704322
  F           15.291385        8.902486        4.849979
  F           13.948679        8.011102        3.398414
  F           14.817592        9.961484        3.016689
  O           10.888822       12.424372        4.165141
  O           10.115465       11.073463        2.232257
  O           12.434152        8.963505        5.768733
  O           13.445401       11.195588        5.395154
  N           11.888805       10.135291        3.637569
  C           12.408196       12.281601        2.033557
  C           14.308724        9.168409        3.969726
  S          -16.530198       -1.614117       17.088544
  S          -16.066724       -4.329752       17.746512
  F          -14.150731       -0.718984       17.898214
  F          -15.833812        0.505661       18.514092
  F          -15.434533       -1.375013       19.517988
  F          -14.197316       -5.854461       18.817691
  F          -13.574453       -4.910413       16.966939
  F          -13.680756       -3.747437       18.794752
  O          -17.822090       -1.621779       17.721939
  O          -16.337042       -0.829006       15.898420
  O          -16.496848       -5.437454       16.933580
  O          -16.652319       -4.156790       19.050207
  N          -15.866868       -3.026699       16.872528
  C          -15.421149       -0.762527       18.329967
  C          -14.275113       -4.722758       18.093550
  S           23.987221       -3.189744       -5.167282
  S           22.502370       -5.455353       -4.339855
  F           25.914632       -4.555077       -6.408105
  F           26.622026       -2.928414       -5.156954
  F           25.937387       -4.776344       -4.251090
  F           22.611115       -8.090041       -4.455789
  F           22.448727       -7.154105       -6.405691
  F           24.337423       -7.117737       -5.339756
  O           23.918232       -2.595479       -3.858724
  O           23.946198       -2.339241       -6.327051
  O           21.064088       -5.519655       -4.348843
  O           23.191280       -5.496956       -3.076475
  N           23.032056       -4.418759       -5.410669
  C           25.709285       -3.913990       -5.246594
  C           23.007664       -7.036674       -5.193590
  S           -9.662254       -5.009623        5.088924
  S          -11.111034       -7.433074        5.313247
  F           -7.344512       -6.131685        4.390538
  F           -7.176288       -4.566907        5.885527
  F           -7.922266       -6.525669        6.443139
  F          -10.735880      -10.035564        5.082699
  F          -10.415360       -8.957623        3.228036
  F           -8.923702       -8.876527        4.800642
  O          -10.157554       -4.530108        6.351847
  O           -9.445190       -4.072476        4.018997
  O          -12.474188       -7.596569        4.879714
  O          -10.813146       -7.529236        6.718407
  N          -10.392108       -6.278352        4.506091
  C           -7.931846       -5.603156        5.475879
  C          -10.241066       -8.900556        4.555347
  S           22.358598       20.468612        3.707525
  S           22.521925       21.007721        6.483328
  F           23.330331       17.987617        3.845690
  F           24.145351       19.188305        2.231405
  F           24.798282       19.525658        4.272003
  F           23.313958       19.850078        8.719261
  F           21.666321       18.817253        7.758517
  F           23.672318       18.643873        6.951902
  O           22.972354       21.725246        3.369280
  O           21.329723       19.937933        2.853185
  O           21.520937       21.734182        7.220314
  O           23.831858       21.586341        6.335911
  N           21.896955       20.315214        5.205994
  C           23.739415       19.222641        3.514577
  C           22.803964       19.486613        7.528051
  S            2.852241        8.237434       14.455559
  S            0.675205       10.036987       14.244551
  F            4.507395        9.612917       12.878471
  F            4.475379        7.474365       12.507803
  F            2.836638        8.719587       11.823613
  F            0.033383       12.292477       13.033074
  F            1.681619       12.508916       14.426249
  F            2.005888       11.561521       12.502190
  O            2.009115        7.098585       14.205769
  O            3.953735        8.107263       15.372003
  O           -0.184739       10.389182       15.344244
  O            0.121115        9.301738       13.137821
  N            2.102211        9.589210       14.759224
  C            3.708299        8.535738       12.820166
  C            1.137269       11.691755       13.514482
  S           16.784697      -11.942571        8.598426
  S           19.292134      -11.704654        9.894018
  F           16.905895      -14.582996        8.234893
  F           16.216561      -13.464065        6.507284
  F           18.322001      -13.469217        7.028109
  F           21.334686      -13.207852       10.625608
  F           19.480771      -13.743135       11.616030
  F           19.804162      -14.302155        9.545372
  O           17.067842      -10.836449        7.722894
  O           15.437458      -12.143486        9.061767
  O           19.537167      -10.835359       11.015247
  O           19.957440      -11.433058        8.646596
  N           17.767321      -12.117939        9.817340
  C           17.085504      -13.451235        7.535518
  C           20.006280      -13.336488       10.452472
  S           -0.913076       -8.724898        6.767965
  S           -3.316531       -7.347890        6.176650
  F            0.169594       -6.780675        8.239873
  F            1.529268       -7.703793        6.821789
  F            0.025922       -6.301903        6.129819
  F           -4.466843       -5.015018        6.625363
  F           -4.112855       -6.156329        8.435492
  F           -2.462545       -5.157778        7.443482
  O           -0.727698       -9.108548        5.393672
  O           -0.514325       -9.633494        7.809864
  O           -4.612513       -7.974001        6.140783
  O           -2.764424       -6.824280        4.954575
  N           -2.329729       -8.137097        7.128023
  C            0.261180       -7.288452        7.000501
  C           -3.598330       -5.839402        7.239578
  S           21.342923        8.408283       -1.656798
  S           23.957090        8.509022       -2.742330
  F           20.076384        9.055451       -3.914174
  F           19.355255       10.087692       -2.146047
  F           21.229094       10.682518       -3.062058
  F           25.174821        9.046159       -5.021686
  F           23.855432        7.328756       -5.140861
  F           23.025911        9.332594       -5.105670
  O           21.727024        9.189007       -0.510862
  O           20.368293        7.361866       -1.498022
  O           25.000293        7.573481       -2.411634
  O           24.110531        9.886316       -2.352489
  N           22.527945        7.862294       -2.539790
  C           20.460724        9.630296       -2.763477
  C           23.993916        8.550453       -4.608258
  S           12.987137       16.282744       -0.397575
  S           13.899141       18.315065       -2.146953
  F           13.294738       17.687748        1.849653
  F           14.008816       15.640824        1.959268
  F           15.165184       17.138921        0.899700
  F           14.846100       20.777217       -2.057928
  F           12.817034       20.613655       -1.309193
  F           14.478617       19.925076       -0.096877
  O           13.811348       15.288090       -1.031273
  O           11.692593       15.905189        0.104132
  O           13.309032       18.594131       -3.430216
  O           15.246521       17.810519       -2.097373
  N           12.848364       17.648480       -1.170597
  C           13.922537       16.721423        1.160922
  C           14.007155       19.999328       -1.349236
  S           -4.826242       12.927349        1.309024
  S           -5.166193       15.296524        2.823569
  F           -7.054271       11.729566        2.157490
  F           -5.302135       10.449085        2.110480
  F           -5.529005       11.921411        3.686852
  F           -6.836399       16.346934        4.576823
  F           -7.746647       15.978382        2.642893
  F           -7.361571       14.324630        3.992535
  O           -3.451042       12.798891        1.712210
  O           -5.207729       12.529566       -0.020013
  O           -4.862763       16.614850        2.330805
  O           -4.384512       14.764110        3.908910
  N           -5.507568       14.309850        1.635429
  C           -5.731679       11.695094        2.385155
  C           -6.879149       15.490189        3.539835
  S           -9.061569       -0.478754       15.588157
  S          -10.557443       -2.386909       17.052297
  F           -8.639733       -2.027799       13.457146
  F           -6.892866       -0.934587       14.139176
  F           -7.578472       -2.677433       15.233065
  F          -11.408858       -4.876204       16.839344
  F          -12.234994       -3.557499       15.328390
  F          -10.182518       -4.240034       15.166535
  O           -8.240485       -0.164087       16.727033
  O           -9.411343        0.567820       14.664878
  O          -11.716941       -2.063540       17.842150
  O           -9.374169       -2.863964       17.719184
  N          -10.349456       -1.334489       15.890019
  C           -7.986665       -1.603104       14.550491
  C          -11.127758       -3.839752       16.028213
  S           -3.641375       -5.389361       11.378695
  S           -3.203937       -8.167767       11.044764
  F           -6.232835       -5.583759       11.983044
  F           -5.750235       -4.006319       10.572157
  F           -5.777678       -6.074852        9.920557
  F           -4.537893      -10.443772       11.129710
  F           -4.491004       -9.408275       13.034969
  F           -5.789342       -8.700393       11.448170
  O           -2.960314       -5.076500       10.150482
  O           -3.525509       -4.488211       12.494315
  O           -2.017642       -8.852680       11.488012
  O           -3.469136       -8.081769        9.632415
  N           -3.462187       -6.864288       11.902660
  C           -5.454033       -5.268192       10.936070
  C           -4.586718       -9.230642       11.710328
  S            8.581242       13.775473       17.743908
  S            6.910765       11.514592       18.090783
  F           10.861465       12.408209       17.520605
  F           10.977962       14.155655       18.803056
  F           10.001129       12.352951       19.510318
  F            7.084095        8.886335       18.261289
  F            7.725007        9.662906       16.340187
  F            9.011077        9.865598       18.075021
  O            7.976420       14.463847       18.853216
  O            9.010160       14.532547       16.598058
  O            5.603028       11.384849       17.502683
  O            7.022267       11.600411       19.523493
  N            7.822000       12.489590       17.241802
  C           10.191995       13.125870       18.436596
  C            7.737332        9.897360       17.659379
