         874
  Built with Packmol                                             
  Ti          -2.868335        2.115442       11.265214
  Ti           7.802788        5.383210        1.844391
  Ti           1.352572       -1.673500        9.417113
  Ti           2.511792        7.542652        3.648414
  Ti           1.444672        9.187418        1.751989
  Ti           3.259458       -1.864257       11.359530
  Ti          -1.869782        0.416024        9.366140
  Ti           5.815984        5.614284        3.703281
  H            3.746896        1.652626        8.583439
  H           -7.024875       10.142785        6.478257
  H            4.431630       11.010612        4.650438
  H           -2.503694        6.028051       11.048460
  H            8.748737        1.507342        2.155250
  H           -6.801542        1.221893       10.903644
  H           11.114246        7.503838        2.029089
  H            4.372721       -5.862020       10.962653
  H           -2.589143        8.456181        2.095703
  H            4.656966        3.204147        6.826953
  H           -0.045224        3.670268        8.406030
  H           12.440918       -1.828167        6.378540
  H           -2.327232        0.331938       12.984230
  H            5.927385        5.077403        0.154584
  H            3.761426       -2.506617        5.844726
  H            0.745560        9.314262        7.279431
  H           -6.059913        3.661213        9.037490
  H           10.641247        3.393379        4.132134
  H           -3.728587        2.298708        5.688870
  H           -1.703972       10.903386        4.124923
  H            1.733452       12.300945        2.609537
  H            8.667985       -0.517063        3.355831
  H            4.606680        7.297451        2.297825
  H            0.215487        0.134620       10.719246
  H            7.415332        0.218685        9.728366
  H            5.955496       -0.302534       10.483299
  H            7.828656        4.670987        8.632537
  H            7.237651        5.011538        7.017709
  H            7.098177       -4.749977        9.534320
  H            5.784030       -3.695029       10.000157
  H            1.411485        1.911548        9.356085
  H            0.863759        5.227040        6.648574
  H            5.741023        9.069333        3.845371
  H            7.999135        8.609993        4.744623
  C            8.422325        4.659191        4.703706
  C           -3.853328        2.346718        8.423899
  C            3.961595       -2.592630        8.476524
  C            0.513540        9.443357        4.621320
  C            9.344336        4.085192        5.693105
  C           -4.811926        2.940026        7.452907
  C            4.917315       -3.172748        7.523270
  C           -0.392661       10.057561        5.626884
  C            9.101042        4.149763        7.100999
  C           -4.599256        2.829342        6.063538
  C            6.075072       -3.893771        7.969088
  C           -1.516055       10.792469        5.189090
  C           -0.124811        9.894234        6.980095
  C            4.657405       -3.047644        6.140915
  C           10.498947        3.426687        5.210054
  C           -5.932679        3.593124        7.958691
  C            2.813684        4.307411        6.639567
  C            1.802100        2.580168        8.590925
  C            6.161473        9.726276        4.605129
  C           -1.730084       -2.944720        6.528234
  C            8.715175        1.588330        0.011262
  C            1.839040       13.147429        0.088587
  C            6.684170        0.195343       12.990012
  C           -6.719779        1.271810       13.046845
  C            3.350517        5.224492        5.605606
  C           -1.145018       -2.033515        7.540248
  C            4.215985       -4.201651       13.101266
  C            1.796086       11.711651        0.049701
  C            5.408882       -0.466276       13.043122
  C           -5.332575        1.734605       13.064020
  C            1.482906        4.442604        7.078738
  C            3.125222        2.436827        8.154613
  C            5.424120       10.827594        5.058747
  C           -8.018869       10.319594        6.073436
  C            8.784652        0.919515        1.239780
  C           -2.508142        6.615249       11.963065
  C           -4.360552        7.730507        1.110303
  C           -7.351366        1.022025       11.821932
  C            7.441371        9.469644        5.112723
  C           12.991193       -2.694552        6.017481
  C            3.632637        3.298056        7.181208
  C            0.980621        3.578705        8.052889
  C            7.361766        0.489528       11.753548
  C           -3.089201        8.254946        1.152479
  C            4.438003       -6.388560       11.910676
  C            8.855538       -0.479663        1.318796
  N            8.938305       -1.077634        2.555968
  N            6.782516        0.288157       10.517426
  N            8.001283        4.757340        7.639127
  N            6.418775       -4.042078        9.284423
  O            7.234665        5.022637        5.076604
  O           -3.053924        1.423703        8.020113
  O            4.345224       -2.456407        9.695708
  O            0.426054        9.871897        3.422680
  O            1.318961        8.513079        5.002228
  O            2.776776       -2.264724        8.078087
  O            8.824398        4.755701        3.489805
  O           -3.903766        2.779752        9.624467
  O            6.156697        4.409127        2.505218
  O           -1.367975        1.993658       10.109628
  O            7.017801        6.727170        2.953185
  O           -3.056279        0.208461       10.609657
  O            1.659621       -2.837312       10.674383
  O            2.969458        9.121937        2.909279
  O            2.531624       -0.543378       10.208048
  O            1.322575        7.306972        2.398893
  O            4.575167        5.087631        5.244337
  O           -1.836144       -1.022528        7.923516
  O            4.066391       -3.610049       11.962095
  O            1.743514       11.006429        1.144350
  O            4.771026       -0.795498       11.956418
  O           -0.427504        9.094025        1.094098
  O            0.028867       -2.288059        7.991258
  O            2.574295        6.119616        5.117796
  O            9.199419        6.452785        1.083295
  O           -4.748114        1.988975       11.944029
  O            8.500254        3.672420        1.113292
  O           -2.542975        3.849240       12.015231
  O            4.269171        6.735574        3.019668
  O           -0.147093       -0.436062       10.017030
  O            6.748057        5.600086        0.071530
  O           -2.238358        1.302347       13.044892
  S            5.802193       -9.374868       -0.368329
  S            4.973745       -8.094276        2.018334
  F            5.129605      -11.843115        0.389347
  F            7.071067      -11.690066       -0.569362
  F            6.816039      -11.023997        1.478924
  F            3.940941       -8.690626        4.373016
  F            2.629331       -9.177699        2.715638
  F            4.345702      -10.432562        3.144709
  O            7.061434       -8.678786       -0.372259
  O            5.156572       -9.664062       -1.621183
  O            4.307692       -6.818393        2.055291
  O            6.292546       -8.205624        2.584745
  N            4.722163       -8.827479        0.639618
  C            6.226276      -11.076472        0.280534
  C            3.908489       -9.166023        3.114395
  S           19.406920        3.613757       13.776197
  S           16.799513        4.674563       13.462327
  F           18.631158        1.123639       14.338510
  F           20.207805        1.889415       15.618974
  F           18.163041        2.557239       15.896665
  F           14.278387        3.909883       13.623694
  F           15.386429        2.880797       12.068802
  F           15.687339        2.346052       14.149237
  O           19.812892        4.708453       14.617065
  O           20.362760        3.031920       12.871797
  O           16.438788        5.631656       12.449054
  O           16.751375        5.075118       14.844244
  N           18.044152        3.809528       13.010305
  C           19.071792        2.219641       14.976387
  C           15.471756        3.370911       13.312947
  S            8.485634       -1.792496       17.658585
  S            6.394106       -3.655913       18.077619
  F           10.449748       -3.594961       17.548710
  F           10.898104       -1.842503       18.748580
  F            9.573605       -3.376900       19.520261
  F            6.037939       -6.254081       18.376813
  F            6.842155       -5.719081       16.434784
  F            8.123446       -5.687826       18.184649
  O            8.017936       -0.942161       18.720856
  O            9.069620       -1.195016       16.487226
  O            5.093383       -3.553099       17.468999
  O            6.504547       -3.521141       19.506639
  N            7.490848       -2.925823       17.202484
  C            9.926694       -2.712959       18.415171
  C            6.886318       -5.424912       17.741269
  S            7.704910       18.941661       17.351481
  S           10.188246       20.273879       17.067512
  F            8.386045       17.536093       19.514610
  F            7.331280       16.400567       17.994784
  F            9.418298       16.917997       17.710559
  F           12.566249       20.371809       18.208722
  F           10.962223       21.019015       19.517420
  F           11.240598       18.907577       19.106265
  O            7.664015       18.599144       15.954613
  O            6.477179       19.254571       18.033294
  O           10.318702       21.656923       16.689305
  O           10.676682       19.259703       16.170108
  N            8.793595       20.003518       17.762919
  C            8.252525       17.362677       18.190085
  C           11.291113       20.133520       18.567094
  S          -16.877896       18.325798       14.869593
  S          -14.500361       17.382336       13.653201
  F          -15.910549       20.714066       15.561768
  F          -17.067669       19.725148       17.109326
  F          -15.047435       19.065843       16.675583
  F          -12.022164       18.165985       13.193547
  F          -13.506769       19.400610       12.205563
  F          -13.179092       19.598768       14.340527
  O          -17.050322       17.105271       15.611764
  O          -18.039749       19.020781       14.382563
  O          -14.472452       16.602362       12.443353
  O          -14.064289       16.772841       14.882353
  N          -15.800520       18.280516       13.721000
  C          -16.174936       19.523084       16.122063
  C          -13.240524       18.721260       13.329389
  S          -18.485025       -5.732802       13.376005
  S          -18.800978       -7.760187       15.328513
  F          -16.108398       -4.880375       14.238386
  F          -17.515279       -3.298774       13.757712
  F          -17.741278       -4.432223       15.593027
  F          -17.541663       -8.756107       17.423534
  F          -16.437322       -8.989199       15.571357
  F          -16.530088       -7.051474       16.541577
  O          -19.819810       -5.239793       13.589369
  O          -17.930230       -5.703721       12.048805
  O          -19.360982       -9.058027       15.054877
  O          -19.515517       -6.865759       16.201376
  N          -18.161036       -7.130785       14.026182
  C          -17.401101       -4.524104       14.303628
  C          -17.231980       -8.157581       16.258611
  S           -9.164553       -3.531624       -0.183427
  S           -9.937739       -0.976381       -1.129639
  F           -6.670591       -2.845818        0.471186
  F           -6.840529       -4.735766       -0.582871
  F           -7.038336       -2.866969       -1.665753
  F           -8.923267        1.434304       -1.485020
  F           -8.969362        0.824000        0.595814
  F           -7.479830       -0.006242       -0.744597
  O           -9.709581       -4.188545       -1.341716
  O           -9.240297       -4.186854        1.095260
  O          -11.232117       -0.391251       -0.894952
  O           -9.563754       -1.316678       -2.477523
  N           -9.572453       -2.021035        0.000406
  C           -7.324805       -3.481495       -0.513795
  C           -8.757186        0.389092       -0.653676
  S            2.575891       -8.189905       -3.549857
  S            4.552858       -6.392235       -2.610505
  F            0.945185       -7.934318       -1.453631
  F            1.247948       -9.978344       -2.118546
  F            2.800328       -8.960121       -0.997163
  F            5.061094       -4.868143       -0.516301
  F            3.268707       -4.280430       -1.587005
  F            3.243168       -6.034307       -0.311083
  O            3.559318       -9.184037       -3.888686
  O            1.409613       -8.045383       -4.379926
  O            5.255371       -5.459699       -3.452955
  O            5.291471       -7.462412       -1.992744
  N            3.139404       -6.756137       -3.219981
  C            1.859264       -8.793494       -1.931693
  C            3.987265       -5.335396       -1.179437
  S           19.330983       -4.173781        1.224616
  S           17.662917       -5.205705        3.267919
  F           17.798716       -2.066888        0.648555
  F           18.555465       -3.133983       -1.083628
  F           16.922907       -3.966358        0.076575
  F           15.363734       -4.678838        4.452409
  F           16.850067       -3.125739        4.740784
  F           15.831701       -3.311060        2.834664
  O           19.465433       -5.464683        0.603544
  O           20.449794       -3.269235        1.211919
  O           18.155528       -5.781527        4.492106
  O           16.970203       -6.052255        2.331992
  N           18.699380       -4.172514        2.667922
  C           18.071662       -3.288442        0.163196
  C           16.361191       -4.002554        3.853325
  S            4.304623      -10.836928       12.775788
  S            1.724922      -11.997423       12.631584
  F            5.646254      -13.055878       12.147317
  F            6.483154      -11.933642       13.806235
  F            4.697980      -13.130872       14.095994
  F            0.587425      -14.332127       12.160303
  F            1.688278      -13.558172       10.459250
  F            2.755428      -14.412084       12.143512
  O            4.015484      -10.212294       14.039301
  O            5.144239      -10.150970       11.829950
  O            0.574771      -11.331345       12.078084
  O            1.739261      -12.304601       14.037960
  N            3.064210      -11.432176       12.008253
  C            5.331808      -12.331068       13.232694
  C            1.698163      -13.665905       11.794797
  S          -10.115817        0.798447        5.541262
  S          -12.653395       -0.159001        4.724933
  F           -9.347678       -1.446734        6.761024
  F           -8.932683        0.371792        7.871232
  F          -10.955197       -0.406008        7.778355
  F          -14.146700       -2.327290        4.913121
  F          -12.297760       -2.653766        3.827165
  F          -12.268880       -2.479567        5.989000
  O          -10.676726        2.023977        6.044938
  O           -8.814227        0.822355        4.928568
  O          -13.248902        0.133752        3.447225
  O          -13.276882        0.356204        5.915851
  N          -11.075672       -0.076391        4.649414
  C           -9.832239       -0.234473        7.073903
  C          -12.839346       -2.010753        4.870529
  S            1.848589       14.387892        8.735565
  S            1.085340       17.069189        8.235071
  F           -0.623250       13.458904        9.117251
  F            0.836346       12.764731       10.566224
  F            0.062821       14.787362       10.687823
  F           -1.089247       18.561901        8.135927
  F           -1.063413       16.988073        6.643659
  F           -1.480563       16.508726        8.717525
  O            2.877591       14.792539        9.656244
  O            2.069840       13.240387        7.896289
  O            1.698325       17.905245        7.236006
  O            1.243109       17.416719        9.623159
  N            1.224448       15.539032        7.859563
  C            0.446550       13.828627        9.839123
  C           -0.740659       17.281717        7.910542
  S            8.560483       15.182760       14.947629
  S           11.195993       16.115025       15.403007
  F            9.270872       12.899949       13.763226
  F            7.660032       13.967369       12.774472
  F            9.703994       14.667447       12.584012
  F           13.695467       15.394100       14.956077
  F           12.629880       14.024429       16.257228
  F           12.240547       14.016848       14.123435
  O            8.141778       16.452839       14.416761
  O            7.629901       14.404653       15.721367
  O           11.611690       16.792592       16.603411
  O           11.198297       16.840925       14.159817
  N            9.954684       15.175094       15.681251
  C            8.825305       14.121923       13.430784
  C           12.505651       14.804484       15.174883
  S          -15.862420        9.858517        3.835100
  S          -13.125305       10.283235        4.426890
  F          -16.803464       11.696954        5.524264
  F          -17.870002        9.806718        5.560652
  F          -15.925998        9.974951        6.507600
  F          -11.608461       11.761057        6.002351
  F          -12.758496       12.928581        4.581516
  F          -13.732860       12.068118        6.317871
  O          -15.723749        8.430689        3.946064
  O          -16.767640       10.401551        2.857454
  O          -12.079172       10.273470        3.437758
  O          -13.140067        9.252666        5.431960
  N          -14.515269       10.673560        3.780839
  C          -16.649683       10.365174        5.453693
  C          -12.798638       11.854099        5.381057
  S           -8.623678       13.394106        0.127267
  S           -9.283528       12.996472        2.852865
  F           -7.930672       15.958455        0.377362
  F           -9.177345       15.523606       -1.345582
  F          -10.053078       15.597865        0.637280
  F           -9.393295       14.345767        5.118743
  F           -7.388651       14.206779        4.302318
  F           -8.827902       15.566538        3.416698
  O           -9.838395       12.764352       -0.317824
  O           -7.420989       13.221763       -0.643408
  O           -8.972100       11.798188        3.587712
  O          -10.664434       13.322083        2.608869
  N           -8.275423       13.205489        1.652127
  C           -8.969474       15.223148       -0.049817
  C           -8.679785       14.358437        3.977723
  S           -5.802452      -11.447902        9.069490
  S           -3.283345      -11.319445        7.781081
  F           -5.793965      -14.090137        9.439917
  F           -7.675045      -13.285806        8.714374
  F           -5.992344      -13.499954        7.362774
  F           -1.344310      -12.920806        6.979436
  F           -1.630530      -12.933922        9.129406
  F           -3.031116      -13.977129        7.843020
  O           -6.420239      -10.618174        8.069428
  O           -6.229826      -11.332581       10.438488
  O           -2.319751      -10.273297        8.004536
  O           -3.895097      -11.434130        6.482981
  N           -4.228206      -11.500071        9.036609
  C           -6.336564      -13.181090        8.614394
  C           -2.271455      -12.878589        7.954016
  S           -3.318947        9.536665       -4.773192
  S           -2.905256       12.239964       -4.036014
  F           -5.778083        9.884624       -5.748006
  F           -5.546831        8.135518       -4.483501
  F           -5.651708       10.111371       -3.595147
  F           -4.179631       14.551382       -4.048874
  F           -3.842420       13.749572       -6.035795
  F           -5.386198       12.899399       -4.771412
  O           -2.846628        9.057893       -3.501215
  O           -3.037957        8.771776       -5.958980
  O           -1.654853       12.934527       -4.200167
  O           -3.393506       11.994649       -2.704140
  N           -3.039779       11.057062       -5.077351
  C           -5.180397        9.421656       -4.638637
  C           -4.150535       13.418359       -4.774545
  S           -3.063087       -5.264266       -1.761225
  S           -3.434632       -2.460002       -1.618199
  F           -1.808583       -5.261556       -4.115987
  F           -3.331800       -6.793697       -3.905808
  F           -3.906976       -4.729905       -4.243596
  F           -2.957607       -0.287501       -3.039302
  F           -1.152622       -1.324902       -2.430784
  F           -2.368087       -2.118671       -4.042393
  O           -4.431924       -5.521524       -1.400203
  O           -2.035651       -6.159312       -1.299304
  O           -3.295700       -1.692450       -0.408062
  O           -4.732926       -2.559089       -2.232260
  N           -2.569214       -3.782443       -1.555447
  C           -3.027508       -5.515165       -3.613821
  C           -2.411844       -1.503416       -2.852544
  S            9.431465        6.606654       12.719360
  S           11.180144        8.609805       13.695018
  F            7.535148        6.967994       14.561128
  F            8.021706        4.890714       14.161140
  F            9.365236        6.111462       15.348096
  F           11.339751       10.364758       15.660091
  F            9.672222       10.728715       14.321678
  F            9.570704        9.113252       15.765521
  O           10.498338        5.647263       12.611728
  O            8.375324        6.593894       11.742372
  O           11.937529        9.495547       12.849619
  O           11.885835        7.655306       14.509505
  N            9.876184        8.098758       12.959995
  C            8.544451        6.124325       14.293175
  C           10.384201        9.767021       14.924687
  S           -1.639444       17.214936       -5.258880
  S           -2.140122       16.959638       -2.482813
  F            0.713429       15.957086       -5.236687
  F            0.676933       17.784079       -6.408261
  F            0.743722       17.884062       -4.242688
  F           -0.997818       15.993928       -0.308096
  F           -1.445446       14.471757       -1.786977
  F            0.236301       15.809253       -2.082851
  O           -1.984182       18.611833       -5.250657
  O           -1.970446       16.417442       -6.409768
  O           -3.435336       16.671962       -1.923766
  O           -1.536620       18.238756       -2.214304
  N           -2.023542       16.408837       -3.960909
  C            0.230317       17.209018       -5.275860
  C           -1.022129       15.733092       -1.628156
  S           -5.530088       19.094436       -3.943479
  S           -6.485090       16.792964       -5.290180
  F           -7.775171       19.576616       -2.584878
  F           -6.867308       21.332559       -3.481691
  F           -7.954280       19.920706       -4.718352
  F           -8.681169       15.343347       -5.496806
  F           -7.840548       15.342167       -3.497351
  F           -8.914716       17.082219       -4.220604
  O           -5.000731       19.655524       -5.158055
  O           -4.825058       19.306273       -2.707291
  O           -5.691765       15.615465       -5.528931
  O           -6.915905       17.579853       -6.416084
  N           -5.964420       17.582079       -4.022134
  C           -7.128690       20.025725       -3.672367
  C           -8.066625       16.106612       -4.574339
  S           20.938492       20.686939        6.875340
  S           18.283557       20.652509        7.861514
  F           21.055005       18.086063        6.291764
  F           22.812846       18.865415        7.298952
  F           20.991437       18.501961        8.419011
  F           16.314738       18.948402        8.293504
  F           16.850006       19.123755        6.198939
  F           18.122611       18.004936        7.552981
  O           21.409468       21.441676        8.006174
  O           21.518831       20.926961        5.580852
  O           17.320699       21.693298        7.611446
  O           18.743001       20.441037        9.209345
  N           19.373525       20.598999        6.716592
  C           21.469244       18.933036        7.247437
  C           17.347460       19.092674        7.442708
  S           -7.745282       -6.151919       16.102092
  S           -5.142181       -5.214616       16.708496
  F           -6.977279       -7.975152       14.311928
  F           -8.687979       -6.782484       13.709539
  F           -6.694818       -5.929213       13.651219
  F           -2.633931       -5.626646       15.997327
  F           -3.561768       -7.363960       16.905800
  F           -4.055107       -6.813503       14.866603
  O           -8.254749       -4.814291       15.955709
  O           -8.595070       -7.168880       16.662229
  O           -4.703260       -4.865509       18.034521
  O           -5.238786       -4.178347       15.713874
  N           -6.318015       -6.271338       16.758373
  C           -7.501254       -6.739555       14.343836
  C           -3.779437       -6.327604       16.084840
  S           -2.709453       13.782475       18.322364
  S           -0.427255       15.377035       17.801453
  F           -1.385991       11.483817       18.610997
  F           -3.185525       11.344728       17.405116
  F           -1.391044       12.239554       16.578505
  F            2.187511       15.130776       17.538382
  F            1.474202       14.608293       19.518954
  F            1.173384       13.240461       17.862677
  O           -3.427878       14.346423       17.210581
  O           -3.429533       13.431479       19.517517
  O           -0.244701       16.709586       18.315119
  O           -0.572813       15.194476       16.380910
  N           -1.387757       14.534649       18.733955
  C           -2.124484       12.122922       17.689889
  C            1.186939       14.534209       18.212286
  S           27.437338        7.672416        9.388705
  S           25.630057        6.403138        7.615270
  F           25.756940        9.588572       10.178198
  F           27.764673       10.278222        9.725194
  F           26.397447        9.783810        8.115718
  F           23.164593        6.674661        6.712714
  F           23.258067        6.309049        8.848610
  F           23.767699        8.264418        8.060246
  O           28.493417        7.660959        8.411566
  O           27.764962        7.491091       10.777908
  O           25.522136        4.975331        7.464967
  O           26.107408        7.184074        6.504085
  N           26.181596        6.784156        9.047879
  C           26.794308        9.427581        9.341407
  C           23.857570        6.946508        7.833903
  S           10.132694        9.305842       -4.967674
  S            8.114739        8.957867       -3.010847
  F           10.722999        6.716707       -5.225766
  F           12.448037        8.028722       -5.104613
  F           11.312053        7.560869       -3.317208
  F            6.959413        7.030556       -1.626093
  F            6.646819        6.852460       -3.765025
  F            8.566840        6.328292       -2.902774
  O           10.755645       10.365116       -4.219273
  O           10.127902        9.371247       -6.404964
  O            6.885776        9.707360       -2.982897
  O            9.062234        9.138038       -1.942086
  N            8.697917        8.876299       -4.478834
  C           11.208208        7.815059       -4.625381
  C            7.543227        7.190172       -2.828119
  S           -3.659598       10.336805       13.201461
  S           -4.732406       12.488298       11.703942
  F           -4.449857       11.233445       15.586879
  F           -2.410724       10.491394       15.531057
  F           -2.884856       12.428777       14.679055
  F           -6.032556       14.754779       12.077464
  F           -7.156281       13.010157       12.708337
  F           -5.517997       13.743029       13.926382
  O           -2.397713       10.412858       12.514367
  O           -4.164255        9.050108       13.601255
  O           -5.379338       12.333827       10.427037
  O           -3.487580       13.208467       11.768915
  N           -4.838004       11.161969       12.559184
  C           -3.336631       11.180889       14.838392
  C           -5.930132       13.548817       12.665977
  S           24.239118        7.542845       15.165383
  S           22.147189        6.788398       13.411234
  F           25.705837        8.803513       13.327410
  F           26.835666        7.503663       14.648658
  F           25.629456        6.653038       13.059426
  F           21.487441        6.973524       10.862252
  F           21.634656        8.899101       11.849645
  F           23.435446        7.816912       11.310449
  O           24.325263        6.219550       15.723685
  O           24.465218        8.679863       16.017542
  O           20.752612        6.811050       13.768322
  O           22.774365        5.520891       13.141916
  N           22.971977        7.826797       14.273318
  C           25.677439        7.627093       13.973552
  C           22.184501        7.679699       11.771431
  S           27.854453       -7.903205        8.925808
  S           28.425374       -5.137592        9.144521
  F           25.404880       -7.768035        9.974623
  F           26.613347       -9.413819       10.711389
  F           26.989938       -7.394086       11.406385
  F           27.313746       -2.912721       10.028309
  F           26.223079       -3.820774        8.388080
  F           26.101437       -4.677860       10.376878
  O           29.125379       -8.268689        9.492731
  O           27.285103       -8.725577        7.891570
  O           29.128986       -4.381330        8.141591
  O           29.041161       -5.324363       10.432302
  N           27.702120       -6.391875        8.507798
  C           26.648198       -8.120855       10.337866
  C           26.923631       -4.086886        9.498846
  S           20.182904       16.532357       11.196387
  S           17.360648       16.663600       10.996274
  F           20.454156       18.681237       12.754407
  F           21.876026       18.566524       11.118268
  F           19.820936       19.142642       10.732445
  F           15.349606       18.170281       11.804030
  F           16.427892       17.235510       13.437421
  F           17.290776       18.933933       12.400357
  O           20.332038       16.347358        9.777314
  O           21.089551       15.862286       12.090311
  O           16.499522       15.510041       11.021453
  O           17.441181       17.443603        9.788976
  N           18.718234       16.376603       11.755438
  C           20.595631       18.336232       11.464746
  C           16.572847       17.813995       12.237532
  S           -8.334966       20.467411       16.003801
  S          -10.624182       20.623945       17.664340
  F           -8.436199       17.826986       15.634208
  F           -6.455209       18.603664       16.063475
  F           -7.912980       18.406378       17.657259
  F          -12.438590       19.045099       18.751546
  F          -12.486357       19.036632       16.583111
  F          -10.919045       17.970071       17.637003
  O           -7.559616       21.285024       16.898549
  O           -8.121513       20.582457       14.585596
  O          -11.596356       21.683541       17.593581
  O           -9.821835       20.496147       18.852769
  N           -9.886024       20.435822       16.278169
  C           -7.760879       18.725582       16.368195
  C          -11.671733       19.078932       17.646119
  S          -17.490726       14.017822       17.998072
  S          -17.493969       16.843749       18.189183
  F          -20.107600       13.764106       17.543881
  F          -19.300871       12.357923       18.987369
  F          -19.629871       14.425797       19.552893
  F          -19.182953       18.869690       18.090478
  F          -19.069167       17.759639       16.230558
  F          -20.149255       16.934635       17.920969
  O          -16.703812       13.880749       19.194822
  O          -17.289040       13.091347       16.915912
  O          -16.460015       17.686254       17.646969
  O          -17.666524       16.788259       19.617330
  N          -17.581806       15.473880       17.403384
  C          -19.233538       13.630803       18.554085
  C          -19.064473       17.636480       17.564799
  S          -16.384982       18.792679        9.337864
  S          -18.091143       19.680607       11.417046
  F          -14.546626       20.701192        9.648857
  F          -15.096914       20.304507        7.586905
  F          -16.436345       21.427007        8.871460
  F          -18.257099       21.619997       13.199761
  F          -16.527864       20.342085       13.484633
  F          -16.542396       21.805336       11.883573
  O          -17.482971       18.654582        8.418308
  O          -15.294213       17.856619        9.273687
  O          -18.781878       18.798004       12.320798
  O          -18.862856       20.477561       10.499559
  N          -16.781035       19.000866       10.848445
  C          -15.576692       20.403887        8.840870
  C          -17.298202       20.927560       12.557709
  S           -9.642657        9.166280       15.513465
  S          -11.079805        6.770003       15.049930
  F          -11.780521       10.685577       16.003327
  F          -10.304494       11.597017       14.698551
  F          -11.617310       10.047426       13.937337
  F          -13.568958        5.896495       14.960773
  F          -12.988595        6.627250       16.918742
  F          -13.418198        8.030510       15.321553
  O           -8.842858        8.982494       14.331611
  O           -9.045368        9.761745       16.679128
  O          -10.646791        5.473769       15.502862
  O          -11.135001        7.028168       13.634741
  N          -10.491280        7.918071       15.964981
  C          -10.916262       10.437923       15.006335
  C          -12.861300        6.844325       15.602663
  S          -13.455134       -2.124258       -3.779605
  S          -14.915261        0.291608       -3.547184
  F          -15.470349       -3.577939       -4.751415
  F          -14.314433       -4.560435       -3.198876
  F          -15.729717       -3.001980       -2.677002
  F          -17.352808        1.221253       -3.948400
  F          -16.390379        0.532035       -5.765864
  F          -17.167500       -0.904800       -4.338874
  O          -12.915825       -1.992736       -2.452171
  O          -12.638740       -2.700877       -4.814551
  O          -14.374892        1.589352       -3.858202
  O          -15.268368       -0.004715       -2.183378
  N          -14.169254       -0.844052       -4.356805
  C          -14.828401       -3.378946       -3.589274
  C          -16.543670        0.275208       -4.459751
  S           -9.670572       18.941027       10.866168
  S           -6.852507       18.762983       10.644327
  F           -9.798860       21.600030       10.687451
  F          -11.044033       20.738141       12.242608
  F           -8.899497       20.890713       12.528703
  F           -4.745431       20.334166       10.402540
  F           -6.108834       20.466992        8.720888
  F           -6.611813       21.422125       10.602229
  O           -9.695159       18.049966       11.995610
  O          -10.750615       18.899846        9.916476
  O           -6.169135       17.740311        9.895985
  O           -6.696275       18.797850       12.075002
  N           -8.308718       19.005957       10.076742
  C           -9.851871       20.640423       11.624794
  C           -6.045078       20.338838       10.053142
  S           10.103891       -0.209279       -3.953252
  S           12.004117       -1.365020       -2.199454
  F           11.864299        0.570245       -5.800411
  F           10.360260        2.054209       -5.302879
  F           12.003904        1.674764       -3.939567
  F           14.612036       -1.721549       -2.003261
  F           13.736930       -2.731095       -3.711907
  F           14.028572       -0.582187       -3.754927
  O            9.458438        0.498328       -2.879512
  O            9.306221       -0.719657       -5.036460
  O           11.787502       -2.590804       -1.475990
  O           12.131149       -0.136002       -1.460647
  N           11.131779       -1.321101       -3.518103
  C           11.151979        1.093666       -4.790015
  C           13.684728       -1.614725       -2.972731
  S           28.409960       10.509252        4.131900
  S           26.225885       11.773089        2.845458
  F           26.944440        9.132220        5.885389
  F           28.697124       10.093871        6.731052
  F           26.944471       11.272019        6.236747
  F           23.594315       11.904149        3.002022
  F           24.324924        9.918258        2.525669
  F           24.488521       10.676486        4.551264
  O           29.133822       11.747598        4.244843
  O           29.137343        9.290480        3.896077
  O           26.146727       11.988763        1.424160
  O           26.320141       12.915191        3.716765
  N           27.153114       10.536770        3.182354
  C           27.698533       10.241987        5.840340
  C           24.570859       11.013854        3.256815
  S          -10.895430       -7.926493       -0.010393
  S           -9.433748      -10.127178       -1.031605
  F          -12.844872       -8.015609       -1.829850
  F          -12.087791       -6.024196       -1.414010
  F          -10.928740       -7.393938       -2.632440
  F           -9.527354      -11.863202       -3.017634
  F          -11.211630      -12.024512       -1.660556
  F          -11.120006      -10.391536       -3.085234
  O           -9.711750       -7.115052        0.093045
  O          -11.929006       -7.789085        0.981041
  O           -8.787604      -11.114238       -0.206328
  O           -8.620014       -9.262154       -1.845255
  N          -10.651246       -9.460545       -0.273294
  C          -11.731353       -7.313446       -1.566585
  C          -10.388154      -11.155824       -2.262767
  S          -10.506807        4.749519       -5.216710
  S          -12.154480        6.995418       -4.703377
  F          -12.498123        2.991096       -5.464298
  F          -10.824477        2.297918       -4.268374
  F          -12.230225        3.728419       -3.442721
  F          -14.707975        7.600460       -4.419769
  F          -14.220127        6.855218       -6.397415
  F          -14.354239        5.481689       -4.724052
  O           -9.634045        5.066839       -4.117697
  O           -9.949371        4.173435       -6.411489
  O          -11.907354        8.310584       -5.234544
  O          -12.059669        6.791912       -3.281388
  N          -11.523364        5.879872       -5.630193
  C          -11.584380        3.371073       -4.557127
  C          -13.957614        6.707938       -5.091741
  S          -11.671624        5.160017        2.306891
  S           -9.777613        5.052788        4.410132
  F           -9.990108        6.103327        0.462614
  F          -11.929542        7.077528        0.499343
  F          -10.458684        7.528753        2.028113
  F           -7.240496        5.617158        4.869881
  F           -7.515107        4.067355        3.377513
  F           -7.889685        6.142005        2.867383
  O          -12.647189        5.809122        3.141858
  O          -12.114003        4.217631        1.313759
  O           -9.710142        3.987399        5.376189
  O          -10.137282        6.373230        4.856819
  N          -10.426049        4.553142        3.056758
  C          -10.963518        6.547960        1.273196
  C           -8.009279        5.224848        3.837288
  S          -18.329456        5.416949       -1.133577
  S          -15.950709        6.937321       -1.362561
  F          -17.128482        3.095644       -0.597019
  F          -18.740201        2.965243       -2.045183
  F          -16.820585        3.789387       -2.628302
  F          -13.333509        6.617770       -1.240092
  F          -14.337836        6.173529        0.630320
  F          -14.438262        4.764145       -1.015359
  O          -18.864635        5.964802       -2.351639
  O          -19.223082        5.120453       -0.045632
  O          -15.804789        8.279820       -0.863288
  O          -15.896734        6.715541       -2.783954
  N          -17.058913        6.147887       -0.556077
  C          -17.708611        3.724872       -1.631326
  C          -14.437181        6.067138       -0.701671
  S            2.621766        2.727725       -5.204147
  S            2.863668        5.494081       -4.646331
  F           -0.018865        2.748019       -5.585391
  F            0.705654        1.101899       -4.369997
  F            0.569240        3.095781       -3.527387
  F            1.350587        7.644340       -4.414338
  F            1.317754        6.786254       -6.406090
  F            0.219216        5.833112       -4.796914
  O            3.427344        2.369713       -4.066999
  O            2.713791        1.940371       -6.404858
  O            3.949825        6.315363       -5.113907
  O            2.727001        5.263016       -3.231980
  N            2.637985        4.252558       -5.599969
  C            0.868620        2.411556       -4.635954
  C            1.349262        6.486591       -5.100487
  S           17.185102       -4.686713       18.251357
  S           19.181537       -6.144107       16.868371
  F           17.230338       -2.555907       16.646268
  F           17.185540       -2.089406       18.765746
  F           19.022500       -2.784317       17.845507
  F           20.790765       -5.888371       14.791876
  F           18.689665       -5.859859       14.254259
  F           19.595986       -4.119051       15.177773
  O           17.799656       -4.944359       19.526573
  O           15.750176       -4.629603       18.162888
  O           19.128442       -7.565492       16.645403
  O           20.215836       -5.612665       17.717048
  N           17.729871       -5.541529       17.045301
  C           17.694143       -2.933225       17.848259
  C           19.574776       -5.459104       15.176953
  S            6.905437       20.701150        2.519405
  S            4.075693       20.583695        2.485406
  F            7.294514       18.064245        2.637887
  F            8.537938       19.222338        3.988640
  F            6.442014       18.903528        4.446488
  F            2.130003       18.802642        2.580219
  F            3.393901       18.596231        0.829670
  F            4.106844       17.928342        2.766251
  O            6.907876       21.720995        3.534365
  O            7.915145       20.728711        1.494792
  O            3.246353       21.438759        1.676746
  O            4.012080       20.708093        3.918213
  N            5.511495       20.412423        1.844410
  C            7.306338       19.131194        3.452594
  C            3.399334       18.878510        2.139509
  S           21.004254        0.231632        1.471654
  S           21.386486       -0.749945        4.100876
  F           22.335783       -1.727675        0.244120
  F           22.788124        0.266335       -0.484669
  F           23.601734       -0.407956        1.409409
  F           22.575513       -2.744489        5.355808
  F           21.001580       -3.395781        4.013042
  F           22.912388       -2.753274        3.212598
  O           21.388456        1.564957        1.852265
  O           19.977278        0.053655        0.479813
  O           20.376048       -0.714440        5.125876
  O           22.574605        0.045305        4.269421
  N           20.734548       -0.767064        2.659897
  C           22.522618       -0.453057        0.621890
  C           21.998085       -2.512588        4.162500
  S           16.632906       12.746182        4.556527
  S           19.093925       13.892119        3.748680
  F           16.633387       13.783940        7.014524
  F           16.073855       11.688810        6.918735
  F           18.153097       12.268186        6.706037
  F           21.024950       15.410345        4.714587
  F           19.106924       16.419214        4.626139
  F           19.485982       14.944863        6.171232
  O           17.008106       11.449186        4.059275
  O           15.259250       13.163481        4.461485
  O           19.336959       14.428196        2.434745
  O           19.822942       12.723523        4.167456
  N           17.554364       13.942666        4.107754
  C           16.899356       12.618842        6.402906
  C           19.699928       15.245387        4.882781
  S          -13.867710       -6.489059        6.932287
  S          -12.650843       -7.750456        4.707312
  F          -15.329658       -8.591287        7.681978
  F          -16.395867       -6.700533        7.690111
  F          -15.974120       -7.701168        5.812607
  F          -12.678901      -10.063529        3.436190
  F          -11.972453      -10.219790        5.480934
  F          -14.089598       -9.968682        5.081744
  O          -14.191162       -5.316798        6.163250
  O          -13.505408       -6.341794        8.316900
  O          -11.271064       -7.570177        4.337745
  O          -13.676115       -7.266840        3.819961
  N          -12.863408       -7.495574        6.253788
  C          -15.480704       -7.430325        7.025001
  C          -12.861034       -9.605240        4.688380
  S           14.867724      -12.518853        4.170534
  S           12.419836      -13.397873        3.049120
  F           14.270684       -9.918552        4.144736
  F           16.271414      -10.392876        3.449095
  F           14.559965      -10.767965        2.170653
  F           10.155895      -12.407572        2.121368
  F           10.469995      -11.995890        4.227626
  F           11.576393      -10.884516        2.729146
  O           15.638694      -13.338323        3.273701
  O           15.334374      -12.321903        5.517216
  O           11.720876      -14.582167        3.475468
  O           12.966826      -13.355869        1.718145
  N           13.321877      -12.819904        4.212740
  C           14.989388      -10.803643        3.435973
  C           11.085894      -12.092001        3.041531
  S           13.707509       -9.754585       -4.287795
  S           11.531572       -7.979757       -3.916738
  F           12.225430      -11.940973       -4.664413
  F           13.925076      -12.218466       -3.343042
  F           12.157983      -11.178838       -2.635425
  F            8.893874       -8.014296       -3.826155
  F            9.691147       -8.601313       -5.755982
  F            9.771929       -9.981318       -4.084525
  O           14.394515       -9.245027       -3.130813
  O           14.473827      -10.167639       -5.433328
  O           11.490711       -6.639208       -4.440310
  O           11.568596       -8.166940       -2.489836
  N           12.480330       -8.900702       -4.784756
  C           12.950928      -11.358977       -3.696322
  C            9.885289       -8.692255       -4.433323
