         874
  Built with Packmol                                             
  Ti          -2.868335        2.115442       11.265214
  Ti           7.802788        5.383210        1.844391
  Ti           1.352572       -1.673500        9.417113
  Ti           2.511792        7.542652        3.648414
  Ti           1.444672        9.187418        1.751989
  Ti           3.259458       -1.864257       11.359530
  Ti          -1.869782        0.416024        9.366140
  Ti           5.815984        5.614284        3.703281
  H            3.746896        1.652626        8.583439
  H           -7.024875       10.142785        6.478257
  H            4.431630       11.010612        4.650438
  H           -2.503694        6.028051       11.048460
  H            8.748737        1.507342        2.155250
  H           -6.801542        1.221893       10.903644
  H           11.114246        7.503838        2.029089
  H            4.372721       -5.862020       10.962653
  H           -2.589143        8.456181        2.095703
  H            4.656966        3.204147        6.826953
  H           -0.045224        3.670268        8.406030
  H           12.440918       -1.828167        6.378540
  H           -2.327232        0.331938       12.984230
  H            5.927385        5.077403        0.154584
  H            3.761426       -2.506617        5.844726
  H            0.745560        9.314262        7.279431
  H           -6.059913        3.661213        9.037490
  H           10.641247        3.393379        4.132134
  H           -3.728587        2.298708        5.688870
  H           -1.703972       10.903386        4.124923
  H            1.733452       12.300945        2.609537
  H            8.667985       -0.517063        3.355831
  H            4.606680        7.297451        2.297825
  H            0.215487        0.134620       10.719246
  H            7.415332        0.218685        9.728366
  H            5.955496       -0.302534       10.483299
  H            7.828656        4.670987        8.632537
  H            7.237651        5.011538        7.017709
  H            7.098177       -4.749977        9.534320
  H            5.784030       -3.695029       10.000157
  H            1.411485        1.911548        9.356085
  H            0.863759        5.227040        6.648574
  H            5.741023        9.069333        3.845371
  H            7.999135        8.609993        4.744623
  C            8.422325        4.659191        4.703706
  C           -3.853328        2.346718        8.423899
  C            3.961595       -2.592630        8.476524
  C            0.513540        9.443357        4.621320
  C            9.344336        4.085192        5.693105
  C           -4.811926        2.940026        7.452907
  C            4.917315       -3.172748        7.523270
  C           -0.392661       10.057561        5.626884
  C            9.101042        4.149763        7.100999
  C           -4.599256        2.829342        6.063538
  C            6.075072       -3.893771        7.969088
  C           -1.516055       10.792469        5.189090
  C           -0.124811        9.894234        6.980095
  C            4.657405       -3.047644        6.140915
  C           10.498947        3.426687        5.210054
  C           -5.932679        3.593124        7.958691
  C            2.813684        4.307411        6.639567
  C            1.802100        2.580168        8.590925
  C            6.161473        9.726276        4.605129
  C           -1.730084       -2.944720        6.528234
  C            8.715175        1.588330        0.011262
  C            1.839040       13.147429        0.088587
  C            6.684170        0.195343       12.990012
  C           -6.719779        1.271810       13.046845
  C            3.350517        5.224492        5.605606
  C           -1.145018       -2.033515        7.540248
  C            4.215985       -4.201651       13.101266
  C            1.796086       11.711651        0.049701
  C            5.408882       -0.466276       13.043122
  C           -5.332575        1.734605       13.064020
  C            1.482906        4.442604        7.078738
  C            3.125222        2.436827        8.154613
  C            5.424120       10.827594        5.058747
  C           -8.018869       10.319594        6.073436
  C            8.784652        0.919515        1.239780
  C           -2.508142        6.615249       11.963065
  C           -4.360552        7.730507        1.110303
  C           -7.351366        1.022025       11.821932
  C            7.441371        9.469644        5.112723
  C           12.991193       -2.694552        6.017481
  C            3.632637        3.298056        7.181208
  C            0.980621        3.578705        8.052889
  C            7.361766        0.489528       11.753548
  C           -3.089201        8.254946        1.152479
  C            4.438003       -6.388560       11.910676
  C            8.855538       -0.479663        1.318796
  N            8.938305       -1.077634        2.555968
  N            6.782516        0.288157       10.517426
  N            8.001283        4.757340        7.639127
  N            6.418775       -4.042078        9.284423
  O            7.234665        5.022637        5.076604
  O           -3.053924        1.423703        8.020113
  O            4.345224       -2.456407        9.695708
  O            0.426054        9.871897        3.422680
  O            1.318961        8.513079        5.002228
  O            2.776776       -2.264724        8.078087
  O            8.824398        4.755701        3.489805
  O           -3.903766        2.779752        9.624467
  O            6.156697        4.409127        2.505218
  O           -1.367975        1.993658       10.109628
  O            7.017801        6.727170        2.953185
  O           -3.056279        0.208461       10.609657
  O            1.659621       -2.837312       10.674383
  O            2.969458        9.121937        2.909279
  O            2.531624       -0.543378       10.208048
  O            1.322575        7.306972        2.398893
  O            4.575167        5.087631        5.244337
  O           -1.836144       -1.022528        7.923516
  O            4.066391       -3.610049       11.962095
  O            1.743514       11.006429        1.144350
  O            4.771026       -0.795498       11.956418
  O           -0.427504        9.094025        1.094098
  O            0.028867       -2.288059        7.991258
  O            2.574295        6.119616        5.117796
  O            9.199419        6.452785        1.083295
  O           -4.748114        1.988975       11.944029
  O            8.500254        3.672420        1.113292
  O           -2.542975        3.849240       12.015231
  O            4.269171        6.735574        3.019668
  O           -0.147093       -0.436062       10.017030
  O            6.748057        5.600086        0.071530
  O           -2.238358        1.302347       13.044892
  S            0.590041        0.007678       16.738277
  S           -1.124254        1.295929       18.588684
  F           -1.299022       -0.529345       14.932249
  F            0.058799       -2.174197       15.335493
  F           -1.492906       -1.671745       16.765149
  F           -3.673915        1.910860       18.885224
  F           -2.753814        2.878856       17.176171
  F           -3.266927        0.773442       17.083128
  O            1.192675       -0.795606       17.768714
  O            1.401435        0.467628       15.642746
  O           -0.759472        2.469798       19.338242
  O           -1.354014        0.063726       19.296740
  N           -0.303297        1.204528       17.239827
  C           -0.612905       -1.154344       15.902243
  C           -2.793747        1.740319       17.881528
  S           19.118603        1.699803        1.263198
  S           19.841823        3.242564       -0.999377
  F           20.510752        3.129293        3.034404
  F           20.696940        0.978744        3.263079
  F           21.748057        1.995372        1.661273
  F           21.331866        5.329643       -1.624454
  F           19.707943        5.812937       -0.270288
  F           21.463015        4.774562        0.468772
  O           19.406482        0.464415        0.584099
  O           18.024146        1.749131        2.195846
  O           18.934581        3.577577       -2.065936
  O           20.958096        2.378893       -1.283040
  N           19.060752        2.983240        0.351333
  C           20.608490        1.972880        2.359552
  C           20.624054        4.882440       -0.570796
  S            4.755470        8.601188       12.411021
  S            5.766158        6.013349       12.962386
  F            7.133563        9.792425       12.200494
  F            5.669227       10.897674       13.360652
  F            6.647851        9.162177       14.217686
  F            8.075192        4.779750       13.299201
  F            7.831434        5.610517       11.310515
  F            8.279051        6.916492       12.983470
  O            3.809734        8.524572       13.492661
  O            4.386301        9.291715       11.203963
  O            5.202238        4.800778       12.428966
  O            5.699078        6.244468       14.381731
  N            5.458106        7.246212       12.020637
  C            6.135918        9.664290       13.089626
  C            7.590123        5.829160       12.610266
  S           10.725533       18.572562        7.295389
  S           12.011470       17.293811        9.471064
  F           11.589035       21.031956        7.864979
  F            9.487135       20.912498        7.336239
  F           10.153277       20.257579        9.293661
  F           13.526295       17.886925       11.549614
  F           14.470224       18.332756        9.648378
  F           12.906266       19.627175       10.412071
  O            9.480419       17.903366        7.563906
  O           11.099461       18.837944        5.931625
  O           12.645990       16.004410        9.383324
  O           10.843146       17.437668       10.299787
  N           11.982275       18.010449        8.061342
  C           10.479504       20.287927        7.997757
  C           13.303147       18.351436       10.306385
  S           24.875878       -3.019013       11.275732
  S           25.269689       -5.823022       11.345370
  F           23.039456       -2.945269       13.209849
  F           22.568583       -1.734870       11.470586
  F           22.348469       -3.890877       11.384869
  F           24.364183       -7.955804       12.609548
  F           25.351742       -6.538894       13.921629
  F           23.355342       -6.122637       13.182827
  O           24.763758       -3.012897        9.841289
  O           25.506500       -1.906369       11.934853
  O           26.555078       -6.456849       11.207862
  O           24.280788       -6.028996       10.319648
  N           25.417669       -4.354110       11.912941
  C           23.106713       -2.902600       11.869728
  C           24.545540       -6.645380       12.856693
  S           26.915510        0.687358       16.465588
  S           25.917156        3.281904       17.007822
  F           24.533588       -0.462250       16.114105
  F           25.919604       -1.609064       17.328847
  F           24.924692        0.127982       18.163703
  F           23.612821        4.546703       17.246931
  F           23.945647        3.743901       15.259672
  F           23.393108        2.418785       16.885549
  O           27.805581        0.731639       17.595210
  O           27.335604        0.010319       15.267572
  O           26.525976        4.493650       16.524209
  O           25.907852        3.027187       18.424681
  N           26.254406        2.059421       16.062552
  C           25.486145       -0.364228       17.055005
  C           24.116646        3.500777       16.566209
  S           22.794221        2.673760        5.926136
  S           20.882787        1.579892        7.707223
  F           22.026014        5.212549        6.214400
  F           22.396011        4.608216        4.162644
  F           20.582397        3.976301        5.170441
  F           18.878310        2.355528        9.239318
  F           20.787391        3.191332        9.840408
  F           19.763087        3.972853        8.095491
  O           22.503424        1.688656        4.918544
  O           24.145550        3.143654        6.078494
  O           21.163032        0.507422        8.625995
  O           19.953014        1.348462        6.632784
  N           22.197596        2.385690        7.355510
  C           21.888757        4.201766        5.341620
  C           20.040711        2.854570        8.780007
  S           22.556844       -3.033713       18.318596
  S           24.936949       -4.466011       17.765403
  F           21.016276       -5.180729       18.686918
  F           20.117588       -3.621658       17.473049
  F           21.651729       -4.903704       16.632253
  F           25.784144       -6.954597       17.528664
  F           25.063653       -6.482091       19.519165
  F           23.652594       -6.803129       17.903444
  O           22.746496       -2.168178       17.184967
  O           21.970136       -2.499422       19.518767
  O           26.238603       -4.073615       18.239315
  O           24.675226       -4.435766       16.350114
  N           23.797048       -3.920118       18.716384
  C           21.270859       -4.262308       17.741425
  C           24.845139       -6.275891       18.213362
  S           -3.604170        0.750757       -0.118992
  S           -1.356806        2.340874        0.546802
  F           -5.356091        2.761376       -0.201918
  F           -6.059989        0.992436        0.840771
  F           -4.630308        2.316933        1.792549
  F           -0.746698        4.858304        1.053914
  F           -1.482588        4.546065       -0.962379
  F           -2.864715        4.538728        0.709262
  O           -3.295000       -0.214985        0.901787
  O           -4.175280        0.300788       -1.360549
  O           -0.039455        2.136748        0.002936
  O           -1.568174        2.123722        1.954149
  N           -2.468995        1.795904       -0.436956
  C           -4.983343        1.771254        0.624511
  C           -1.637541        4.171759        0.314834
  S           14.861484       -6.320043       17.546480
  S           15.130549       -3.886246       16.122880
  F           13.907192       -7.739207       15.498557
  F           12.860971       -8.046115       17.375535
  F           12.531896       -6.232125       16.233033
  F           14.684802       -2.897708       13.716440
  F           16.158549       -4.489061       13.727855
  F           14.051293       -4.961692       13.929853
  O           14.210809       -5.667863       18.651704
  O           15.743340       -7.426978       17.805569
  O           16.237504       -2.979902       16.284314
  O           13.817151       -3.456882       16.526724
  N           15.547228       -5.365364       16.497482
  C           13.459711       -7.120488       16.602738
  C           15.003171       -4.081987       14.270794
  S          -10.682833        5.511356        3.960685
  S           -8.345173        4.664538        2.603981
  F          -12.412698        4.419797        2.247572
  F          -12.905636        6.442013        2.863589
  F          -11.315428        6.101287        1.428560
  F           -7.642218        3.345600        0.428410
  F           -8.755488        2.133510        1.841185
  F           -9.787658        3.602218        0.623715
  O          -10.184165        6.853709        4.100865
  O          -11.484716        4.947333        5.013759
  O           -7.158622        4.191105        3.267930
  O           -8.280470        5.895847        1.860914
  N           -9.628185        4.435401        3.500147
  C          -11.889362        5.621849        2.536464
  C           -8.661030        3.358984        1.307630
  S          -10.420911       -6.602532        0.282719
  S           -9.221667       -8.985874        1.233453
  F           -9.751612       -6.952834       -2.276190
  F           -9.433003       -4.940801       -1.526503
  F           -8.063689       -6.532083       -0.981557
  F           -7.823424      -11.036832        0.336047
  F           -9.810707      -10.914508       -0.524307
  F           -8.255888       -9.556462       -1.189860
  O           -9.829164       -5.817920        1.333649
  O          -11.739338       -6.267224       -0.185707
  O           -9.806057       -9.832037        2.241107
  O           -7.993079       -8.297508        1.532084
  N          -10.334042       -8.164992        0.465005
  C           -9.349677       -6.246178       -1.207850
  C           -8.761196      -10.186129       -0.120104
  S           16.627770       20.499836        5.265981
  S           14.499141       18.928100        6.276420
  F           18.558518       19.274916        6.640925
  F           18.692283       21.441438        6.630448
  F           17.218290       20.450594        7.875332
  F           14.081462       16.952493        7.976234
  F           15.344140       16.390092        6.304764
  F           16.148609       17.607739        7.909406
  O           15.909365       21.724657        5.498235
  O           17.484964       20.396765        4.115025
  O           13.391190       18.469568        5.479512
  O           14.249673       19.871913        7.334456
  N           15.778938       19.177608        5.381096
  C           17.835309       20.404864        6.690465
  C           15.060928       17.382359        7.159506
  S            4.141198       20.020426        3.703170
  S            3.480456       17.282081        3.998609
  F            6.758628       19.641296        3.351016
  F            6.254742       21.260451        4.706100
  F            6.074861       19.200653        5.361112
  F            4.653866       14.918255        4.046421
  F            4.862172       15.938190        2.143580
  F            6.048967       16.567689        3.846506
  O            3.369250       20.390333        4.859672
  O            4.196015       20.917883        2.579929
  O            2.297039       16.677480        3.444665
  O            3.614587       17.361510        5.429747
  N            3.910228       18.557090        3.167114
  C            5.907169       20.019143        4.317720
  C            4.842823       16.120055        3.470960
  S           -1.229214       -3.019438       -4.498442
  S           -0.559483       -5.019231       -2.607758
  F            1.136279       -1.786141       -4.452535
  F           -0.577535       -0.455221       -4.394970
  F           -0.001691       -1.561344       -2.620411
  F            1.463122       -5.752213       -1.078492
  F            1.910616       -5.859737       -3.198079
  F            1.846554       -3.935043       -2.200001
  O           -2.476379       -2.734098       -3.840115
  O           -1.158997       -2.939529       -5.933290
  O           -0.970212       -6.394995       -2.714748
  O           -1.072575       -4.223880       -1.523042
  N           -0.494859       -4.332618       -4.031178
  C           -0.099798       -1.633201       -3.951547
  C            1.271004       -5.143727       -2.263405
  S          -14.840381        3.789800       11.869458
  S          -16.165666        6.282382       11.639120
  F          -15.604066        2.845169        9.493927
  F          -15.768499        1.423985       11.126415
  F          -17.223076        3.020271       10.925826
  F          -17.720461        7.591617        9.955265
  F          -15.754835        7.160674        9.145902
  F          -17.235641        5.582767        9.294673
  O          -15.349129        3.577448       13.198486
  O          -13.516732        3.329811       11.543169
  O          -15.609461        7.531920       12.088744
  O          -17.337434        5.767043       12.297787
  N          -15.024273        5.243953       11.291808
  C          -15.928103        2.717882       10.790486
  C          -16.742344        6.668544        9.906180
  S            6.254113      -13.578728       15.476256
  S            8.984183      -13.675339       14.728070
  F            6.097775      -10.919402       15.625368
  F            5.156590      -11.973355       17.273148
  F            7.317458      -11.811265       17.180728
  F           11.013158      -12.045736       14.287045
  F            9.365838      -11.753585       12.906666
  F            9.215566      -11.023791       14.943705
  O            6.435280      -14.590218       16.483381
  O            5.018835      -13.535308       14.739842
  O            9.518556      -14.594724       13.757479
  O            9.398956      -13.796773       16.101269
  N            7.449059      -13.399516       14.465295
  C            6.215870      -11.978189       16.442248
  C            9.671574      -12.027871       14.182080
  S          -11.412728       11.399640        7.065290
  S          -13.109798        9.193588        6.540230
  F          -13.302618       13.268842        6.834870
  F          -11.434057       13.745970        5.838553
  F          -12.795387       12.303822        4.960399
  F          -15.629651        8.685542        5.940997
  F          -15.383693        9.617078        7.884245
  F          -15.188650       10.805231        6.080094
  O          -10.413528       10.922758        6.146369
  O          -10.996648       12.074665        8.265841
  O          -13.025810        7.933624        7.231828
  O          -12.799381        9.236322        5.135142
  N          -12.548112       10.371512        7.433953
  C          -12.294437       12.748642        6.117074
  C          -14.927909        9.608528        6.624254
  S           24.403289       18.756496       18.663267
  S           23.250574       19.090065       16.097652
  F           26.702375       17.710091       17.804237
  F           25.825964       16.689215       19.507626
  F           24.991571       16.407130       17.525612
  F           23.813813       18.635940       13.559270
  F           25.167173       20.048387       14.496221
  F           25.347750       17.929025       14.920968
  O           23.206365       18.152281       19.185311
  O           25.193774       19.600660       19.519202
  O           22.464564       20.233404       15.713162
  O           22.612235       17.801838       16.171486
  N           24.258496       19.457609       17.259867
  C           25.541873       17.307602       18.345998
  C           24.473401       18.919864       14.697477
  S           -8.955528        8.491115       -1.086493
  S           -6.722148       10.154427       -0.568990
  F          -10.763959       10.452480       -1.122718
  F          -11.365890        8.689344       -0.008784
  F           -9.927236       10.072026        0.841293
  F           -6.156767       12.697777       -0.146420
  F           -6.983894       12.321247       -2.115824
  F           -8.279815       12.314835       -0.376497
  O           -8.569201        7.556921       -0.062643
  O           -9.575547        7.998601       -2.287787
  O           -5.428590        9.973004       -1.174517
  O           -6.856702        9.963290        0.851510
  N           -7.866839        9.558463       -1.483456
  C          -10.323225        9.491253       -0.295637
  C           -7.064327       11.971630       -0.824822
  S          -19.282287       -4.580172       -4.713589
  S          -19.177091       -1.761162       -4.967591
  F          -16.655430       -4.932684       -4.406914
  F          -17.601704       -6.332827       -5.769259
  F          -17.224073       -4.291993       -6.398985
  F          -17.405396        0.194834       -5.012592
  F          -17.453533       -0.872279       -3.124890
  F          -16.509094       -1.774729       -4.856458
  O          -20.143365       -4.708441       -5.859157
  O          -19.456676       -5.475770       -3.601117
  O          -20.142623       -0.866020       -4.385062
  O          -19.091543       -1.852187       -6.401765
  N          -19.097967       -3.117557       -4.157857
  C          -17.592266       -5.049869       -5.361310
  C          -17.541948       -1.021706       -4.453514
  S           25.112062        6.605075       11.078801
  S           22.792833        6.601870       12.704706
  F           24.015781        5.304337        9.023335
  F           25.998782        4.614673        9.574598
  F           24.285138        4.076664       10.790382
  F           20.303439        5.725404       12.665031
  F           20.721215        7.184631       11.115649
  F           21.446268        5.150456       10.912808
  O           25.944005        6.160977       12.165485
  O           25.651709        7.524399       10.112506
  O           22.382116        7.715498       13.519576
  O           23.197215        5.380645       13.350883
  N           23.665952        7.086189       11.477989
  C           24.826746        5.060080       10.064940
  C           21.233225        6.143994       11.786701
  S          -15.893874       19.200840        0.933686
  S          -18.211149       18.020849       -0.188925
  F          -15.598646       17.423155        2.901266
  F          -15.349466       19.492232        3.508431
  F          -17.334218       18.702336        3.132949
  F          -19.844941       15.990500        0.229710
  F          -17.811822       15.375773       -0.209607
  F          -18.302807       16.180543        1.743849
  O          -16.478942       20.515003        0.903633
  O          -14.483095       19.055312        0.691551
  O          -18.454255       17.917729       -1.604246
  O          -19.072320       18.858604        0.604176
  N          -16.661224       18.092596        0.118196
  C          -16.063935       18.669057        2.718235
  C          -18.549127       16.292870        0.431255
  S            7.363963       10.647838       -2.094911
  S            7.469327       12.597106       -0.042680
  F            4.862731        9.858992       -1.604754
  F            6.269969        8.241404       -1.943743
  F            6.273143        9.305101       -0.053583
  F            5.961691       13.571600        1.892324
  F            5.137095       13.906749       -0.085600
  F            5.028183       11.936355        0.814620
  O            8.638389       10.097638       -1.716294
  O            7.000635       10.683119       -3.486619
  O            8.104988       13.880878       -0.186675
  O            8.023967       11.648171        0.887026
  N            6.998333       12.035257       -1.444189
  C            6.120881        9.451783       -1.373437
  C            5.799195       13.023531        0.673965
  S          -17.572203       12.225691        2.536879
  S          -17.522581        9.464412        3.165587
  F          -20.145697       12.602849        3.131499
  F          -19.500952       13.532822        1.279129
  F          -19.826601       11.390118        1.362417
  F          -19.146605        7.554886        3.992089
  F          -18.900390        9.153292        5.437406
  F          -20.141891        9.458064        3.685122
  O          -16.894830       12.011363        1.285694
  O          -17.300891       13.424246        3.285183
  O          -16.425441        8.812350        3.831896
  O          -17.818745        9.106584        1.802978
  N          -17.576016       11.002634        3.529941
  C          -19.365374       12.438508        2.051519
  C          -19.013592        8.887073        4.129086
  S          -11.585896      -11.894941        7.910641
  S          -12.155686      -13.541438        5.677529
  F           -9.731777      -10.408446        6.697683
  F           -9.200383      -11.059346        8.699125
  F           -9.117854      -12.459074        7.044400
  F          -11.375983      -13.893736        3.180571
  F          -12.260508      -11.945017        3.533522
  F          -10.248259      -12.363677        4.226549
  O          -11.486063      -13.027521        8.792417
  O          -12.139126      -10.664045        8.409575
  O          -13.479742      -13.979763        5.320294
  O          -11.190732      -14.521848        6.101932
  N          -12.205514      -12.186345        6.491764
  C           -9.807824      -11.436028        7.558240
  C          -11.471927      -12.886990        4.068513
  S           11.653069       -1.720558       17.438076
  S            9.105311       -2.633748       16.602966
  F           10.755312        0.338966       18.877202
  F           12.458869        0.795609       17.611821
  F           10.484479        0.583004       16.739613
  F            6.555728       -1.994006       16.842143
  F            7.490301       -2.504617       18.731670
  F            7.891252       -0.583358       17.808247
  O           12.183595       -1.803434       16.103195
  O           12.507771       -2.030658       18.553166
  O            8.742126       -4.023696       16.508022
  O            9.173883       -1.850194       15.397230
  N           10.258745       -2.418447       17.663613
  C           11.307154        0.101461       17.676648
  C            7.688582       -1.884777       17.560401
  S          -18.823572       -9.274543       10.262778
  S          -16.730246       -9.743823        8.413409
  F          -17.267662       -8.333047       12.215064
  F          -18.777125       -9.750178       12.867046
  F          -17.004223      -10.451236       11.832879
  F          -14.103428       -9.545600        8.247941
  F          -15.088838       -7.635036        8.536348
  F          -14.885478       -9.011878       10.199978
  O          -19.396806      -10.573697       10.030752
  O          -19.695014       -8.159249       10.521255
  O          -16.833473       -9.483948        7.001078
  O          -16.584931      -11.104632        8.860107
  N          -17.718564       -8.821958        9.235072
  C          -17.906017       -9.465747       11.880759
  C          -15.117513       -8.929132        8.882591
  S            6.768728       -4.496361       -3.276586
  S            4.708413       -2.572826       -3.555005
  F            8.621358       -3.119077       -4.614324
  F            8.518890       -5.226477       -5.124412
  F            7.009162       -3.855803       -5.863424
  F            4.285977       -0.216950       -4.667770
  F            5.813140       -0.174139       -3.128158
  F            6.260038       -1.019529       -5.075029
  O            5.896919       -5.571008       -3.670687
  O            7.777315       -4.740781       -2.280036
  O            3.772662       -2.242016       -2.512026
  O            4.219429       -3.208931       -4.750297
  N            6.061017       -3.127029       -2.950805
  C            7.779410       -4.146205       -4.810287
  C            5.312652       -0.904201       -4.134096
  S          -12.338763        0.726214        1.945620
  S          -10.595569       -1.274991        2.934991
  F          -14.072383        0.614672        3.970666
  F          -14.985714        0.695527        2.003152
  F          -14.088588       -1.148752        2.708816
  F          -10.379614       -2.930216        4.979604
  F          -10.314376       -0.841271        5.559707
  F          -12.203456       -1.755714        5.012091
  O          -12.355671        0.142020        0.630832
  O          -12.391096        2.157954        2.077841
  O           -9.160223       -1.204162        2.847601
  O          -11.286302       -2.299913        2.196831
  N          -11.237938        0.170353        2.926058
  C          -13.958291        0.181557        2.705098
  C          -10.895110       -1.713487        4.724616
  S           14.993327       11.824341        4.338358
  S           17.606971       12.828308        4.766511
  F           13.784666       14.202316        4.283007
  F           12.756172       12.693429        5.456582
  F           14.537720       13.650589        6.240224
  F           18.852114       15.130486        5.107753
  F           17.902742       14.951206        3.165843
  F           16.699558       15.334462        4.929411
  O           15.138246       10.842321        5.379928
  O           14.231792       11.493515        3.163317
  O           18.786503       12.289125        4.141327
  O           17.462721       12.711256        6.194078
  N           16.320051       12.546731        3.891132
  C           13.969461       13.175304        5.127615
  C           17.764179       14.664208        4.467311
  S          -18.720485       -0.017362       16.803285
  S          -17.394540        1.874151       15.164246
  F          -18.530024        1.387328       19.063652
  F          -18.059083       -0.721723       19.268446
  F          -16.630917        0.625147       18.346249
  F          -16.204383        4.222551       15.352368
  F          -18.313276        4.289781       15.854878
  F          -16.890323        3.450097       17.260170
  O          -17.939581       -1.105515       16.277598
  O          -20.098291       -0.245636       17.149182
  O          -17.795657        2.191233       13.818350
  O          -16.124815        1.229849       15.376687
  N          -18.618875        1.341157       16.011984
  C          -17.933458        0.347276       18.459773
  C          -17.200077        3.551479       15.960183
  S           25.124701       -8.971054        7.272769
  S           26.957132      -11.090919        6.859527
  F           23.282186      -10.433911        8.531292
  F           22.490312       -9.080219        7.030534
  F           23.486258      -10.909477        6.425495
  F           27.176458      -13.682946        7.306896
  F           27.037794      -12.509783        9.125941
  F           25.265996      -12.861536        7.925227
  O           25.236978       -8.531767        5.907246
  O           24.949735       -7.992058        8.312507
  O           28.384846      -10.953889        6.984931
  O           26.398252      -11.376503        5.563938
  N           26.202935      -10.018492        7.744300
  C           23.509609       -9.912326        7.315358
  C           26.582187      -12.614931        7.870252
  S           -9.753263      -10.713181       13.279783
  S           -7.751248      -11.998522       11.742827
  F          -11.813704      -11.523307       11.790833
  F          -11.879786       -9.430164       12.361977
  F          -10.529287      -10.086473       10.796865
  F           -7.516513      -13.478225        9.569758
  F           -8.673664      -14.434931       11.135064
  F           -9.552557      -12.838133        9.959268
  O           -9.015941       -9.478053       13.312163
  O          -10.529102      -11.097383       14.428942
  O           -6.603979      -12.658378       12.309603
  O           -7.548870      -10.818388       10.943588
  N           -8.955788      -11.971643       12.767570
  C          -11.061498      -10.426685       11.974881
  C           -8.421684      -13.260351       10.541551
  S           10.716586       -8.393575        2.655974
  S           11.088644       -9.751640        0.198407
  F           11.670593       -6.044253        1.825767
  F           12.377099       -6.665695        3.781906
  F           13.181414       -7.590785        1.992647
  F           12.030832       -9.309806       -2.227271
  F           10.306730       -8.085972       -1.743364
  F           12.246258       -7.609237       -0.897396
  O           11.316593       -9.465679        3.404852
  O            9.622452       -7.660121        3.234780
  O           10.151869      -10.700829       -0.344144
  O           12.390035      -10.214729        0.603855
  N           10.364620       -8.721613        1.155785
  C           12.066795       -7.104579        2.547571
  C           11.431130       -8.615498       -1.242651
  S           -7.271691       18.429629       11.456540
  S           -8.559320       16.915795        9.438442
  F           -4.864032       17.323053       11.144513
  F           -5.493193       17.549686       13.209607
  F           -6.342522       15.976033       11.982244
  F           -8.023774       15.000041        7.703528
  F           -6.891045       16.815570        7.349632
  F           -6.343369       15.497166        8.982596
  O           -8.330508       18.180969       12.398511
  O           -6.601698       19.702775       11.474172
  O           -9.539042       17.455504        8.531949
  O           -8.970403       15.918067       10.391336
  N           -7.584037       18.046186        9.960724
  C           -5.919903       17.244083       11.969842
  C           -7.378627       16.015175        8.307243
  S            4.171625       18.186662       -3.195552
  S            2.201463       16.153114       -3.270000
  F            2.461629       20.228689       -3.038296
  F            4.091096       20.521148       -4.442263
  F            2.437423       19.214744       -4.954939
  F           -0.424744       15.888760       -3.271962
  F            0.342085       16.796975       -1.457690
  F            0.232075       17.956429       -3.287519
  O            4.886955       17.613501       -4.304616
  O            4.910695       18.821368       -2.136766
  O            2.322484       14.892601       -2.584923
  O            2.187119       16.162333       -4.709502
  N            3.058877       17.273605       -2.555103
  C            3.227320       19.612034       -3.952474
  C            0.496837       16.741495       -2.787488
  S           -2.093206       -6.254112       15.886452
  S           -1.185963       -8.801414       15.043504
  F           -0.121718       -5.816777       17.630203
  F           -2.102300       -5.311153       18.360588
  F           -1.489193       -7.387733       18.233775
  F            0.758126      -10.515974       15.541149
  F            1.466466       -8.628090       14.742015
  F            0.817931       -8.755662       16.807890
  O           -3.441317       -6.727275       16.056594
  O           -1.874885       -4.911727       15.416942
  O           -1.233784       -9.259732       13.679492
  O           -2.002136       -9.463485       16.027364
  N           -1.122060       -7.222462       15.111062
  C           -1.408268       -6.200230       17.625499
  C            0.565608       -9.184198       15.563348
  S          -13.821831       10.140873       -4.951685
  S          -11.081586       10.844488       -5.087274
  F          -14.325335       11.412897       -2.661024
  F          -15.169804        9.417428       -2.790621
  F          -13.046325        9.676695       -2.433157
  F           -9.268619       12.169010       -3.699600
  F          -10.898963       13.421090       -4.391509
  F          -11.201729       12.073095       -2.719399
  O          -13.540696        8.760475       -5.244429
  O          -15.030348       10.733709       -5.459754
  O          -10.404654       11.205073       -6.305720
  O          -10.694781        9.634380       -4.410164
  N          -12.631183       11.145363       -5.187083
  C          -14.095048       10.166018       -3.102077
  C          -10.597596       12.208303       -3.908069
  S          -14.215582      -12.049739       15.160120
  S          -15.254031      -10.941583       17.550939
  F          -15.753078      -14.230265       15.170349
  F          -13.666314      -14.598639       14.699670
  F          -14.264332      -14.203805       16.746777
  F          -17.014498      -11.503232       19.435655
  F          -17.908817      -11.261859       17.474432
  F          -16.813243      -13.072233       17.950851
  O          -12.857326      -11.827770       15.579770
  O          -14.551324      -11.910698       13.767983
  O          -15.506180       -9.536949       17.741452
  O          -14.229774      -11.576163       18.338760
  N          -15.322397      -11.329048       16.018968
  C          -14.495108      -13.871964       15.472675
  C          -16.839778      -11.743382       18.123030
  S           -5.851926       20.847466        3.881050
  S           -7.526579       18.688758        3.134111
  F           -4.377327       19.468402        5.625306
  F           -5.002796       21.427115        6.321047
  F           -6.422538       19.788213        6.271079
  F           -7.908128       16.140606        3.706989
  F           -5.956700       16.541512        2.849278
  F           -6.363515       17.071838        4.912761
  O           -6.973461       21.731656        4.055989
  O           -4.615932       21.375288        3.367411
  O           -7.971434       18.446850        1.786352
  O           -8.500122       19.044227        4.133267
  N           -6.161704       19.487925        3.147743
  C           -5.394422       20.344633        5.622939
  C           -6.890747       17.021217        3.681641
  S           -9.938957        7.563098       16.392872
  S           -8.738680        6.967898       13.897382
  F           -8.012037        9.198273       17.248367
  F           -8.715978        7.778095       18.731397
  F           -7.406160        7.119377       17.133076
  F           -6.549928        7.520328       12.529525
  F           -7.775856        9.265776       12.923196
  F           -6.573337        8.405438       14.510167
  O          -10.211434        6.175292       16.657418
  O          -10.877834        8.559218       16.835997
  O           -9.470908        6.841108       12.664241
  O           -8.087880        5.804592       14.441106
  N           -9.501810        7.904457       14.918277
  C           -8.425128        7.933349       17.426102
  C           -7.335511        8.113792       13.447045
  S           20.220013       -7.068105       -2.153196
  S           21.043278       -7.920954        0.419213
  F           17.600553       -7.292199       -1.698333
  F           18.256501       -8.084964       -3.609635
  F           18.637860       -9.194461       -1.785424
  F           20.002224       -8.768982        2.691635
  F           19.425368       -6.738803        2.191557
  F           18.521240       -8.411059        1.147132
  O           21.161532       -7.938668       -2.805804
  O           19.933370       -5.783318       -2.733937
  O           22.139988       -7.336274        1.146019
  O           21.153123       -9.286449       -0.023295
  N           20.420774       -6.885226       -0.601324
  C           18.587424       -7.966085       -2.310078
  C           19.663897       -7.952612        1.676618
  S          -13.524118       19.679328       17.257188
  S          -14.017234       16.892442       17.145375
  F          -15.797871       20.317202       18.498903
  F          -15.277472       21.619431       16.842037
  F          -16.077424       19.640383       16.457836
  F          -15.878962       15.145460       17.815354
  F          -15.022905       16.178900       19.519359
  F          -16.437521       17.200286       18.230817
  O          -13.138638       19.724549       15.871694
  O          -12.856239       20.537242       18.199539
  O          -13.006766       15.889186       17.358220
  O          -14.616161       17.008862       15.841462
  N          -13.645790       18.239854       17.885812
  C          -15.273038       20.340816       17.263484
  C          -15.416003       16.332870       18.247685
  S            9.682314       14.562693       17.283989
  S            9.349531       17.373853       17.379024
  F            7.830937       14.123854       15.413557
  F            7.768523       12.743503       17.087640
  F            7.014320       14.764008       17.317639
  F            7.872169       19.267777       16.284811
  F            9.120026       18.221475       14.852133
  F            7.333138       17.270428       15.631396
  O            9.646563       14.452634       18.718159
  O           10.540620       13.684504       16.534191
  O           10.437782       18.307057       17.512109
  O            8.392740       17.265916       18.449239
  N            9.836248       16.023549       16.714552
  C            7.973075       14.029329       16.745146
  C            8.366879       18.062136       15.948841
  S           12.765855       21.040099       -3.061173
  S           10.566691       20.651642       -1.318997
  F           12.227989       18.971321       -4.657903
  F           14.317346       19.163709       -4.101671
  F           12.879287       18.395280       -2.671404
  F            8.541358       18.996230       -0.966174
  F            8.449225       20.071688       -2.847495
  F            9.842520       18.426929       -2.606230
  O           13.682000       21.195351       -1.962624
  O           12.966631       21.814706       -4.256905
  O            9.779093       21.723995       -0.768888
  O           11.361207       19.846353       -0.428654
  N           11.236247       21.081103       -2.686109
  C           13.055434       19.289037       -3.649608
  C            9.281066       19.472992       -1.984365
  S           24.925683       -2.235469        0.444056
  S           23.954685       -2.438845       -2.208905
  F           22.739626       -3.214902        1.619026
  F           23.566027       -1.450603        2.576172
  F           22.450014       -1.260119        0.726201
  F           21.781906       -3.183255       -3.509570
  F           22.718441       -4.802508       -2.411669
  F           21.574339       -3.294324       -1.352839
  O           25.383626       -0.887747        0.233891
  O           25.685317       -3.109351        1.298098
  O           24.759892       -2.850595       -3.329161
  O           23.453387       -1.089825       -2.172825
  N           24.519711       -3.029404       -0.854754
  C           23.323035       -2.028705        1.384852
  C           22.424439       -3.495931       -2.369145
  S            7.150671        3.119489       18.320704
  S            4.375705        2.949508       17.779343
  F            7.209503        5.765597       18.657362
  F            8.827711        4.972845       17.447085
  F            6.834540        5.153536       16.611152
  F            2.269504        4.520900       17.531368
  F            3.137998        4.561929       19.518450
  F            4.114913        5.604917       17.886726
  O            7.479353        2.284813       17.195751
  O            7.940911        3.024548       19.519291
  O            3.525322        1.895893       18.268847
  O            4.603688        3.055616       16.361873
  N            5.627987        3.154633       18.723510
  C            7.515176        4.852839       17.721571
  C            3.430167        4.499770       18.212249
  S           -5.088647       -5.865113       10.016098
  S           -7.829518       -5.256142       10.389167
  F           -5.468082       -8.374473        9.192791
  F           -3.867000       -8.130363       10.638048
  F           -5.935379       -8.062232       11.287147
  F          -10.196134       -6.408315       10.193027
  F           -9.150145       -6.274822        8.297625
  F           -8.546876       -7.751935        9.766950
  O           -4.733377       -5.315927       11.297664
  O           -4.175702       -5.720612        8.913486
  O           -8.423943       -3.989558       10.049617
  O           -7.770353       -5.646381       11.773606
  N           -6.543887       -5.534732        9.510944
  C           -5.102062       -7.712905       10.302127
  C           -8.986797       -6.495856        9.609056
  S           12.678401       10.701094       12.628508
  S            9.990211       11.581253       12.482366
  F           12.848922       10.760315       15.290482
  F           14.559184       11.607790       14.256745
  F           12.703244       12.723270       14.380661
  F            8.028847       12.344784       14.075137
  F            8.637196       10.287311       14.393224
  F            9.874129       11.909662       15.129895
  O           13.098586       11.633190       11.616147
  O           13.302052        9.406056       12.692043
  O            9.023890       11.058862       11.551666
  O           10.403290       12.954572       12.356600
  N           11.121436       10.517882       12.784545
  C           13.217572       11.498550       14.231532
  C            9.089729       11.517732       14.116336
