         874
  Built with Packmol                                             
  Ti          -2.868335        2.115442       11.265214
  Ti           7.802788        5.383210        1.844391
  Ti           1.352572       -1.673500        9.417113
  Ti           2.511792        7.542652        3.648414
  Ti           1.444672        9.187418        1.751989
  Ti           3.259458       -1.864257       11.359530
  Ti          -1.869782        0.416024        9.366140
  Ti           5.815984        5.614284        3.703281
  H            3.746896        1.652626        8.583439
  H           -7.024875       10.142785        6.478257
  H            4.431630       11.010612        4.650438
  H           -2.503694        6.028051       11.048460
  H            8.748737        1.507342        2.155250
  H           -6.801542        1.221893       10.903644
  H           11.114246        7.503838        2.029089
  H            4.372721       -5.862020       10.962653
  H           -2.589143        8.456181        2.095703
  H            4.656966        3.204147        6.826953
  H           -0.045224        3.670268        8.406030
  H           12.440918       -1.828167        6.378540
  H           -2.327232        0.331938       12.984230
  H            5.927385        5.077403        0.154584
  H            3.761426       -2.506617        5.844726
  H            0.745560        9.314262        7.279431
  H           -6.059913        3.661213        9.037490
  H           10.641247        3.393379        4.132134
  H           -3.728587        2.298708        5.688870
  H           -1.703972       10.903386        4.124923
  H            1.733452       12.300945        2.609537
  H            8.667985       -0.517063        3.355831
  H            4.606680        7.297451        2.297825
  H            0.215487        0.134620       10.719246
  H            7.415332        0.218685        9.728366
  H            5.955496       -0.302534       10.483299
  H            7.828656        4.670987        8.632537
  H            7.237651        5.011538        7.017709
  H            7.098177       -4.749977        9.534320
  H            5.784030       -3.695029       10.000157
  H            1.411485        1.911548        9.356085
  H            0.863759        5.227040        6.648574
  H            5.741023        9.069333        3.845371
  H            7.999135        8.609993        4.744623
  C            8.422325        4.659191        4.703706
  C           -3.853328        2.346718        8.423899
  C            3.961595       -2.592630        8.476524
  C            0.513540        9.443357        4.621320
  C            9.344336        4.085192        5.693105
  C           -4.811926        2.940026        7.452907
  C            4.917315       -3.172748        7.523270
  C           -0.392661       10.057561        5.626884
  C            9.101042        4.149763        7.100999
  C           -4.599256        2.829342        6.063538
  C            6.075072       -3.893771        7.969088
  C           -1.516055       10.792469        5.189090
  C           -0.124811        9.894234        6.980095
  C            4.657405       -3.047644        6.140915
  C           10.498947        3.426687        5.210054
  C           -5.932679        3.593124        7.958691
  C            2.813684        4.307411        6.639567
  C            1.802100        2.580168        8.590925
  C            6.161473        9.726276        4.605129
  C           -1.730084       -2.944720        6.528234
  C            8.715175        1.588330        0.011262
  C            1.839040       13.147429        0.088587
  C            6.684170        0.195343       12.990012
  C           -6.719779        1.271810       13.046845
  C            3.350517        5.224492        5.605606
  C           -1.145018       -2.033515        7.540248
  C            4.215985       -4.201651       13.101266
  C            1.796086       11.711651        0.049701
  C            5.408882       -0.466276       13.043122
  C           -5.332575        1.734605       13.064020
  C            1.482906        4.442604        7.078738
  C            3.125222        2.436827        8.154613
  C            5.424120       10.827594        5.058747
  C           -8.018869       10.319594        6.073436
  C            8.784652        0.919515        1.239780
  C           -2.508142        6.615249       11.963065
  C           -4.360552        7.730507        1.110303
  C           -7.351366        1.022025       11.821932
  C            7.441371        9.469644        5.112723
  C           12.991193       -2.694552        6.017481
  C            3.632637        3.298056        7.181208
  C            0.980621        3.578705        8.052889
  C            7.361766        0.489528       11.753548
  C           -3.089201        8.254946        1.152479
  C            4.438003       -6.388560       11.910676
  C            8.855538       -0.479663        1.318796
  N            8.938305       -1.077634        2.555968
  N            6.782516        0.288157       10.517426
  N            8.001283        4.757340        7.639127
  N            6.418775       -4.042078        9.284423
  O            7.234665        5.022637        5.076604
  O           -3.053924        1.423703        8.020113
  O            4.345224       -2.456407        9.695708
  O            0.426054        9.871897        3.422680
  O            1.318961        8.513079        5.002228
  O            2.776776       -2.264724        8.078087
  O            8.824398        4.755701        3.489805
  O           -3.903766        2.779752        9.624467
  O            6.156697        4.409127        2.505218
  O           -1.367975        1.993658       10.109628
  O            7.017801        6.727170        2.953185
  O           -3.056279        0.208461       10.609657
  O            1.659621       -2.837312       10.674383
  O            2.969458        9.121937        2.909279
  O            2.531624       -0.543378       10.208048
  O            1.322575        7.306972        2.398893
  O            4.575167        5.087631        5.244337
  O           -1.836144       -1.022528        7.923516
  O            4.066391       -3.610049       11.962095
  O            1.743514       11.006429        1.144350
  O            4.771026       -0.795498       11.956418
  O           -0.427504        9.094025        1.094098
  O            0.028867       -2.288059        7.991258
  O            2.574295        6.119616        5.117796
  O            9.199419        6.452785        1.083295
  O           -4.748114        1.988975       11.944029
  O            8.500254        3.672420        1.113292
  O           -2.542975        3.849240       12.015231
  O            4.269171        6.735574        3.019668
  O           -0.147093       -0.436062       10.017030
  O            6.748057        5.600086        0.071530
  O           -2.238358        1.302347       13.044892
  S          -17.247215       -2.348542       12.810889
  S          -15.707443       -2.420101       15.187101
  F          -17.857131       -4.945922       12.793201
  F          -17.251893       -4.147091       10.867746
  F          -15.764621       -4.537334       12.397418
  F          -14.867420       -4.150687       16.994386
  F          -17.027216       -3.962110       16.929721
  F          -15.988831       -5.068577       15.379819
  O          -16.241554       -1.591247       12.114194
  O          -18.635529       -2.097150       12.528952
  O          -15.736116       -1.391026       16.193606
  O          -14.493041       -2.629738       14.442966
  N          -17.062303       -2.456117       14.371751
  C          -17.009566       -4.096596       12.191083
  C          -15.921610       -3.990566       16.173272
  S          -14.503929       -8.472869        4.236649
  S          -12.715739       -6.632863        3.037003
  F          -15.081206       -9.803939        1.997520
  F          -16.799484       -9.336009        3.238643
  F          -15.870168       -7.784579        2.041312
  F          -11.733627       -6.031571        0.661975
  F          -11.189273       -8.020671        1.334004
  F          -13.196170       -7.633126        0.608134
  O          -15.197567       -7.427276        4.940804
  O          -14.340803       -9.755314        4.868177
  O          -11.491842       -6.186746        3.650131
  O          -13.773561       -5.679728        2.824859
  N          -13.134710       -8.059664        3.575925
  C          -15.621395       -8.864033        2.789379
  C          -12.180684       -7.119466        1.316045
  S            2.006167        6.529153       18.056123
  S            1.925515        9.305913       17.503404
  F           -0.610685        6.106352       17.752776
  F            0.264008        5.145160       19.491408
  F           -0.113159        7.280970       19.506324
  F            0.177464       11.196803       16.924006
  F            0.286870        9.641913       15.415759
  F           -0.736001        9.263393       17.290637
  O            2.819822        6.727617       19.226085
  O            2.213279        5.356760       17.248223
  O            2.924112       10.000504       16.733197
  O            1.782437        9.621892       18.900595
  N            1.861772        7.776609       17.104777
  C            0.286330        6.261648       18.739445
  C            0.321051        9.872052       16.735325
  S           13.992310       17.310176       10.749766
  S           14.399653       14.513326       10.565097
  F           11.370330       17.181178       11.226496
  F           11.951166       18.684864        9.772749
  F           11.922535       16.589134        9.214844
  F           13.025102       12.263108       10.683320
  F           12.991418       13.384448       12.539641
  F           11.788368       14.037154       10.856978
  O           14.740718       17.556307        9.545799
  O           14.065812       18.259973       11.827998
  O           15.549955       13.832523       11.100059
  O           14.208838       14.538016        9.138410
  N           14.119576       15.858509       11.348535
  C           12.207071       17.436947       10.208305
  C           12.966872       13.502262       11.205135
  S           22.884716      -11.274287        1.446444
  S           21.945297       -8.721142        2.234696
  F           22.797522      -10.807290       -1.179009
  F           22.001710      -12.735187       -0.577579
  F           20.842792      -10.931632       -0.248545
  F           21.118215       -6.456576        1.160208
  F           23.185069       -6.920017        0.693517
  F           21.582640       -7.986052       -0.306734
  O           21.974637      -11.946675        2.335198
  O           24.192786      -11.832277        1.228037
  O           22.456626       -7.991558        3.365679
  O           20.583360       -9.186490        2.266863
  N           23.030493       -9.720885        1.664959
  C           22.080622      -11.435892       -0.233926
  C           21.968692       -7.456094        0.862155
  S           18.309516       11.450180       11.279967
  S           20.478794       10.368567       12.745145
  F           16.572685        9.515984       11.880796
  F           16.573915       10.112528        9.793703
  F           18.176183        8.873783       10.569857
  F           21.060005        8.265516       14.230480
  F           19.495411        9.505458       15.078451
  F           19.057070        8.204773       13.398932
  O           19.131871       11.679677       10.121823
  O           17.261866       12.385374       11.592928
  O           21.401980       11.160849       13.515137
  O           20.965199        9.666442       11.586315
  N           19.081709       11.097142       12.607045
  C           17.362344        9.892926       10.862650
  C           19.982919        9.014725       13.930886
  S           -3.696160      -11.621434       -5.161607
  S           -4.144257       -8.848629       -4.796692
  F           -5.752700      -12.436881       -3.670170
  F           -3.902152      -13.517788       -3.325304
  F           -4.155693      -11.516883       -2.527646
  F           -5.784645       -7.221785       -3.520231
  F           -6.780584       -8.446628       -5.007622
  F           -6.167624       -9.319186       -3.118805
  O           -2.292126      -11.490294       -4.875735
  O           -4.125362      -12.580486       -6.144515
  O           -3.988926       -7.866438       -5.837865
  O           -3.251612       -8.810851       -3.667880
  N           -4.473263      -10.272271       -5.402281
  C           -4.420337      -12.301041       -3.577299
  C           -5.818476       -8.447445       -4.075025
  S            3.136507       19.240023       -2.935447
  S            4.910063       19.313036       -5.142610
  F            3.690636       21.694657       -2.048653
  F            3.592747       20.175816       -0.500958
  F            5.322978       20.288323       -1.803958
  F            6.674128       20.927790       -6.259523
  F            4.657030       21.725059       -6.271520
  F            5.811691       21.725009       -4.435364
  O            3.604497       17.941455       -2.529318
  O            1.747374       19.571400       -2.760513
  O            4.604677       18.760381       -6.436511
  O            5.966835       18.719327       -4.365951
  N            3.589709       19.712095       -4.368559
  C            3.993251       20.418247       -1.763224
  C            5.538007       21.024419       -5.544627
  S           16.661098       18.235325       -1.493685
  S           18.123401       20.658589       -1.602597
  F           18.101222       16.955154       -3.339192
  F           15.953498       16.714957       -3.542681
  F           16.899310       18.574016       -4.137243
  F           20.153814       21.731942       -2.903437
  F           20.715017       20.005283       -1.716776
  F           19.651919       19.735368       -3.588054
  O           15.400911       18.926064       -1.564701
  O           16.763661       17.043315       -0.694501
  O           18.452961       21.450058       -0.445947
  O           17.223917       21.205391       -2.584632
  N           17.920663       19.139089       -1.213039
  C           16.924976       17.592916       -3.229775
  C           19.753464       20.511899       -2.500450
  S           19.476915       12.946403        6.341290
  S           21.805348       13.049669        4.731900
  F           17.740869       12.849612        4.317564
  F           17.193472       14.216340        5.912629
  F           18.755122       14.756773        4.507871
  F           22.495169       13.112811        2.184940
  F           21.464445       11.289008        2.746913
  F           20.348088       13.131661        2.495740
  O           19.931294       14.032433        7.168521
  O           18.724493       11.875963        6.939724
  O           23.025571       12.350176        5.039528
  O           21.806098       14.489119        4.752846
  N           20.556133       12.324649        5.376528
  C           18.228914       13.739198        5.196607
  C           21.500828       12.614093        2.942402
  S          -16.178276        0.410335       -3.301316
  S          -13.479136        1.170216       -2.901783
  F          -17.100467        2.873929       -3.747365
  F          -18.330619        1.675592       -2.419759
  F          -16.473270        2.533465       -1.699708
  F          -11.985381        3.345286       -2.833889
  F          -12.892828        2.991082       -4.771811
  F          -14.093643        3.758269       -3.136519
  O          -16.178450       -0.419277       -2.125741
  O          -16.938923       -0.001854       -4.450933
  O          -12.352698        0.418331       -3.390329
  O          -13.677057        1.279258       -1.480025
  N          -14.764303        0.908334       -3.785809
  C          -17.060607        1.966950       -2.758391
  C          -13.101210        2.914037       -3.450437
  S           13.730677       -8.848235       -2.824263
  S           14.151351       -6.858079       -4.795231
  F           15.822009       -8.185894       -1.305604
  F           15.582407      -10.318394       -1.632489
  F           16.369600       -9.059287       -3.213356
  F           15.845496       -4.918211       -5.372842
  F           14.786287       -4.601283       -3.506804
  F           16.400105       -6.047183       -3.605149
  O           13.548340       -9.873747       -3.816891
  O           12.961070       -8.902629       -1.609829
  O           13.091381       -6.111572       -5.421380
  O           14.933391       -7.760765       -5.598990
  N           13.718423       -7.367340       -3.361716
  C           15.479751       -9.110068       -2.217212
  C           15.361217       -5.533737       -4.278408
  S           -2.284104      -10.796155        3.449367
  S           -4.466218      -12.143977        4.651097
  F           -0.815243      -12.979043        3.006490
  F            0.289381      -11.296727        3.819780
  F           -1.008160      -12.466936        5.104756
  F           -5.196811      -14.585109        5.339544
  F           -4.921541      -14.345697        3.201467
  F           -3.195559      -14.488228        4.507370
  O           -2.246833       -9.806379        4.493009
  O           -1.974051      -10.404814        2.099989
  O           -5.845789      -11.801299        4.422566
  O           -3.912475      -11.954369        5.966344
  N           -3.563180      -11.715631        3.425217
  C           -0.882123      -11.957779        3.875290
  C           -4.436475      -13.993501        4.399824
  S           23.234321        7.457859        0.688881
  S           22.521411        4.787581        0.069386
  F           24.144412        6.943233        3.143588
  F           22.878246        8.700484        2.999659
  F           21.996826        6.719547        2.943511
  F           22.511074        2.393494        1.180730
  F           24.502486        3.222489        0.953774
  F           23.193075        3.960024        2.517805
  O           21.973214        7.964509        0.216493
  O           24.423565        8.243806        0.493717
  O           22.722383        4.181773       -1.221148
  O           21.175754        4.994629        0.537142
  N           23.553110        5.961338        0.313580
  C           23.049294        7.443270        2.549494
  C           23.231854        3.527909        1.249749
  S           14.672361       -5.937693       17.132518
  S           14.266115       -3.195470       16.551506
  F           13.481320       -5.898375       19.519685
  F           15.362299       -6.980458       19.466447
  F           15.356851       -4.811563       19.461285
  F           13.226356       -1.033418       17.652089
  F           11.767280       -2.598498       17.297002
  F           13.164335       -2.773038       18.946997
  O           16.056941       -5.873145       16.746506
  O           13.923828       -7.136299       16.862061
  O           13.914984       -2.694409       15.248235
  O           15.546777       -2.845280       17.108039
  N           13.792597       -4.693864       16.731323
  C           14.719640       -5.892776       19.001227
  C           13.030570       -2.364660       17.677537
  S            3.057929        5.979474       11.927738
  S            1.782661        5.897955       14.455474
  F            2.901420        3.359240       11.449648
  F            4.826321        4.248701       10.985498
  F            4.272104        3.875008       13.048835
  F            0.733239        4.147487       16.129219
  F           -0.304526        4.240333       14.226882
  F            1.611990        3.234499       14.368209
  O            4.124984        6.804370       12.428910
  O            2.591665        6.177181       10.581034
  O            0.846029        6.890365       14.914511
  O            3.045422        5.768475       15.134535
  N            1.808605        5.828103       12.875542
  C            3.802721        4.265706       11.859824
  C            0.904903        4.287242       14.801747
  S            7.211432      -13.335424       15.201777
  S            7.652581      -10.620347       15.877163
  F            5.006238      -12.911611       13.760877
  F            4.883315      -14.594321       15.126601
  F            4.741051      -12.567448       15.885358
  F            6.554575       -8.247783       15.513613
  F            7.206050       -9.180731       13.667088
  F            5.401159       -9.870959       14.652311
  O            7.405101      -13.764480       16.561423
  O            7.659971      -14.182000       14.128359
  O            8.953626      -10.005423       15.922114
  O            6.908527      -10.761040       17.101518
  N            7.639881      -11.852661       14.885709
  C            5.354291      -13.341162       14.984239
  C            6.646273       -9.420932       14.860546
  S           24.673685       -5.510998       17.049299
  S           25.023228       -8.319845       16.946339
  F           22.314676       -5.567067       18.294540
  F           22.426045       -4.174846       16.632873
  F           22.244016       -6.302991       16.256008
  F           23.759665      -10.535477       17.625479
  F           24.275722       -9.290060       19.324622
  F           22.621183       -8.734982       18.036561
  O           25.026783       -5.358845       15.662791
  O           25.060542       -4.491284       17.987716
  O           26.284692       -8.980223       17.159601
  O           24.414741       -8.389352       15.643507
  N           24.982327       -6.920344       17.682181
  C           22.807520       -5.394014       17.057841
  C           23.852915       -9.262947       18.053446
  S          -11.389383        5.174522        5.607609
  S          -11.505151        5.313547        2.781009
  F           -8.963135        4.071941        5.735370
  F          -10.432027        3.178942        7.060787
  F          -10.483132        2.748188        4.935698
  F          -10.056849        4.672767        0.669452
  F           -9.109058        6.153985        1.939157
  F           -9.152217        4.072551        2.547827
  O          -12.709506        4.608325        5.690857
  O          -10.949192        6.081799        6.633856
  O          -12.064308        6.423379        2.054038
  O          -12.158414        4.033040        2.703503
  N          -10.988145        5.768814        4.204797
  C          -10.251533        3.708454        5.836234
  C           -9.856755        5.042113        1.948018
  S           24.023340        2.605912        8.963000
  S           21.819753        4.079523        9.960537
  F           25.810031        3.563734       10.697648
  F           26.502252        3.479171        8.642046
  F           25.116964        5.030088        9.258323
  F           21.266692        5.870707       11.818663
  F           21.955447        3.980956       12.630404
  F           23.370983        5.351330       11.723187
  O           23.717259        2.959866        7.602388
  O           24.560623        1.301252        9.244587
  O           20.488048        3.546737       10.085316
  O           22.055714        5.146202        9.023001
  N           22.901411        2.927111       10.021377
  C           25.435986        3.742237        9.420740
  C           22.129459        4.855213       11.630013
  S           15.204445       13.005633       -3.211843
  S           17.724936       12.458128       -2.041474
  F           15.310215       11.056651       -5.030901
  F           14.609871       12.965208       -5.791658
  F           16.720041       12.664533       -5.390482
  F           19.767368       10.811309       -2.330101
  F           17.920371        9.800231       -1.809731
  F           18.221851       10.536310       -3.827652
  O           15.484431       14.414599       -3.293426
  O           13.860694       12.572300       -2.934970
  O           17.984391       12.523440       -0.626805
  O           18.379786       13.399682       -2.911590
  N           16.197607       12.161897       -2.326521
  C           15.488434       12.384952       -4.952657
  C           18.436831       10.803658       -2.532082
  S            8.157529       -7.240727        7.131939
  S            7.986810       -9.950945        7.936907
  F            5.587676       -6.984391        6.461984
  F            6.982688       -6.130786        5.034707
  F            6.711189       -8.280291        5.135126
  F            6.215214      -11.901611        8.089211
  F            5.732160      -10.206875        9.353724
  F            5.420554      -10.084015        7.210708
  O            9.336937       -7.488959        6.346056
  O            8.025616       -5.984970        7.821704
  O            8.675151      -10.494141        9.078833
  O            8.355184      -10.407655        6.622307
  N            7.732597       -8.399559        8.111018
  C            6.779123       -7.166261        5.870677
  C            6.236033      -10.557986        8.162832
  S           -0.999499      -12.127445       10.835259
  S            0.989923      -10.123465       10.614660
  F            0.682864      -14.141374       11.317374
  F           -0.880226      -14.594351        9.880926
  F            0.807562      -13.363660        9.297027
  F            3.615467       -9.869389       10.708519
  F            2.754850      -10.552052       12.578753
  F            2.941834      -11.922070       10.907586
  O           -1.655939      -11.688618        9.632449
  O           -1.793887      -12.628867       11.925042
  O            0.847504       -8.789789       11.138009
  O            1.072913      -10.304574        9.188908
  N            0.089445      -11.147895       11.415548
  C           -0.032799      -13.635935       10.300209
  C            2.664277      -10.655299       11.245889
  S            4.195473       11.345628        8.802649
  S            6.910892       11.717851        8.088263
  F            4.577712        9.106399       10.202092
  F            2.869845        9.054421        8.863321
  F            4.878867        8.865002        8.068264
  F            9.255694       10.545305        8.394673
  F            8.372909       11.194405       10.266524
  F            7.613599        9.426329        9.265492
  O            3.749984       11.573308        7.453599
  O            3.380292       11.801644        9.897013
  O            7.563111       13.000907        8.052918
  O            6.728164       10.997749        6.855169
  N            5.695236       11.725465        9.100122
  C            4.138528        9.486231        8.991674
  C            8.096675       10.660897        9.068838
  S            6.952866       14.155704        0.017821
  S            5.127518       12.211676       -0.936780
  F            9.162140       12.839408       -0.692926
  F            9.227089       13.704997        1.296637
  F            8.073428       11.904741        0.932895
  F            5.130075        9.838863       -2.092894
  F            6.034202       11.386408       -3.314420
  F            7.118141       10.569209       -1.622684
  O            6.262654       14.269282        1.275176
  O            7.555086       15.327580       -0.560227
  O            3.892227       12.529728       -1.604438
  O            5.075516       11.568553        0.350133
  N            6.185658       13.373790       -1.114459
  C            8.432087       13.080398        0.407626
  C            5.905577       10.938218       -2.058247
  S           27.700351        9.910209       16.191846
  S           27.902969       12.474718       17.377020
  F           26.099420        8.866221       18.053512
  F           27.734916        7.576540       17.442204
  F           28.112960        9.261308       18.754761
  F           27.069089       13.780187       19.514131
  F           25.452640       13.146801       18.213985
  F           26.454152       11.699866       19.482079
  O           29.122547        9.828459       15.989587
  O           26.818272        9.329732       15.214561
  O           27.902304       13.706168       16.631096
  O           29.094370       12.096145       18.090955
  N           27.147183       11.331245       16.587719
  C           27.395424        8.852834       17.703569
  C           26.640523       12.784256       18.716862
  S           26.516597        3.386972       14.241463
  S           25.079662        1.332772       15.559750
  F           28.197046        1.768217       12.947473
  F           29.134389        3.500044       13.860701
  F           28.515795        1.824832       15.091624
  F           25.072236       -1.296921       15.786701
  F           24.671348       -0.611520       13.768292
  F           26.691636       -0.544020       14.554795
  O           26.655334        4.147259       15.455115
  O           26.344122        4.082467       12.993809
  O           23.653128        1.348199       15.753741
  O           25.937988        1.415364       16.712535
  N           25.491302        2.192104       14.297277
  C           28.181882        2.563591       14.028869
  C           25.399808       -0.370792       14.866829
  S           25.949723       -5.027358        9.043600
  S           25.876550       -2.859680       10.865198
  F           28.125018       -6.182710       10.069243
  F           28.099414       -6.069219        7.901690
  F           28.523491       -4.296287        9.076864
  F           27.241545       -1.895471       12.908219
  F           26.399736       -3.857323       13.291573
  F           28.147267       -3.656731       12.022476
  O           25.764465       -4.157505        7.912552
  O           25.353649       -6.336751        9.026641
  O           24.664428       -2.326461       11.430272
  O           26.650560       -2.032902        9.976489
  N           25.693812       -4.376350       10.455249
  C           27.780664       -5.406543        9.029410
  C           26.977436       -3.093343       12.354564
  S          -11.597085        2.330535       11.921105
  S          -10.902938        4.990837       11.240403
  F          -10.389519        2.325265       14.300274
  F          -10.049992        0.541366       13.111053
  F           -9.015710        2.384403       12.623568
  F           -9.551716        7.035866       12.219638
  F          -11.260584        6.479579       13.434042
  F           -9.462807        5.266626       13.472153
  O          -11.189312        1.834118       10.633656
  O          -12.728620        1.731635       12.577648
  O          -11.789517        5.905077       10.568827
  O           -9.713879        4.550082       10.558986
  N          -11.715574        3.896780       12.043148
  C          -10.177348        1.880297       13.051573
  C          -10.265203        5.992192       12.681009
  S          -17.509381        5.576677        4.632698
  S          -17.515286        2.793091        4.109238
  F          -20.139386        5.921988        4.345424
  F          -18.918772        7.431461        3.374129
  F          -19.111698        5.459042        2.492932
  F          -19.201433        0.864012        3.474879
  F          -19.610683        1.755895        5.409181
  F          -20.135055        2.818851        3.592627
  O          -16.405719        5.800655        3.737155
  O          -17.612104        6.366690        5.830792
  O          -16.701408        1.840978        4.819135
  O          -17.263764        3.013940        2.709088
  N          -17.799578        4.071452        4.996204
  C          -19.006705        6.117035        3.651696
  C          -19.215534        2.023924        4.157220
  S           -8.278736       13.746859       -1.015035
  S          -10.012328       15.902932       -1.622000
  F           -6.009417       15.076213       -1.464147
  F           -6.066767       13.076572       -2.306743
  F           -7.163794       14.687611       -3.258190
  F           -9.901807       18.415121       -2.424209
  F           -8.965192       18.091392       -0.494852
  F           -7.956178       17.462160       -2.308872
  O           -9.036505       12.833725       -1.828795
  O           -7.670107       13.266931        0.197129
  O          -11.216677       16.195477       -0.889311
  O          -10.119508       15.484294       -2.995212
  N           -8.969461       15.131161       -0.717271
  C           -6.801201       14.180958       -2.075590
  C           -9.151101       17.556840       -1.709381
  S          -15.463571       18.433488       12.604365
  S          -12.972532       19.555039       11.856534
  F          -15.168074       16.159078       11.241123
  F          -17.124987       17.078804       11.050298
  F          -15.428102       17.904935        9.981537
  F          -10.870352       18.984687       10.365767
  F          -11.154844       17.598263       12.009348
  F          -12.432858       17.483214       10.260590
  O          -16.167265       19.651781       12.303019
  O          -15.901838       17.625643       13.711347
  O          -12.128548       20.304118       12.750648
  O          -13.567345       20.231363       10.733484
  N          -13.892964       18.546289       12.654636
  C          -15.805764       17.335225       11.130238
  C          -11.797222       18.326361       11.085977
  S           21.044891       -3.959150        0.884316
  S           21.883047       -1.288761        1.318960
  F           18.428004       -3.439516        0.908337
  F           19.011082       -5.193531        2.046438
  F           19.381851       -3.210233        2.842192
  F           20.853088        1.108798        1.716133
  F           20.352753        0.273334       -0.221941
  F           19.357722       -0.455528        1.562264
  O           21.935333       -4.463613        1.895683
  O           20.801252       -4.749143       -0.293246
  O           23.017979       -0.687561        0.668299
  O           21.926012       -1.490451        2.743717
  N           21.284495       -2.464735        0.446860
  C           19.372903       -3.938227        1.721184
  C           20.529222       -0.027480        1.071798
  S           15.116783      -10.861745       12.655764
  S           14.374122       -8.934031       14.593488
  F           15.608616       -9.116969       10.698075
  F           14.470608      -10.861862       10.088069
  F           13.509366       -9.278826       11.216864
  F           14.070655       -6.322453       14.826766
  F           16.112578       -6.910779       14.392150
  F           14.615843       -6.949880       12.822766
  O           13.971307      -11.681540       12.949114
  O           16.360150      -11.494015       12.303092
  O           14.741547       -9.010116       15.983481
  O           12.984500       -9.048950       14.235436
  N           15.413657       -9.708457       13.687194
  C           14.645420       -9.969997       11.081302
  C           14.828554       -7.185117       14.124922
  S            7.136688       14.789426       11.597695
  S            5.962276       17.074259       12.790461
  F            9.477190       14.983402       12.863837
  F            9.631056       14.550371       10.742368
  F            9.138529       16.554838       11.408472
  F            6.569144       18.996540       14.494396
  F            6.604198       17.019993       15.386863
  F            8.222974       17.652163       14.088927
  O            6.718490       15.191311       10.280944
  O            7.157618       13.389800       11.930430
  O            4.586994       17.143105       13.210856
  O            6.400159       17.915714       11.707562
  N            6.483769       15.581016       12.793160
  C            8.946136       15.256499       11.661478
  C            6.897130       17.709707       14.276064
  S           16.189102       -9.720830        3.324210
  S           17.574228      -10.982499        5.448361
  F           13.739280      -10.349026        4.174169
  F           14.060685      -10.643287        2.047686
  F           14.885012      -12.052412        3.475627
  F           17.078231      -12.402480        7.617344
  F           16.254840      -10.397604        7.700787
  F           15.295075      -11.913766        6.482258
  O           17.046961      -10.317002        2.334821
  O           15.691826       -8.387813        3.110007
  O           18.744413      -10.433070        6.082132
  O           17.700814      -12.203145        4.695728
  N           16.680725       -9.840682        4.816188
  C           14.634084      -10.757255        3.260417
  C           16.480677      -11.440438        6.890304
  S            6.608515        8.576384       14.461452
  S            7.986967       10.824562       15.494878
  F            8.062956        8.353955       12.235734
  F            5.921686        8.157290       11.938908
  F            6.795638       10.112999       12.278872
  F            9.960554       12.452998       14.846807
  F           10.597026       10.394551       15.096136
  F            9.515680       10.986209       13.311383
  O            5.324960        9.174341       14.716727
  O            6.762934        7.154193       14.615176
  O            8.307086       10.999500       16.887641
  O            7.055057       11.731656       14.877479
  N            7.841135        9.291754       15.132980
  C            6.867761        8.824285       12.626332
  C            9.607406       11.171656       14.635539
  S           15.498696       13.936582       14.371406
  S           15.500023       14.827870       17.059901
  F           18.144165       13.656470       14.167147
  F           17.205020       14.628846       12.468821
  F           17.493543       15.719259       14.321365
  F           17.201875       15.382199       18.999815
  F           17.247702       13.301044       18.390590
  F           18.169082       14.816561       17.142000
  O           14.607950       14.990018       13.962653
  O           15.388919       12.644065       13.748951
  O           14.522779       14.428095       18.038698
  O           15.544843       16.206074       16.646378
  N           15.649957       13.734815       15.926547
  C           17.183193       14.523547       13.810807
  C           17.123949       14.556755       17.939743
  S          -12.421703        2.323410       17.645451
  S          -11.285781       -0.230270       18.104580
  F          -10.109537        3.589036       17.232206
  F          -11.502741        4.649142       18.515553
  F          -10.399414        2.946830       19.282994
  F           -8.918391       -1.389605       18.239693
  F           -9.358800       -0.570039       16.280403
  F           -8.810299        0.752032       17.910123
  O          -13.267816        2.218548       18.804472
  O          -12.915200        3.000039       16.475521
  O          -11.854863       -1.460912       17.620289
  O          -11.237601        0.000794       19.524701
  N          -11.712741        0.990766       17.194353
  C          -11.022295        3.430741       18.203846
  C           -9.494024       -0.357146       17.596375
  S           21.718939       18.628056       10.850418
  S           21.180050       17.522544        8.298979
  F           19.340324       19.796919       11.158054
  F           21.034041       21.035477       11.714037
  F           20.569019       20.707995        9.621031
  F           19.251821       17.452597        6.497899
  F           18.695717       16.533882        8.382355
  F           18.782195       18.694614        8.213636
  O           22.994295       19.138869       10.422900
  O           21.572493       18.145453       12.197916
  O           21.605816       16.210563        7.886306
  O           21.736867       18.673299        7.637032
  N           21.030417       17.603511        9.871491
  C           20.598419       20.124730       10.823383
  C           19.372236       17.552530        7.834573
  S           -5.471618       -8.855862        3.932493
  S           -5.067190       -6.443282        2.504805
  F           -6.342010      -10.273879        1.846747
  F           -7.498611      -10.538146        3.664508
  F           -7.721256       -8.728882        2.489283
  F           -5.354432       -5.469399        0.068436
  F           -3.920677       -7.093300        0.176866
  F           -6.046266       -7.516345        0.264116
  O           -6.168046       -8.178048        4.993525
  O           -4.631397       -9.979670        4.250594
  O           -3.950452       -5.560476        2.720258
  O           -6.390929       -5.980416        2.830270
  N           -4.706337       -7.927525        2.915344
  C           -6.836330       -9.634097        2.918472
  C           -5.094998       -6.654862        0.650291
  S           15.525754       -2.251872       12.307080
  S           18.017136       -2.746003       13.560576
  F           14.692690       -4.786474       12.329224
  F           14.356853       -3.741631       10.456435
  F           16.348886       -4.423157       10.977482
  F           19.433950       -4.762110       14.506515
  F           17.561268       -4.464332       15.559538
  F           17.565263       -5.377648       13.592167
  O           16.136395       -1.448346       11.281557
  O           14.218415       -1.896376       12.791425
  O           18.606984       -1.876584       14.544984
  O           18.673303       -2.900576       12.288566
  N           16.442579       -2.597281       13.540847
  C           15.224213       -3.898529       11.474060
  C           18.138359       -4.432961       14.350666
  S           25.800626      -10.467516        6.072386
  S           23.497045      -12.043733        6.553485
  F           27.570688      -12.412672        6.521766
  F           28.066992      -10.509783        7.440742
  F           26.518620      -11.760587        8.302252
  F           22.847499      -14.502925        7.258688
  F           23.902325      -14.406319        5.365946
  F           24.988559      -14.154032        7.226364
  O           25.313041       -9.398986        6.903492
  O           26.562802      -10.148248        4.894566
  O           22.285059      -11.950575        5.781940
  O           23.469511      -11.654561        7.939214
  N           24.748771      -11.581175        5.704391
  C           27.052217      -11.345108        7.149271
  C           23.838443      -13.878511        6.595875
  S           27.023421        0.457097        4.279708
  S           28.306699        2.606526        2.954734
  F           24.989430        1.892809        5.239033
  F           25.878551        0.520165        6.666316
  F           26.898721        2.363972        6.152709
  F           28.020787        5.203579        2.580010
  F           26.395076        4.034981        1.745798
  F           26.514162        4.351830        3.888258
  O           28.255422        0.014727        4.876966
  O           26.046797       -0.520883        3.879880
  O           28.932644        2.494469        1.663027
  O           29.130130        2.877664        4.104040
  N           27.166292        1.524619        3.129908
  C           26.152614        1.370683        5.659340
  C           27.238284        4.127631        2.783008
  S           15.459204        5.442199        3.510219
  S           15.894605        7.273762        1.394043
  F           12.794720        5.563184        3.442535
  F           13.652120        5.641222        5.435171
  F           13.734185        7.385508        4.148743
  F           14.523503        8.806019       -0.260985
  F           14.123132        6.690575       -0.523792
  F           13.277148        7.751909        1.168128
  O           16.431208        6.092000        4.348789
  O           15.317923        4.011998        3.578550
  O           16.916112        7.114675        0.392003
  O           15.990039        8.377263        2.313627
  N           15.465172        5.875339        1.995488
  C           13.816528        6.051449        4.163488
  C           14.363307        7.639667        0.391047
  S           20.775446      -11.608982       17.038227
  S           18.074419      -10.813582       16.731318
  F           20.324388      -14.228721       16.809748
  F           21.672573      -13.681410       18.420545
  F           19.537988      -13.362976       18.635742
  F           15.684205      -11.880440       16.391411
  F           17.043739      -12.287776       14.751225
  F           17.258733      -13.354185       16.627727
  O           20.954841      -10.759685       18.185723
  O           21.871028      -11.793767       16.124084
  O           17.658434       -9.656257       15.982702
  O           17.864075      -10.831701       18.155356
  N           19.461100      -11.363089       16.205108
  C           20.553276      -13.316328       17.767567
  C           16.962741      -12.165909       16.083133
  S           16.313494        0.703461       17.774928
  S           16.876193        3.414925       17.180175
  F           18.335422        0.365115       19.482565
  F           18.070728       -1.255993       18.063493
  F           18.964406        0.613309       17.422233
  F           18.636568        5.287793       17.780423
  F           17.487844        4.613522       19.492223
  F           19.075427        3.369603       18.694129
  O           16.162845        0.370044       16.383392
  O           15.480556        0.047575       18.747621
  O           15.865491        4.426369       17.011855
  O           17.680994        3.042212       16.046227
  N           16.358885        2.242726       18.107580
  C           18.022890        0.081650       18.208108
  C           18.083585        4.207804       18.362677
  S           10.412242        9.418861       -2.638393
  S            9.375128       11.378031       -4.401473
  F           11.979841       11.081838       -1.261500
  F           12.915621        9.199940       -1.804269
  F           12.639405       10.746325       -3.299783
  F            9.610427       13.956498       -4.914299
  F            8.832653       13.546298       -2.931556
  F           10.942799       13.265539       -3.347688
  O           10.687670        8.509813       -3.719135
  O            9.984310        8.891558       -1.369958
  O            8.002714       11.422632       -4.834323
  O           10.401244       11.105769       -5.373799
  N            9.506417       10.656009       -3.000336
  C           12.079553       10.163113       -2.235292
  C            9.709826       13.131544       -3.855642
  S            7.118491       19.240707        3.530063
  S            9.781420       18.306468        3.771739
  F            7.758204       21.731476        2.819057
  F            6.184863       21.593066        4.308104
  F            8.250688       21.256722        4.876788
  F           12.257576       19.192333        3.546476
  F           11.145415       19.279680        1.686387
  F           10.761280       20.734782        3.248381
  O            6.742043       18.667437        4.794928
  O            6.161534       19.259646        2.455830
  O           10.215685       17.000767        3.348145
  O            9.810059       18.626230        5.175088
  N            8.509923       18.775324        2.956137
  C            7.352878       21.057142        3.906831
  C           11.048927       19.447261        3.012281
  S            2.979434       17.233840        8.800988
  S            4.852692       19.132406        7.847702
  F            1.011371       18.979752        9.245070
  F            1.311397       17.533111       10.835364
  F            2.689564       19.191520       10.601909
  F            5.057897       21.731401        7.435432
  F            3.527942       20.790696        6.219381
  F            3.168583       21.148218        8.328350
  O            3.948895       16.632719        9.677932
  O            1.994462       16.398791        8.166460
  O            5.749883       18.892460        6.747546
  O            5.403000       19.312670        9.165702
  N            3.555429       18.235223        7.729765
  C            1.945976       18.304783        9.932965
  C            4.097781       20.788347        7.432092
