         874
  Built with Packmol                                             
  Ti          -2.868335        2.115442       11.265214
  Ti           7.802788        5.383210        1.844391
  Ti           1.352572       -1.673500        9.417113
  Ti           2.511792        7.542652        3.648414
  Ti           1.444672        9.187418        1.751989
  Ti           3.259458       -1.864257       11.359530
  Ti          -1.869782        0.416024        9.366140
  Ti           5.815984        5.614284        3.703281
  H            3.746896        1.652626        8.583439
  H           -7.024875       10.142785        6.478257
  H            4.431630       11.010612        4.650438
  H           -2.503694        6.028051       11.048460
  H            8.748737        1.507342        2.155250
  H           -6.801542        1.221893       10.903644
  H           11.114246        7.503838        2.029089
  H            4.372721       -5.862020       10.962653
  H           -2.589143        8.456181        2.095703
  H            4.656966        3.204147        6.826953
  H           -0.045224        3.670268        8.406030
  H           12.440918       -1.828167        6.378540
  H           -2.327232        0.331938       12.984230
  H            5.927385        5.077403        0.154584
  H            3.761426       -2.506617        5.844726
  H            0.745560        9.314262        7.279431
  H           -6.059913        3.661213        9.037490
  H           10.641247        3.393379        4.132134
  H           -3.728587        2.298708        5.688870
  H           -1.703972       10.903386        4.124923
  H            1.733452       12.300945        2.609537
  H            8.667985       -0.517063        3.355831
  H            4.606680        7.297451        2.297825
  H            0.215487        0.134620       10.719246
  H            7.415332        0.218685        9.728366
  H            5.955496       -0.302534       10.483299
  H            7.828656        4.670987        8.632537
  H            7.237651        5.011538        7.017709
  H            7.098177       -4.749977        9.534320
  H            5.784030       -3.695029       10.000157
  H            1.411485        1.911548        9.356085
  H            0.863759        5.227040        6.648574
  H            5.741023        9.069333        3.845371
  H            7.999135        8.609993        4.744623
  C            8.422325        4.659191        4.703706
  C           -3.853328        2.346718        8.423899
  C            3.961595       -2.592630        8.476524
  C            0.513540        9.443357        4.621320
  C            9.344336        4.085192        5.693105
  C           -4.811926        2.940026        7.452907
  C            4.917315       -3.172748        7.523270
  C           -0.392661       10.057561        5.626884
  C            9.101042        4.149763        7.100999
  C           -4.599256        2.829342        6.063538
  C            6.075072       -3.893771        7.969088
  C           -1.516055       10.792469        5.189090
  C           -0.124811        9.894234        6.980095
  C            4.657405       -3.047644        6.140915
  C           10.498947        3.426687        5.210054
  C           -5.932679        3.593124        7.958691
  C            2.813684        4.307411        6.639567
  C            1.802100        2.580168        8.590925
  C            6.161473        9.726276        4.605129
  C           -1.730084       -2.944720        6.528234
  C            8.715175        1.588330        0.011262
  C            1.839040       13.147429        0.088587
  C            6.684170        0.195343       12.990012
  C           -6.719779        1.271810       13.046845
  C            3.350517        5.224492        5.605606
  C           -1.145018       -2.033515        7.540248
  C            4.215985       -4.201651       13.101266
  C            1.796086       11.711651        0.049701
  C            5.408882       -0.466276       13.043122
  C           -5.332575        1.734605       13.064020
  C            1.482906        4.442604        7.078738
  C            3.125222        2.436827        8.154613
  C            5.424120       10.827594        5.058747
  C           -8.018869       10.319594        6.073436
  C            8.784652        0.919515        1.239780
  C           -2.508142        6.615249       11.963065
  C           -4.360552        7.730507        1.110303
  C           -7.351366        1.022025       11.821932
  C            7.441371        9.469644        5.112723
  C           12.991193       -2.694552        6.017481
  C            3.632637        3.298056        7.181208
  C            0.980621        3.578705        8.052889
  C            7.361766        0.489528       11.753548
  C           -3.089201        8.254946        1.152479
  C            4.438003       -6.388560       11.910676
  C            8.855538       -0.479663        1.318796
  N            8.938305       -1.077634        2.555968
  N            6.782516        0.288157       10.517426
  N            8.001283        4.757340        7.639127
  N            6.418775       -4.042078        9.284423
  O            7.234665        5.022637        5.076604
  O           -3.053924        1.423703        8.020113
  O            4.345224       -2.456407        9.695708
  O            0.426054        9.871897        3.422680
  O            1.318961        8.513079        5.002228
  O            2.776776       -2.264724        8.078087
  O            8.824398        4.755701        3.489805
  O           -3.903766        2.779752        9.624467
  O            6.156697        4.409127        2.505218
  O           -1.367975        1.993658       10.109628
  O            7.017801        6.727170        2.953185
  O           -3.056279        0.208461       10.609657
  O            1.659621       -2.837312       10.674383
  O            2.969458        9.121937        2.909279
  O            2.531624       -0.543378       10.208048
  O            1.322575        7.306972        2.398893
  O            4.575167        5.087631        5.244337
  O           -1.836144       -1.022528        7.923516
  O            4.066391       -3.610049       11.962095
  O            1.743514       11.006429        1.144350
  O            4.771026       -0.795498       11.956418
  O           -0.427504        9.094025        1.094098
  O            0.028867       -2.288059        7.991258
  O            2.574295        6.119616        5.117796
  O            9.199419        6.452785        1.083295
  O           -4.748114        1.988975       11.944029
  O            8.500254        3.672420        1.113292
  O           -2.542975        3.849240       12.015231
  O            4.269171        6.735574        3.019668
  O           -0.147093       -0.436062       10.017030
  O            6.748057        5.600086        0.071530
  O           -2.238358        1.302347       13.044892
  S           -3.872742       -9.511310        4.813019
  S           -5.631436       -8.474064        2.849982
  F           -5.134357       -8.448492        6.910024
  F           -2.973116       -8.253178        6.962059
  F           -4.146691       -6.984974        5.651128
  F           -7.779298       -6.950581        2.669590
  F           -8.118545       -8.778356        3.787005
  F           -7.025883       -7.139525        4.695319
  O           -2.710608       -9.092462        4.075288
  O           -3.824355      -10.740192        5.559752
  O           -6.061461       -9.208600        1.688774
  O           -4.806868       -7.308140        2.667868
  N           -5.237695       -9.452785        4.028459
  C           -4.049108       -8.219768        6.153594
  C           -7.227706       -7.805889        3.550146
  S           -9.896515       -3.434905        9.050071
  S           -8.632200       -5.962555        8.863266
  F          -12.190209       -4.183376        7.911014
  F          -11.414408       -2.279773        7.213697
  F          -10.510223       -4.132858        6.540873
  F           -9.106820       -8.391956        7.946972
  F          -10.452866       -7.801296        9.541884
  F          -10.715006       -6.991800        7.546712
  O           -8.740508       -2.754442        8.529638
  O          -10.694519       -2.790758       10.059213
  O           -7.796834       -6.520534        9.894621
  O           -8.036998       -5.617543        7.598688
  N           -9.674209       -4.937616        9.467796
  C          -11.065204       -3.523387        7.593134
  C           -9.802531       -7.359010        8.457063
  S           20.695049       15.373727        9.681581
  S           22.854795       16.366960        8.141650
  F           19.219871       17.593633        9.560907
  F           19.327611       16.686660       11.530073
  F           21.017695       17.803416       10.755064
  F           23.603200       18.576866        6.907531
  F           21.797364       17.705176        6.080744
  F           21.719258       18.777347        7.964639
  O           21.578754       14.859173       10.693772
  O           19.494048       14.647913        9.363942
  O           23.571948       15.586361        7.167367
  O           23.547918       16.809348        9.323314
  N           21.383333       15.820628        8.336739
  C           20.036086       16.960834       10.418594
  C           22.458750       17.942262        7.221686
  S            5.285942      -12.911943        6.603591
  S            8.035488      -13.459714        7.006506
  F            5.551762      -10.263767        6.415994
  F            3.893800      -10.919683        7.654040
  F            5.924598      -11.040262        8.406029
  F           10.332751      -12.181686        7.243312
  F            9.400309      -11.912594        5.303568
  F            8.628145      -10.856106        7.033396
  O            4.897377      -13.765367        7.694883
  O            4.444252      -12.834875        5.439237
  O            8.725104      -14.579855        6.421198
  O            7.877920      -13.411696        8.436654
  N            6.783952      -13.043102        6.133678
  C            5.168731      -11.185976        7.313259
  C            9.153379      -12.016479        6.616436
  S          -13.293549       15.808253        8.209636
  S          -11.423987       13.910945        7.246638
  F          -15.057495       14.026328        9.121735
  F          -15.930954       15.677356        8.015844
  F          -14.910584       14.081727        6.958973
  F          -11.126501       11.296063        7.044799
  F          -11.234570       11.988660        9.097382
  F          -13.035401       11.882101        7.893072
  O          -13.236709       16.568558        6.989415
  O          -13.458533       16.500178        9.460285
  O           -9.996745       14.058816        7.364893
  O          -12.017636       13.930075        5.935275
  N          -12.175072       14.712600        8.384600
  C          -14.882752       14.833862        8.063614
  C          -11.728168       12.176376        7.865914
  S           13.773111       -5.390232       -3.390047
  S           16.216447       -6.645601       -2.699714
  F           14.777045       -2.928894       -3.619441
  F           12.898979       -3.041089       -2.536806
  F           14.741770       -3.671505       -1.582415
  F           18.747118       -6.032460       -2.267728
  F           18.102054       -5.621860       -4.297448
  F           17.501678       -4.304959       -2.681889
  O           13.068015       -6.046362       -2.321137
  O           13.092728       -5.147930       -4.634423
  O           16.618363       -7.940704       -3.183491
  O           15.951693       -6.480983       -1.294273
  N           15.211944       -5.949888       -3.704052
  C           14.075476       -3.662850       -2.741161
  C           17.720196       -5.584958       -3.013621
  S           12.774628       15.788375        4.540181
  S           12.763239       18.378393        5.686512
  F           12.290433       14.474098        6.811067
  F           13.845668       13.599212        5.575091
  F           14.255687       15.387205        6.732299
  F           12.488182       19.540723        8.040271
  F           10.714808       18.465625        7.404836
  F           12.439166       17.374004        8.139453
  O           13.992747       16.050026        3.820488
  O           11.765430       14.961320        3.933878
  O           12.181818       19.533716        5.054018
  O           14.188190       18.340590        5.887867
  N           12.075810       17.046736        5.180677
  C           13.323891       14.763592        6.004578
  C           12.054290       18.432162        7.412565
  S           26.873628        7.695711        2.648323
  S           26.838793        6.458159        5.195803
  F           27.617832       10.106068        3.517248
  F           26.014897       10.128740        2.053722
  F           25.605726        9.549161        4.103315
  F           27.245866        7.056454        7.734145
  F           29.016108        7.297065        6.504180
  F           27.421920        8.764749        6.408383
  O           25.586966        7.151939        2.303291
  O           27.872360        7.839560        1.622680
  O           27.300855        5.117222        5.443301
  O           25.439958        6.752892        5.365657
  N           27.553501        7.081460        3.929933
  C           26.506100        9.467706        3.118732
  C           27.685851        7.456112        6.526722
  S           13.900899        3.642623        6.092906
  S           13.999372        6.315160        7.025778
  F           11.625145        2.997972        7.327436
  F           13.190784        1.502245        7.480393
  F           13.293638        3.308060        8.677312
  F           12.639041        7.960816        8.577604
  F           11.519567        7.301401        6.840821
  F           11.813113        5.955574        8.516318
  O           15.279611        3.412420        6.434071
  O           13.354499        3.015218        4.919061
  O           14.420824        7.431617        6.220314
  O           14.802156        5.933917        8.158318
  N           13.431133        5.146076        6.124621
  C           12.947941        2.826450        7.479290
  C           12.395772        6.908151        7.775170
  S           17.037098        8.076196        4.976628
  S           18.471049        6.557180        6.889420
  F           15.826693        5.999333        3.818936
  F           16.640459        7.458139        2.432757
  F           17.963300        6.077934        3.457105
  F           18.841055        4.042554        7.601179
  F           16.789871        4.706017        7.839764
  F           17.563584        4.265593        5.861860
  O           18.206941        8.832111        4.615665
  O           15.754069        8.727300        4.978312
  O           18.669511        6.967362        8.255156
  O           19.614236        6.464004        6.019422
  N           17.161997        7.207246        6.284826
  C           16.863170        6.823757        3.599140
  C           17.870781        4.797173        7.053181
  S          -17.935102        1.522676        2.189874
  S          -16.067165        0.130820        0.578679
  F          -17.016381        0.621511        4.527083
  F          -19.178593        0.598456        4.337000
  F          -17.983434       -0.900810        3.323115
  F          -14.057255       -1.562055        0.826227
  F          -13.683557        0.353524        1.772467
  F          -15.013039       -1.079118        2.713065
  O          -19.039964        1.109356        1.366054
  O          -17.956965        2.831062        2.787997
  O          -15.445874        0.688652       -0.594220
  O          -16.966904       -0.982398        0.424819
  N          -16.501535        1.268611        1.587883
  C          -18.026085        0.388396        3.673605
  C          -14.625478       -0.569560        1.535635
  S           13.786632       19.955411       -5.073845
  S           13.268259       17.197692       -5.459430
  F           12.757228       20.093674       -2.616224
  F           12.186217       21.726279       -3.927853
  F           11.275912       19.772213       -4.166887
  F           12.165280       15.157610       -4.199132
  F           13.905123       15.954333       -3.178032
  F           12.020388       17.025376       -3.104888
  O           13.247470       20.295565       -6.363742
  O           14.908935       20.697874       -4.564642
  O           14.176930       16.294098       -6.115711
  O           12.000784       17.480498       -6.080707
  N           14.043060       18.421248       -4.823559
  C           12.419540       20.401278       -3.878609
  C           12.821132       16.291373       -3.889900
  S           16.308340       -5.483132        5.282094
  S           13.842675       -6.190810        6.482965
  F           16.433531       -7.582214        3.639877
  F           18.295121       -7.117060        4.654734
  F           16.685807       -8.093680        5.731993
  F           12.032822       -8.109941        6.392330
  F           12.228253       -7.029588        4.521739
  F           13.738635       -8.474079        5.102169
  O           16.919946       -5.221366        6.557888
  O           16.670304       -4.671179        4.150804
  O           12.812928       -5.242973        6.820747
  O           14.514217       -6.894078        7.544521
  N           14.742353       -5.654886        5.297594
  C           16.958281       -7.170180        4.804837
  C           12.914103       -7.522739        5.561835
  S           18.272459       15.614631       -5.314523
  S           20.855872       16.774511       -5.259208
  F           16.975811       17.775163       -4.437313
  F           16.359699       15.912687       -3.508116
  F           18.234154       16.842746       -2.937525
  F           22.032974       19.046274       -4.610847
  F           20.624831       19.249423       -6.248019
  F           19.899937       19.038521       -4.214608
  O           18.728855       14.427070       -4.642486
  O           17.250738       15.502206       -6.321275
  O           21.859139       16.548421       -6.266784
  O           21.090557       16.288742       -3.924514
  N           19.402063       16.573952       -5.849084
  C           17.422085       16.598146       -3.970689
  C           20.840779       18.632422       -5.078375
  S           25.747650       -3.995031        8.334730
  S           23.154350       -4.156294        9.462200
  F           25.006643       -4.585372        5.840517
  F           26.792903       -5.614832        6.519712
  F           24.840836       -6.251475        7.218486
  F           20.674003       -4.704078        8.744802
  F           21.482453       -2.950304        7.757306
  F           22.106587       -4.931061        7.131391
  O           26.316387       -4.797090        9.385193
  O           26.525334       -2.924066        7.770510
  O           22.658388       -3.252782       10.467465
  O           23.345202       -5.541001        9.806614
  N           24.283391       -3.472904        8.590431
  C           25.576208       -5.181692        6.899888
  C           21.784708       -4.180468        8.194029
  S           -5.025193       -5.908517       16.337964
  S           -7.241943       -4.349584       17.161459
  F           -6.453617       -7.815958       15.137979
  F           -4.836129       -8.549071       16.386217
  F           -6.656632       -7.800287       17.296851
  F           -9.879532       -4.387429       17.069046
  F           -8.956510       -4.280122       15.109204
  F           -8.962665       -6.152919       16.203419
  O           -4.417887       -5.836326       17.640347
  O           -4.184017       -5.908322       15.170691
  O           -7.266858       -2.910372       17.131120
  O           -7.291418       -5.018079       18.435478
  N           -6.229628       -4.923611       16.090270
  C           -5.797050       -7.610971       16.290874
  C           -8.843899       -4.823857       16.328655
  S            2.407150       -8.975030        4.233663
  S            2.398377       -6.207892        3.629288
  F            4.958304       -9.397828        3.576741
  F            3.575171      -10.900247        2.840871
  F            3.680836       -8.958413        1.880516
  F            4.015973       -4.342327        2.696605
  F            4.684254       -5.191699        4.577145
  F            4.912930       -6.317353        2.737221
  O            1.179453       -9.193928        3.515975
  O            2.666681       -9.734532        5.427775
  O            1.718754       -5.215480        4.420554
  O            1.939533       -6.460073        2.288272
  N            2.780986       -7.468698        4.504340
  C            3.732127       -9.581543        3.061952
  C            4.104032       -5.483167        3.405062
  S          -10.677586      -10.959629       -1.740150
  S           -8.418710      -12.140429       -0.505003
  F           -9.304252       -9.257795       -3.268681
  F          -11.030875       -8.391418       -2.278740
  F           -9.221503       -8.793058       -1.152231
  F           -5.787387      -11.933335       -0.494898
  F           -6.591217      -12.526839       -2.420015
  F           -6.761201      -10.466751       -1.762859
  O          -11.351073      -10.792976       -0.479644
  O          -11.450680      -11.272079       -2.912670
  O           -8.303790      -13.546715       -0.218601
  O           -8.481593      -11.211240        0.592772
  N           -9.402986      -11.885314       -1.716553
  C          -10.010329       -9.256238       -2.126875
  C           -6.804917      -11.742592       -1.354802
  S            4.166361        9.534683       10.947060
  S            2.212893        7.855102       12.124078
  F            5.607479        7.570097        9.859736
  F            6.777519        9.106764       10.850434
  F            5.706915        7.630878       12.025055
  F            1.647359        5.289352       12.376953
  F            1.605802        5.975625       10.319827
  F            3.504889        5.661013       11.319427
  O            4.330153       10.290449       12.160412
  O            4.269289       10.209876        9.680718
  O            0.807041        8.163284       12.162490
  O            2.945774        7.800734       13.361975
  N            2.919367        8.572787       10.904423
  C            5.642287        8.386874       10.924598
  C            2.250031        6.100431       11.488066
  S           24.624140        7.681562       -4.599015
  S           25.403337        4.972389       -4.874034
  F           22.009659        7.200139       -4.372275
  F           22.513727        8.845367       -5.695515
  F           22.803631        6.797871       -6.349641
  F           24.325673        2.565567       -4.986718
  F           23.988940        3.565577       -3.091710
  F           22.860036        4.159010       -4.846168
  O           25.434708        8.087613       -5.716305
  O           24.481974        8.569651       -3.475989
  O           26.581893        4.410442       -4.267327
  O           25.333629        5.054997       -6.309573
  N           24.886031        6.225057       -4.058586
  C           22.890365        7.616066       -5.296196
  C           24.063595        3.755830       -4.415953
  S           19.636347      -10.684287        8.650632
  S           18.749993      -10.311169        5.986508
  F           17.206549      -10.723060        9.752117
  F           18.665050       -9.524633       10.823737
  F           17.787245       -8.779453        8.985713
  F           16.505392      -10.001848        4.632648
  F           16.646099      -11.923985        5.627664
  F           16.205211      -10.138107        6.776997
  O           20.621580       -9.642745        8.529223
  O           19.935194      -11.842962        9.449548
  O           19.343063      -10.957939        4.845093
  O           18.857275       -8.880666        6.107363
  N           18.975348      -11.159978        7.301983
  C           18.238959       -9.879090        9.596831
  C           16.923689      -10.619138        5.752989
  S           17.138751       17.010591        5.947149
  S           15.982005       19.515405        5.306642
  F           19.461845       17.449707        4.710580
  F           18.606501       15.486524        4.355443
  F           17.781116       17.227009        3.358639
  F           16.558456       21.722291        3.978407
  F           17.878554       21.368169        5.662569
  F           18.106211       20.207916        3.844137
  O           15.955069       16.297236        5.546831
  O           17.908994       16.522846        7.060222
  O           15.170963       20.281393        6.216775
  O           15.372701       18.976843        4.118721
  N           16.979968       18.571437        6.090691
  C           18.310016       16.791076        4.506219
  C           17.210083       20.768082        4.668371
  S          -10.269187        8.149294       -0.205233
  S          -10.538908        5.332401       -0.083704
  F           -8.869699        8.199644       -2.476265
  F           -8.111549        9.507929       -0.918890
  F           -7.779200        7.368132       -0.796506
  F           -9.811713        3.177306       -1.422957
  F          -11.109786        4.492533       -2.558585
  F           -9.026302        5.017566       -2.261695
  O           -9.868214        8.227645        1.174374
  O          -11.071367        9.205108       -0.763684
  O          -11.738808        4.658301        0.339023
  O           -9.353701        5.212366        0.724586
  N          -10.866904        6.766184       -0.665446
  C           -8.665024        8.303313       -1.153530
  C          -10.099891        4.466848       -1.678334
  S           -6.893024       -1.330482        5.275476
  S           -4.711334       -2.794309        4.217252
  F           -7.909647       -0.599218        2.919543
  F           -7.823878        0.987756        4.398049
  F           -6.015590        0.348205        3.385511
  F           -3.646132       -3.423046        1.885539
  F           -5.648170       -4.213705        2.152315
  F           -5.363227       -2.107273        1.720503
  O           -6.048855       -0.641475        6.215093
  O           -8.234477       -1.678803        5.661844
  O           -4.241561       -4.041430        4.762114
  O           -3.852384       -1.640866        4.282305
  N           -6.240792       -2.568065        4.550882
  C           -7.167006       -0.081718        3.910980
  C           -4.863720       -3.154156        2.391862
  S            7.177316       14.905658       10.443190
  S            4.601817       13.793870       10.834512
  F            6.626364       17.279576       11.529308
  F            7.739541       17.374241        9.668208
  F            5.617415       16.926930        9.642551
  F            2.237944       14.470269       11.794427
  F            3.808637       14.499637       13.289930
  F            3.676206       16.094259       11.825569
  O            7.224342       14.460418        9.075790
  O            8.388380       14.915084       11.219939
  O            4.368157       12.430634       11.234341
  O            4.175302       14.216422        9.526081
  N            6.021132       14.294083       11.321410
  C            6.754655       16.722563       10.314588
  C            3.531383       14.774452       12.008136
  S           18.933399       15.430489       16.409009
  S           17.291586       13.284542       17.258575
  F           21.155290       13.983554       16.111901
  F           21.443685       15.885470       17.117567
  F           20.538670       14.223306       18.176965
  F           17.455061       10.700215       17.769829
  F           17.870016       11.190142       15.698054
  F           19.356596       11.591795       17.225623
  O           18.473297       16.279800       17.475410
  O           19.230449       16.012465       15.127148
  O           15.921521       13.111845       16.851183
  O           17.574668       13.561527       18.642628
  N           18.105387       14.109524       16.182067
  C           20.608200       14.837323       16.991696
  C           18.042695       11.601586       16.961496
  S           12.698763       18.393414        1.907191
  S           11.349098       15.949738        1.428388
  F           10.556200       19.735022        2.760538
  F           11.811328       20.829012        1.367821
  F           10.502593       19.257253        0.646051
  F            8.918925       14.928362        1.562172
  F            9.691371       15.553263        3.490199
  F            8.995485       17.036531        2.068802
  O           13.358367       18.345447        0.629359
  O           13.399414       18.941129        3.038209
  O           11.903930       14.654694        1.724856
  O           11.108887       16.303975        0.053880
  N           11.980526       17.064819        2.355551
  C           11.305570       19.614413        1.653215
  C            9.646283       15.871141        2.189311
  S           -7.163498       12.286082       11.428346
  S           -6.859864       14.640349        9.883148
  F           -6.218639       13.317602       13.700327
  F           -5.466627       11.337395       13.225904
  F           -4.711979       13.069424       12.160660
  F           -5.976364       17.115194       10.130968
  F           -7.681608       16.684668       11.400320
  F           -5.719151       15.925684       11.927024
  O           -6.550406       11.471938       10.412708
  O           -8.239093       11.738716       12.211664
  O           -7.814706       15.085177        8.901682
  O           -5.551112       14.232540        9.443470
  N           -7.554505       13.747525       10.988624
  C           -5.809903       12.526351       12.695775
  C           -6.547744       16.172455       10.902947
  S          -10.860159       -1.600425       -2.750300
  S          -10.345902       -2.655773       -0.172669
  F           -8.963347       -2.993308       -4.007548
  F           -9.064678       -0.897897       -4.565046
  F           -8.188600       -1.475284       -2.666816
  F           -8.700440       -4.334686        1.027560
  F           -9.952288       -5.285371       -0.466943
  F           -8.267603       -4.065026       -1.081195
  O          -10.893442       -0.250493       -2.253501
  O          -11.741856       -1.974788       -3.823876
  O          -11.374520       -2.993878        0.776277
  O           -9.445252       -1.575702        0.135120
  N          -10.892177       -2.732437       -1.655047
  C           -9.168523       -1.754797       -3.531881
  C           -9.259194       -4.173549       -0.186117
  S           16.134800       11.520831        6.942276
  S           17.198737       10.220949        9.222791
  F           13.601098       11.525659        7.778350
  F           13.866260       10.948131        5.702785
  F           14.355734        9.552476        7.289205
  F           16.391631        9.175769       11.508185
  F           16.021333       11.308087       11.364792
  F           14.764717        9.914120       10.277373
  O           16.850220       10.654132        6.043811
  O           15.939504       12.899556        6.580229
  O           18.455597       10.569732        9.832319
  O           17.063349        8.929603        8.601058
  N           16.578193       11.455255        8.452627
  C           14.392745       10.841459        6.937259
  C           16.021753       10.162044       10.670548
  S            2.045966       20.177706       12.887752
  S            4.660825       19.392511       13.641665
  F            0.783471       18.845658       14.824358
  F           -0.121912       18.657785       12.860483
  F            1.690478       17.562738       13.329820
  F            5.875721       17.892668       15.442039
  F            4.790497       19.558818       16.308469
  F            3.711847       17.822759       15.582299
  O            2.289012       19.864387       11.504642
  O            1.207768       21.300110       13.215983
  O            5.803031       20.268368       13.608359
  O            4.624515       18.264671       12.747733
  N            3.319706       20.213094       13.814245
  C            1.052812       18.722839       13.514916
  C            4.754404       18.630266       15.343131
  S            8.352377       -7.745615       15.863120
  S            6.706277      -10.016319       16.258921
  F           10.566144       -8.820526       16.893891
  F           10.164459       -6.787213       17.538955
  F            9.017611       -8.433967       18.361817
  F            6.838465      -12.451651       17.268145
  F            8.147989      -12.159850       15.563897
  F            8.678878      -11.325309       17.494288
  O            7.363260       -6.860717       16.418851
  O            9.172558       -7.285622       14.774170
  O            5.720323      -10.468032       15.311968
  O            6.266050       -9.525502       17.538669
  N            7.857482       -9.205631       15.538331
  C            9.589956       -7.969210       17.246858
  C            7.656883      -11.571284       16.662894
  S          -12.526822       -6.404597        0.457439
  S          -13.503262       -9.062493        0.524932
  F          -14.917823       -5.224541        0.553727
  F          -13.547831       -4.372441       -0.898467
  F          -14.530094       -6.261722       -1.310707
  F          -15.796708      -10.367174        0.593898
  F          -15.462799       -9.131282        2.344766
  F          -16.034699       -8.214644        0.463964
  O          -11.641267       -6.697100       -0.638220
  O          -12.107887       -5.469745        1.467711
  O          -12.881078      -10.127736        1.267236
  O          -13.521066       -9.136358       -0.912665
  N          -13.173348       -7.654556        1.165720
  C          -13.968469       -5.526004       -0.346337
  C          -15.299725       -9.189916        1.016098
  S          -11.123678        6.928150       11.060747
  S          -13.121913        6.260443        9.167701
  F          -12.242014        9.216972       11.854037
  F          -10.101700        9.329041       11.510063
  F          -11.470474        9.277810        9.828398
  F          -15.366384        7.233406        8.176469
  F          -15.484902        6.801948       10.298794
  F          -14.412880        8.556251        9.607490
  O          -10.065104        6.646758       10.127756
  O          -10.929103        6.627119       12.454169
  O          -13.615062        4.924074        8.958435
  O          -12.391409        6.904804        8.107692
  N          -12.558306        6.435421       10.635171
  C          -11.249977        8.793717       11.054672
  C          -14.681940        7.271991        9.334584
  S           22.466173       -2.066452       -4.229741
  S           19.814506       -1.724519       -3.294784
  F           22.830910        0.469788       -4.973478
  F           23.531081       -1.001637       -6.407524
  F           21.408054       -0.606043       -6.206466
  F           17.976140        0.158171       -3.088049
  F           19.757741        0.570679       -1.921773
  F           19.787874        0.829119       -4.075145
  O           22.112564       -3.246254       -4.973557
  O           23.761016       -1.991653       -3.606933
  O           19.292938       -2.356346       -2.110879
  O           19.271209       -2.094158       -4.575664
  N           21.384542       -1.555458       -3.204551
  C           22.552766       -0.721672       -5.526042
  C           19.318514        0.062408       -3.081139
  S           17.597246        9.673896       -2.903985
  S           17.994275        7.200634       -1.581963
  F           16.698419        8.629833       -5.188878
  F           18.147227       10.227527       -5.434126
  F           18.802276        8.252009       -4.823879
  F           17.767797        4.610825       -2.038523
  F           15.875253        5.665673       -2.138698
  F           17.297540        5.833875       -3.767660
  O           18.894274       10.157257       -2.511159
  O           16.497724       10.598676       -2.981026
  O           17.694782        6.976306       -0.191693
  O           19.366022        7.142288       -2.014819
  N           17.105358        8.367160       -2.174229
  C           17.826709        9.155284       -4.685759
  C           17.178985        5.754167       -2.435074
  S            7.307804       18.312923       -4.029289
  S            5.378959       16.272720       -3.655753
  F            9.143830       16.756223       -5.180107
  F            9.923431       18.109060       -3.672170
  F            8.832846       16.331419       -3.076534
  F            5.078630       13.682330       -4.063836
  F            5.339192       14.812364       -5.896756
  F            7.043816       14.418172       -4.614734
  O            7.155079       18.783680       -2.678254
  O            7.564216       19.263361       -5.078586
  O            3.964177       16.461119       -3.844874
  O            5.871210       15.992459       -2.332273
  N            6.210727       17.297717       -4.527120
  C            8.885644       17.310533       -3.984973
  C            5.737000       14.715474       -4.620923
  S           22.414604       14.187621       -2.249604
  S           23.879640       16.133871       -3.694657
  F           24.449830       12.495002       -1.915557
  F           22.583774       11.558000       -2.508585
  F           23.765319       12.643796       -3.967750
  F           26.310940       16.536699       -4.639833
  F           26.246669       16.396842       -2.476323
  F           26.068355       14.604114       -3.684231
  O           21.332096       14.216217       -3.197017
  O           22.121037       13.992490       -0.854668
  O           23.718286       17.553776       -3.519425
  O           23.504329       15.542500       -4.952385
  N           23.470744       15.348922       -2.383781
  C           23.364591       12.639189       -2.692560
  C           25.729441       15.898502       -3.607483
  S            2.167218        3.646620        0.022187
  S            1.261203        1.133362        0.962968
  F            4.740429        3.254938        0.608585
  F            3.975558        5.209844        1.160974
  F            3.469965        3.469649        2.352720
  F            2.202887       -1.049437        2.109907
  F            3.028572       -0.696419        0.135549
  F            3.706064        0.488159        1.821518
  O            1.118335        4.347793        0.713876
  O            2.610054        4.132146       -1.257760
  O            0.252654        0.345366        0.303603
  O            0.976115        1.677125        2.265083
  N            2.002464        2.082110       -0.062774
  C            3.671763        3.899551        1.103251
  C            2.634526       -0.094248        1.265818
  S          -10.272926        7.601529       15.545004
  S          -10.970245        9.708590       17.304675
  F           -7.650730        8.094244       15.542178
  F           -8.496632        7.693671       13.583656
  F           -8.826132        9.613943       14.536626
  F           -9.833871       11.686677       18.632332
  F           -9.149144        9.727998       19.264146
  F           -8.444711       10.571392       17.394074
  O          -11.318884        7.950747       14.620747
  O           -9.936436        6.215269       15.732516
  O          -11.967353        9.595577       18.337086
  O          -11.209555       10.604424       16.203462
  N          -10.348920        8.296214       16.956986
  C           -8.724707        8.300576       14.763546
  C           -9.510691       10.454581       18.197962
  S          -14.036435        1.917113       12.084334
  S          -15.610005        0.914841        9.953200
  F          -15.680545        1.140309       14.036811
  F          -14.908909        3.157455       14.254804
  F          -16.474921        2.743973       12.812304
  F          -17.907068       -0.321359        9.550515
  F          -16.492089       -1.498304       10.698164
  F          -17.539417        0.153906       11.635189
  O          -13.852451        3.184321       11.428157
  O          -12.963263        1.373415       12.873510
  O          -15.064904        0.270558        8.786738
  O          -16.280065        2.179561        9.798406
  N          -14.637424        0.766453       11.191669
  C          -15.358815        2.255541       13.362263
  C          -16.956129       -0.256917       10.500644
  S           11.872995        6.975653       -2.434251
  S           12.335052        9.583648       -1.430624
  F           12.064500        5.731489       -0.081790
  F           13.115510        4.752728       -1.709434
  F           13.945294        6.537907       -0.799072
  F           12.860709       10.802706        0.850698
  F           10.931754        9.811059        0.835507
  F           12.749104        8.643834        1.034341
  O           12.815742        7.159105       -3.505608
  O           10.689292        6.191850       -2.667927
  O           11.637001       10.756029       -1.890100
  O           13.748457        9.474423       -1.681249
  N           11.465694        8.280922       -1.651669
  C           12.806141        5.950867       -1.179109
  C           12.203772        9.707057        0.427411
  S           27.848559        1.697765       10.447123
  S           27.049688        1.746769       13.164070
  F           29.032202        4.088901       10.459308
  F           27.770576        3.714348        8.733089
  F           26.874322        4.181450       10.652129
  F           27.150469        3.338382       15.267273
  F           29.108287        2.719340       14.568560
  F           27.993525        4.225234       13.475720
  O           26.545034        1.271264       10.012206
  O           29.012953        1.208018        9.758329
  O           27.095972        0.601451       14.035261
  O           25.768551        2.306161       12.820231
  N           28.111106        1.618036       11.998499
  C           27.879454        3.527231       10.061857
  C           27.882549        3.082636       14.167347
  S            5.696533       10.472345       15.499767
  S            4.925927       12.399932       17.426675
  F            3.963618        8.595963       16.271054
  F            5.970964        7.866850       15.882753
  F            5.547944        8.964259       17.705089
  F            3.247075       12.674503       19.444822
  F            2.253445       12.368118       17.541327
  F            3.201606       10.698481       18.550294
  O            7.094187       10.665930       15.781406
  O            5.285258       10.191391       14.149944
  O            4.820769       13.809773       17.154350
  O            5.934810       11.943957       18.346836
  N            4.721317       11.549321       16.108975
  C            5.266887        8.890990       16.400348
  C            3.312201       12.006186       18.278505
  S           20.859048      -11.018526       -1.078352
  S           23.236295      -11.851080       -2.373708
  F           20.919349       -8.504419       -1.969599
  F           20.441322       -8.704268        0.138331
  F           22.484913       -8.962444       -0.540819
  F           25.142798      -10.871419       -3.913954
  F           23.183612      -10.824316       -4.843383
  F           23.685447       -9.386658       -3.298710
  O           21.265380      -11.607141        0.170111
  O           19.466918      -11.034774       -1.441413
  O           23.402934      -13.138834       -2.995633
  O           24.028571      -11.532060       -1.214836
  N           21.712123      -11.429994       -2.337324
  C           21.206579       -9.194921       -0.854712
  C           23.833604      -10.662037       -3.682967
  S           14.973285       -2.045096       12.185201
  S           12.242132       -1.359722       12.490921
  F           15.310094       -0.817406        9.840413
  F           16.179326       -2.803232        9.953320
  F           14.034362       -2.567695        9.734657
  F           10.328068       -0.078349       11.202009
  F           11.989900        1.200312       11.756809
  F           12.191661       -0.179976       10.095843
  O           14.724935       -3.421179       12.524242
  O           16.207843       -1.432573       12.598465
  O           11.645458       -0.978932       13.744655
  O           11.821589       -2.586628       11.866179
  N           13.792156       -1.045017       12.479876
  C           15.121245       -2.056517       10.321252
  C           11.667649       -0.024574       11.319549
  S          -14.101059       -6.840882       12.515877
  S          -12.587684       -9.154752       11.900977
  F          -16.415748       -7.755613       11.554538
  F          -15.954398       -5.707761       11.002018
  F          -14.932806       -7.352524       10.024638
  F          -12.889087      -11.518951       10.766708
  F          -14.088843      -11.269763       12.556388
  F          -14.683977      -10.301602       10.708906
  O          -13.103032       -5.969390       11.954917
  O          -14.838261       -6.409573       13.673723
  O          -11.574087       -9.703764       12.763576
  O          -12.195040       -8.609977       10.627592
  N          -13.658557       -8.337673       12.730042
  C          -15.421177       -6.928865       11.194561
  C          -13.631023      -10.640271       11.465733
  S            0.427528        6.316427       -3.976235
  S            2.893236        7.186562       -5.065066
  F            0.692623        3.759067       -4.689204
  F           -1.271819        4.602581       -5.065065
  F            0.392129        5.105614       -6.362138
  F            4.955210        6.229409       -6.406322
  F            4.720848        5.334201       -4.444654
  F            3.395311        4.761144       -6.063070
  O           -0.288217        7.412752       -4.572905
  O            0.022708        5.835886       -2.681900
  O            3.759186        8.143860       -4.427430
  O            2.265364        7.540467       -6.311253
  N            1.998547        6.431887       -4.001235
  C            0.048265        4.865432       -5.092971
  C            4.050785        5.791591       -5.511049
  S           21.672824        3.331457        1.593041
  S           23.053666        0.921288        1.039183
  F           22.955223        4.812397       -0.218301
  F           22.712031        5.763558        1.717667
  F           24.197766        4.205912        1.452164
  F           24.978636        0.012971       -0.521682
  F           23.249819        0.724394       -1.621470
  F           24.630391        2.143651       -0.735784
  O           21.853932        3.176036        3.011941
  O           20.454954        3.919046        1.101476
  O           22.427272       -0.374766        1.011882
  O           24.031191        1.198568        2.058995
  N           22.008953        2.064775        0.718634
  C           22.965642        4.591450        1.105837
  C           24.024838        0.961852       -0.554536
  S           -2.737681      -13.316664        7.894015
  S           -3.514157      -12.246439       10.398831
  F           -4.880697      -12.468547        6.549815
  F           -4.302034      -14.517561        6.127310
  F           -5.313411      -14.035882        7.984530
  F           -5.512816      -10.910788       11.488898
  F           -4.485313       -9.796954        9.937101
  F           -5.842791      -11.401678        9.401543
  O           -2.408640      -14.590725        8.476025
  O           -1.947221      -12.820498        6.798983
  O           -2.602126      -11.626671       11.324552
  O           -4.152947      -13.480588       10.774705
  N           -2.977440      -12.140789        8.914745
  C           -4.408968      -13.596813        7.103670
  C           -4.914353      -11.016820       10.288155
