         874
  Built with Packmol                                             
  Ti          -2.868335        2.115442       11.265214
  Ti           7.802788        5.383210        1.844391
  Ti           1.352572       -1.673500        9.417113
  Ti           2.511792        7.542652        3.648414
  Ti           1.444672        9.187418        1.751989
  Ti           3.259458       -1.864257       11.359530
  Ti          -1.869782        0.416024        9.366140
  Ti           5.815984        5.614284        3.703281
  H            3.746896        1.652626        8.583439
  H           -7.024875       10.142785        6.478257
  H            4.431630       11.010612        4.650438
  H           -2.503694        6.028051       11.048460
  H            8.748737        1.507342        2.155250
  H           -6.801542        1.221893       10.903644
  H           11.114246        7.503838        2.029089
  H            4.372721       -5.862020       10.962653
  H           -2.589143        8.456181        2.095703
  H            4.656966        3.204147        6.826953
  H           -0.045224        3.670268        8.406030
  H           12.440918       -1.828167        6.378540
  H           -2.327232        0.331938       12.984230
  H            5.927385        5.077403        0.154584
  H            3.761426       -2.506617        5.844726
  H            0.745560        9.314262        7.279431
  H           -6.059913        3.661213        9.037490
  H           10.641247        3.393379        4.132134
  H           -3.728587        2.298708        5.688870
  H           -1.703972       10.903386        4.124923
  H            1.733452       12.300945        2.609537
  H            8.667985       -0.517063        3.355831
  H            4.606680        7.297451        2.297825
  H            0.215487        0.134620       10.719246
  H            7.415332        0.218685        9.728366
  H            5.955496       -0.302534       10.483299
  H            7.828656        4.670987        8.632537
  H            7.237651        5.011538        7.017709
  H            7.098177       -4.749977        9.534320
  H            5.784030       -3.695029       10.000157
  H            1.411485        1.911548        9.356085
  H            0.863759        5.227040        6.648574
  H            5.741023        9.069333        3.845371
  H            7.999135        8.609993        4.744623
  C            8.422325        4.659191        4.703706
  C           -3.853328        2.346718        8.423899
  C            3.961595       -2.592630        8.476524
  C            0.513540        9.443357        4.621320
  C            9.344336        4.085192        5.693105
  C           -4.811926        2.940026        7.452907
  C            4.917315       -3.172748        7.523270
  C           -0.392661       10.057561        5.626884
  C            9.101042        4.149763        7.100999
  C           -4.599256        2.829342        6.063538
  C            6.075072       -3.893771        7.969088
  C           -1.516055       10.792469        5.189090
  C           -0.124811        9.894234        6.980095
  C            4.657405       -3.047644        6.140915
  C           10.498947        3.426687        5.210054
  C           -5.932679        3.593124        7.958691
  C            2.813684        4.307411        6.639567
  C            1.802100        2.580168        8.590925
  C            6.161473        9.726276        4.605129
  C           -1.730084       -2.944720        6.528234
  C            8.715175        1.588330        0.011262
  C            1.839040       13.147429        0.088587
  C            6.684170        0.195343       12.990012
  C           -6.719779        1.271810       13.046845
  C            3.350517        5.224492        5.605606
  C           -1.145018       -2.033515        7.540248
  C            4.215985       -4.201651       13.101266
  C            1.796086       11.711651        0.049701
  C            5.408882       -0.466276       13.043122
  C           -5.332575        1.734605       13.064020
  C            1.482906        4.442604        7.078738
  C            3.125222        2.436827        8.154613
  C            5.424120       10.827594        5.058747
  C           -8.018869       10.319594        6.073436
  C            8.784652        0.919515        1.239780
  C           -2.508142        6.615249       11.963065
  C           -4.360552        7.730507        1.110303
  C           -7.351366        1.022025       11.821932
  C            7.441371        9.469644        5.112723
  C           12.991193       -2.694552        6.017481
  C            3.632637        3.298056        7.181208
  C            0.980621        3.578705        8.052889
  C            7.361766        0.489528       11.753548
  C           -3.089201        8.254946        1.152479
  C            4.438003       -6.388560       11.910676
  C            8.855538       -0.479663        1.318796
  N            8.938305       -1.077634        2.555968
  N            6.782516        0.288157       10.517426
  N            8.001283        4.757340        7.639127
  N            6.418775       -4.042078        9.284423
  O            7.234665        5.022637        5.076604
  O           -3.053924        1.423703        8.020113
  O            4.345224       -2.456407        9.695708
  O            0.426054        9.871897        3.422680
  O            1.318961        8.513079        5.002228
  O            2.776776       -2.264724        8.078087
  O            8.824398        4.755701        3.489805
  O           -3.903766        2.779752        9.624467
  O            6.156697        4.409127        2.505218
  O           -1.367975        1.993658       10.109628
  O            7.017801        6.727170        2.953185
  O           -3.056279        0.208461       10.609657
  O            1.659621       -2.837312       10.674383
  O            2.969458        9.121937        2.909279
  O            2.531624       -0.543378       10.208048
  O            1.322575        7.306972        2.398893
  O            4.575167        5.087631        5.244337
  O           -1.836144       -1.022528        7.923516
  O            4.066391       -3.610049       11.962095
  O            1.743514       11.006429        1.144350
  O            4.771026       -0.795498       11.956418
  O           -0.427504        9.094025        1.094098
  O            0.028867       -2.288059        7.991258
  O            2.574295        6.119616        5.117796
  O            9.199419        6.452785        1.083295
  O           -4.748114        1.988975       11.944029
  O            8.500254        3.672420        1.113292
  O           -2.542975        3.849240       12.015231
  O            4.269171        6.735574        3.019668
  O           -0.147093       -0.436062       10.017030
  O            6.748057        5.600086        0.071530
  O           -2.238358        1.302347       13.044892
  S           24.538709       18.145977       -0.845276
  S           26.182703       19.520526       -2.697383
  F           22.284082       19.432147       -1.462624
  F           22.632773       19.191509        0.666303
  F           23.750157       20.673179       -0.456315
  F           26.020371       21.443064       -4.498589
  F           24.799077       19.716056       -4.978536
  F           24.160365       21.100350       -3.435653
  O           25.489242       18.326740        0.219639
  O           23.772361       16.929619       -0.902615
  O           27.220917       18.890764       -3.470935
  O           26.550908       20.498811       -1.707513
  N           25.063319       18.478776       -2.293062
  C           23.232612       19.442046       -0.512644
  C           25.226636       20.491735       -3.973098
  S           16.606108        4.705446        0.494233
  S           17.235267        7.297886        1.445978
  F           15.844538        5.478353       -1.943249
  F           14.532909        4.025003       -1.005581
  F           14.489607        6.097469       -0.367480
  F           17.192155        9.809321        0.635002
  F           18.536608        8.560189       -0.521105
  F           16.393866        8.419106       -0.826829
  O           15.857309        4.389138        1.681448
  O           17.365401        3.668926       -0.153226
  O           18.369928        7.592823        2.281697
  O           15.911963        7.465213        1.987575
  N           17.493288        6.005026        0.572093
  C           15.294355        5.111074       -0.775057
  C           17.348906        8.584994        0.098684
  S          -11.802640      -12.433619        2.725422
  S          -11.898999      -12.745486        5.538935
  F          -10.794790       -9.963341        2.751091
  F          -12.423580      -10.259803        1.347177
  F          -12.837714      -10.080725        3.468636
  F          -11.368933      -11.385313        7.737982
  F           -9.615081      -11.752729        6.515904
  F          -11.053218      -10.241691        5.921567
  O          -13.146359      -12.923328        2.567825
  O          -10.820724      -12.743320        1.720420
  O          -11.569961      -13.968988        6.222783
  O          -13.255741      -12.266535        5.587031
  N          -11.156727      -12.655619        4.145129
  C          -11.975545      -10.577768        2.576265
  C          -10.921189      -11.457021        6.470872
  S           -9.819411        6.751080        1.723171
  S           -7.940461        4.647552        1.982239
  F           -8.059975        8.736146        2.010547
  F           -9.899871        8.990236        3.133952
  F           -8.390944        7.593046        3.823272
  F           -5.361014        4.289241        2.412255
  F           -5.781488        5.346669        0.565769
  F           -5.961422        6.373303        2.467967
  O          -10.728791        6.129419        2.648806
  O          -10.349412        7.483055        0.603611
  O           -7.971314        3.442122        1.195564
  O           -8.174528        4.557594        3.399835
  N           -8.634816        5.844555        1.216216
  C           -8.986347        8.086290        2.732897
  C           -6.164670        5.205815        1.841982
  S          -14.465941       -5.449007        6.723014
  S          -13.707170       -2.791475        7.342842
  F          -17.091981       -4.982318        6.653680
  F          -16.522906       -6.785793        7.719256
  F          -16.232271       -4.843451        8.639581
  F          -14.806448       -0.440370        7.823197
  F          -15.199738       -1.175330        5.820793
  F          -16.258609       -2.022267        7.513779
  O          -13.611536       -5.992071        7.745417
  O          -14.638424       -6.176269        5.493606
  O          -12.557296       -2.132855        6.779921
  O          -13.724592       -3.071902        8.754761
  N          -14.239533       -3.928046        6.380275
  C          -16.174293       -5.507449        7.480937
  C          -15.075697       -1.544771        7.102790
  S            1.689825      -12.282677        8.208074
  S            4.392868      -12.031935        9.016211
  F            1.605562      -10.016337        6.802623
  F           -0.115320      -10.349701        8.082956
  F            1.770531       -9.711098        8.943138
  F            6.422106      -10.360889        8.778203
  F            5.773693      -11.194285        6.883612
  F            4.601147       -9.642124        7.843112
  O            1.260739      -12.603659        9.543397
  O            1.036804      -12.911944        7.091073
  O            5.315941      -13.134717        9.084627
  O            4.009946      -11.370404       10.236131
  N            3.245980      -12.314636        7.964324
  C            1.221714      -10.484262        8.000944
  C            5.343024      -10.735670        8.066652
  S           -9.939306        3.161986       -0.475388
  S           -9.361840        1.594015        1.811619
  F          -12.387395        2.180412       -0.877961
  F          -11.181862        2.365399       -2.673593
  F          -10.799895        0.756309       -1.270348
  F          -10.467408       -0.284158        3.300588
  F          -11.561969        1.588094        3.333365
  F          -11.683349        0.291725        1.598602
  O           -8.668586        2.855632       -1.076763
  O          -10.511680        4.467387       -0.671391
  O           -8.657623        2.087464        2.966373
  O           -8.745046        0.572375        1.006464
  N          -10.088659        2.770029        1.043203
  C          -11.144480        2.044210       -1.366714
  C          -10.860788        0.759628        2.547630
  S          -10.354021        0.259090       15.995987
  S          -11.703686        2.712419       15.569393
  F           -8.379181        1.278105       17.472573
  F           -7.736749       -0.139880       15.959821
  F           -8.307976        1.872948       15.388519
  F          -11.458962        5.275926       16.148524
  F          -11.703513        4.022568       17.901737
  F           -9.801371        4.070753       16.860465
  O          -10.431685       -0.091608       14.602713
  O          -10.459402       -0.778237       16.987425
  O          -13.136562        2.852603       15.578629
  O          -10.992040        2.937430       14.338383
  N          -11.247461        1.476614       16.444826
  C           -8.597964        0.863020       16.214755
  C          -11.130857        4.089353       16.692194
  S            6.538160       16.761120       15.309228
  S            4.578473       18.046007       16.900169
  F            6.202793       14.331155       16.358746
  F            8.274490       14.926788       16.103571
  F            7.097907       15.756991       17.725477
  F            2.874760       17.492594       18.838710
  F            2.460030       16.415641       17.002236
  F            4.109772       15.802053       18.269742
  O            7.505774       17.794836       15.564935
  O            6.515454       16.125124       14.018842
  O            3.680000       19.056828       16.406351
  O            5.560342       18.412142       17.887254
  N            5.057282       17.091488       15.733391
  C            7.050131       15.368670       16.447339
  C            3.443893       16.863410       17.794010
  S           18.163516       18.261621        3.222298
  S           19.791367       15.945212        3.304456
  F           20.143751       19.978883        2.723931
  F           18.734460       20.639693        4.236891
  F           20.209782       19.123603        4.715495
  F           22.330560       15.256329        3.092823
  F           21.529235       16.136721        1.279745
  F           22.007599       17.398613        2.977834
  O           17.487326       17.899191        4.439527
  O           17.425681       18.926003        2.181002
  O           19.405670       14.672924        2.751834
  O           19.956728       16.061599        4.729786
  N           19.048407       17.132953        2.570277
  C           19.391055       19.567052        3.756458
  C           21.507021       16.208736        2.617545
  S           15.566789       13.286199       -5.446682
  S           17.386081       11.635647       -4.036626
  F           14.238177       14.140542       -3.296432
  F           12.977781       13.565639       -4.967572
  F           13.919571       12.042759       -3.743631
  F           17.916034       10.868866       -1.567204
  F           18.168107       13.001283       -1.873344
  F           16.176494       12.157057       -1.713745
  O           15.282707       12.251658       -6.405460
  O           15.594804       14.657353       -5.881717
  O           18.781601       11.512540       -4.368649
  O           16.531156       10.488138       -4.194056
  N           16.809047       13.029350       -4.512401
  C           14.097653       13.249351       -4.290564
  C           17.408936       11.945340       -2.195884
  S           15.154766        6.222383        8.271925
  S           12.424142        6.924116        8.543342
  F           16.125634        8.413099        9.445326
  F           17.151098        7.835487        7.621426
  F           15.205896        8.789240        7.517947
  F           10.930617        8.894838        9.466644
  F           12.113391        7.925158       11.004574
  F           13.059326        9.289100        9.608301
  O           14.984834        5.866636        6.888162
  O           16.076892        5.470931        9.081312
  O           11.383585        5.986531        8.876574
  O           12.411145        7.542598        7.243431
  N           13.825760        6.436397        9.090459
  C           15.943675        7.916574        8.211380
  C           12.125972        8.334898        9.728901
  S           -6.911872       -5.970889        0.164557
  S           -6.684778       -3.460148        1.455683
  F           -5.095927       -7.223571        1.665165
  F           -4.935646       -7.617312       -0.463473
  F           -4.253628       -5.723738        0.344853
  F           -5.311106       -2.304546        3.390743
  F           -6.555924       -3.939737        4.084315
  F           -4.713571       -4.356633        3.018180
  O           -6.833415       -5.370895       -1.140849
  O           -7.755676       -7.119938        0.358939
  O           -7.804071       -2.602065        1.745076
  O           -5.696150       -3.015870        0.508219
  N           -7.136991       -4.972957        1.362684
  C           -5.198515       -6.663397        0.449456
  C           -5.768031       -3.531736        3.080248
  S           25.913856       17.885799        9.221049
  S           25.535855       15.087373        9.440877
  F           25.943487       18.372058       11.844284
  F           24.751434       19.764055       10.681025
  F           24.001826       17.770188       11.089371
  F           25.216892       13.234952       11.293888
  F           27.140078       14.231876       11.403250
  F           25.353037       15.244439       12.100323
  O           24.876193       18.005837        8.231564
  O           27.074119       18.731401        9.126974
  O           26.184408       14.120662        8.593695
  O           24.105852       15.232512        9.360359
  N           26.386222       16.417261        9.540926
  C           25.103567       18.470242       10.801614
  C           25.836413       14.422036       11.158944
  S           14.016921        0.678787       16.625980
  S           13.820961        3.417406       15.930300
  F           12.250569       -0.194920       14.827279
  F           12.027792       -1.059492       16.805840
  F           11.364531        0.970460       16.426971
  F           12.502360        4.986120       14.266787
  F           13.772373        3.545543       13.258684
  F           11.900186        2.905250       14.147308
  O           13.897566        0.968134       18.030354
  O           14.869666       -0.399685       16.201919
  O           14.945802        4.314440       15.876152
  O           12.803044        3.639540       16.923759
  N           14.274791        1.921077       15.692023
  C           12.314985        0.075245       16.140720
  C           12.953516        3.718768       14.305037
  S           11.922023        8.656532       -3.139457
  S            9.458406        9.014558       -1.788602
  F           11.848795        5.989495       -3.154881
  F           13.771880        6.837160       -2.611715
  F           12.139847        6.843922       -1.183223
  F            7.522316        7.580187       -0.711113
  F            7.723498        7.276335       -2.849258
  F            9.153501        6.378815       -1.487546
  O           12.594293        9.595991       -2.281725
  O           12.297364        8.579715       -4.526295
  O            8.506817       10.044882       -2.113842
  O           10.118425        9.057662       -0.509941
  N           10.349579        8.647020       -3.042581
  C           12.440595        6.986307       -2.477824
  C            8.411067        7.471009       -1.715794
  S            2.489081        4.089239        2.885854
  S            2.031316        1.305675        3.140065
  F            1.753686        4.262196        0.326954
  F            3.574480        5.337036        0.818123
  F            3.605722        3.176350        0.632058
  F            1.247019       -0.750414        1.682593
  F           -0.279194        0.775251        1.900504
  F            1.391822        1.097882        0.555764
  O            3.781083        3.991817        3.511532
  O            1.683174        5.258153        3.118787
  O            1.457377        0.689833        4.308055
  O            3.397796        1.007865        2.798748
  N            1.572615        2.813678        3.008690
  C            2.876751        4.211510        1.060727
  C            1.036134        0.577585        1.738545
  S           -3.469106       -2.004224       16.810780
  S           -3.988388       -3.884458       14.757133
  F           -1.455134       -0.775934       15.564220
  F           -1.094874       -1.199153       17.662533
  F           -0.987507       -2.796045       16.198780
  F           -3.069657       -4.583416       12.383478
  F           -3.858506       -2.563619       12.434455
  F           -1.924049       -2.994391       13.315943
  O           -3.494176       -3.022033       17.827476
  O           -3.979929       -0.694410       17.116637
  O           -5.309922       -4.296079       14.360917
  O           -3.112860       -4.852179       15.364935
  N           -4.010989       -2.437909       15.396448
  C           -1.647807       -1.683414       16.534593
  C           -3.163607       -3.470564       13.134422
  S           -9.924593       -3.224080       12.167119
  S          -12.330047       -3.636660       13.604468
  F           -8.329213       -4.418911       13.940769
  F           -7.573629       -2.535004       13.171479
  F           -9.167490       -2.546165       14.642413
  F          -13.166123       -4.683819       15.878514
  F          -12.258672       -6.138211       14.549701
  F          -11.010006       -4.743253       15.644980
  O          -10.235616       -1.839081       11.932016
  O           -9.228945       -3.969030       11.151625
  O          -13.583304       -3.987096       12.988505
  O          -12.209541       -2.357788       14.254408
  N          -11.108655       -4.106502       12.716105
  C           -8.686938       -3.179809       13.568040
  C          -12.172505       -4.876132       14.991426
  S           23.199445        3.899012       -3.272055
  S           22.382828        5.082765       -0.831918
  F           23.079419        1.375530       -2.413961
  F           24.854427        1.853570       -3.568364
  F           24.680482        2.528740       -1.514574
  F           21.715613        4.384201        1.624437
  F           20.363039        3.607621        0.117144
  F           22.318003        2.707459        0.386467
  O           24.299143        4.815806       -3.414843
  O           22.500200        3.453633       -4.447978
  O           21.496022        6.213680       -0.745457
  O           23.748049        5.236599       -0.401843
  N           22.139718        4.270118       -2.166924
  C           23.996729        2.328011       -2.645460
  C           21.650030        3.869350        0.382740
  S          -10.134034        8.164361        7.960791
  S          -12.596327        7.309982        6.851940
  F           -8.578634        6.836318        6.247396
  F           -7.961677        6.694755        8.323726
  F           -9.664584        5.552639        7.616729
  F          -13.508120        5.759485        4.920246
  F          -12.344191        7.438513        4.191823
  F          -11.345613        5.737115        5.093376
  O          -10.567104        7.863637        9.299541
  O           -9.280724        9.301213        7.738233
  O          -13.749308        8.159925        6.706676
  O          -12.665742        6.195012        7.759948
  N          -11.261603        8.158614        6.860514
  C           -9.031057        6.724468        7.506392
  C          -12.428223        6.523687        5.167231
  S            2.336000        5.232815       -5.205062
  S           -0.423493        5.508398       -4.629168
  F            2.272966        2.599185       -5.627803
  F            3.936082        3.278921       -4.409679
  F            1.944514        3.159875       -3.559002
  F           -2.595735        4.025110       -4.409930
  F           -1.748108        4.010650       -6.406373
  F           -0.804142        2.872199       -4.819688
  O            2.712046        6.014658       -4.057218
  O            3.118744        5.331733       -6.408237
  O           -1.230170        6.614346       -5.075289
  O           -0.187588        5.345787       -3.218365
  N            0.809664        5.278777       -5.592670
  C            2.627806        3.466223       -4.666241
  C           -1.441549        4.016840       -5.102006
  S           25.047202      -12.091166       15.582990
  S           27.522721      -10.925234       16.314294
  F           24.290132      -10.133056       13.936375
  F           22.733727      -10.841087       15.273579
  F           24.311167       -9.557179       16.026856
  F           28.936782       -8.743401       15.859451
  F           28.615634       -9.940947       14.079784
  F           27.000878       -8.733990       14.880116
  O           24.713565      -12.380018       16.952473
  O           24.643402      -13.011538       14.553444
  O           28.741159      -11.671925       16.489605
  O           26.930018      -10.284944       17.459366
  N           26.540691      -11.664701       15.319034
  C           24.047744      -10.561708       15.185284
  C           28.041279       -9.511131       15.211493
  S           -2.818014        8.865683       14.891007
  S           -5.016798        7.444777       15.972105
  F           -4.213391       10.164223       13.024083
  F           -2.333134        9.330800       12.329922
  F           -4.039593        8.033543       12.660505
  F           -7.609933        7.142145       15.583629
  F           -7.058168        9.165987       16.135065
  F           -6.667789        8.444987       14.126963
  O           -2.005889        7.679310       14.834367
  O           -2.197143       10.126859       15.197693
  O           -5.205313        7.207021       17.379516
  O           -4.770589        6.322108       15.105242
  N           -4.148398        8.743645       15.726015
  C           -3.393627        9.106208       13.128298
  C           -6.676564        8.098026       15.421465
  S          -12.523008       11.881167       11.800825
  S          -11.144137       12.798983       14.098374
  F          -14.970376       12.458721       12.692741
  F          -14.788463       10.511565       11.750769
  F          -14.017049       10.825236       13.753441
  F          -11.648045       13.840174       16.470893
  F          -12.286631       15.104995       14.828668
  F          -13.438667       13.343072       15.351307
  O          -11.774110       10.652938       11.771863
  O          -12.911873       12.495153       10.559089
  O           -9.898481       13.519484       14.052670
  O          -11.165049       11.485180       14.686542
  N          -11.965944       12.998471       12.761745
  C          -14.164238       11.394357       12.552962
  C          -12.196242       13.833569       15.241820
  S           -2.781240       -2.791140       -3.763317
  S           -4.356895       -0.447169       -3.549991
  F           -4.252996       -4.271041       -2.101235
  F           -2.109629       -4.436348       -1.800456
  F           -3.168784       -2.670772       -1.118478
  F           -6.497925        0.435111       -2.283333
  F           -6.918235       -1.215287       -3.626460
  F           -5.940337       -1.586187       -1.726234
  O           -1.559332       -2.055955       -3.571798
  O           -2.788224       -3.920150       -4.655164
  O           -4.663238        0.417960       -4.659305
  O           -3.534532        0.058212       -2.481924
  N           -4.065077       -1.921677       -4.042337
  C           -3.103231       -3.578006       -2.097937
  C           -6.022024       -0.731802       -2.755577
  S           -5.396504      -13.405176       10.239474
  S           -5.732439      -12.591044       12.931451
  F           -2.976143      -14.477994       10.570533
  F           -3.182132      -13.243670        8.796883
  F           -3.005797      -12.317184       10.750008
  F           -4.421037      -12.608094       15.222036
  F           -4.857013      -14.595748       14.471290
  F           -3.274730      -13.418783       13.568049
  O           -5.821575      -12.124787        9.739322
  O           -5.741176      -14.594276        9.506437
  O           -6.976874      -12.685284       13.649346
  O           -5.191456      -11.287404       12.648047
  N           -5.662862      -13.663178       11.770665
  C           -3.533188      -13.354221       10.091885
  C           -4.500462      -13.356722       14.106496
  S           18.367269       -5.130516        7.523415
  S           16.132187       -3.953453        8.804559
  F           20.187021       -4.240842        9.259985
  F           20.753893       -4.038340        7.174447
  F           19.304281       -2.678510        8.042578
  F           15.571720       -2.432334       10.887567
  F           16.440745       -4.343268       11.433085
  F           17.697219       -2.774049       10.618511
  O           17.952817       -4.649234        6.232357
  O           19.011342       -6.413442        7.620223
  O           14.851558       -4.597844        8.937298
  O           16.233731       -2.772405        7.987691
  N           17.293769       -5.018651        8.671082
  C           19.722444       -3.948074        8.034945
  C           16.490203       -3.350472       10.534588
  S          -16.430854        2.364771       11.580181
  S          -16.724958        5.094955       10.885921
  F          -16.505735        1.430206        9.082247
  F          -17.702373        0.307188       10.503060
  F          -18.400187        2.226972        9.773916
  F          -17.046034        6.608703        8.747621
  F          -15.161047        5.535803        8.760797
  F          -17.002584        4.486122        8.300773
  O          -17.437824        2.457532       12.603724
  O          -15.296158        1.504965       11.788272
  O          -16.017072        6.168665       11.533158
  O          -18.155382        5.020246       11.030019
  N          -15.922113        3.736627       10.996016
  C          -17.312672        1.546207       10.148860
  C          -16.461197        5.440406        9.070472
  S           23.778564       12.215465        2.139766
  S           20.991777       11.844564        2.484222
  F           24.376149        9.628197        1.879715
  F           25.716489       10.738902        3.176496
  F           23.741300       10.181478        3.877973
  F           19.219750        9.893732        2.629229
  F           20.221782        9.997965        0.708413
  F           21.261861        9.188444        2.431091
  O           23.855611       13.113063        3.261647
  O           24.620208       12.447970        0.996228
  O           19.990311       12.704284        1.909054
  O           21.132347       11.803821        3.916366
  N           22.325318       11.876879        1.634304
  C           24.429236       10.595360        2.809255
  C           20.400443       10.133345        2.029451
  S           27.940300        0.061542        5.237005
  S           27.040373       -1.563130        3.098554
  F           29.131548       -1.900007        6.597867
  F           27.934104       -0.556571        7.811592
  F           26.968318       -2.047186        6.566806
  F           27.068200       -4.089729        2.335422
  F           29.048506       -3.215403        2.471091
  F           27.981089       -3.767047        4.276921
  O           26.652407        0.687150        5.379070
  O           29.127854        0.840705        5.466621
  O           27.049716       -1.151858        1.718830
  O           25.775111       -1.788096        3.747368
  N           28.144233       -0.792836        3.929143
  C           27.992419       -1.190140        6.625134
  C           27.840023       -3.249206        3.048859
  S           20.467592       -2.137560       15.081042
  S           20.746349       -2.933611       12.377157
  F           21.287372       -4.445583       16.139193
  F           19.522115       -3.598705       17.076469
  F           19.364126       -4.574365       15.145850
  F           21.445929       -5.046999       10.959050
  F           23.055606       -4.270753       12.188216
  F           21.447884       -5.407123       13.098493
  O           19.154153       -1.598880       14.846658
  O           21.336340       -1.483264       16.022996
  O           21.246792       -2.075377       11.335109
  O           19.374863       -3.367494       12.320349
  N           21.300206       -2.493171       13.791721
  C           20.142152       -3.788397       15.896612
  C           21.735995       -4.500675       12.154280
  S           11.288246       17.857227       11.641378
  S            8.797728       18.333884       10.379430
  F           11.530316       15.324730       10.837292
  F           12.022895       15.660734       12.924464
  F            9.949328       15.632900       12.289083
  F            6.999904       17.064787        8.922011
  F            8.929265       17.232129        7.945267
  F            8.647165       15.800150        9.549813
  O           10.836365       18.435053       12.879180
  O           12.659058       18.036330       11.242754
  O            8.455339       19.566465        9.718836
  O            8.076964       17.959832       11.568144
  N           10.363567       18.110855       10.391299
  C           11.180760       16.013736       11.935176
  C            8.329645       17.031526        9.126624
  S            0.145518       17.754423        6.262237
  S            2.441599       19.367541        6.647286
  F            0.404598       17.524107        3.616764
  F           -1.614893       17.943059        4.293489
  F           -0.127650       19.521602        4.271681
  F            4.363498       20.508016        5.242840
  F            4.384206       18.342609        5.120163
  F            2.899091       19.476578        4.018683
  O           -0.667345       18.616718        7.078285
  O           -0.092580       16.335697        6.287294
  O            3.345645       19.225061        7.758713
  O            1.663782       20.573739        6.535281
  N            1.698927       18.005287        6.339976
  C           -0.315462       18.219987        4.510930
  C            3.582063       19.414735        5.170169
  S           17.056396       -3.211151       -5.214909
  S           19.026573       -1.243444       -4.696320
  F           15.035436       -1.502493       -5.553876
  F           14.561175       -3.230967       -4.329427
  F           15.751783       -1.613727       -3.510187
  F           19.248581        1.376702       -4.467427
  F           18.632554        0.740267       -6.447307
  F           17.211710        0.712160       -4.808672
  O           17.468356       -4.002969       -4.086393
  O           16.597727       -3.873772       -6.406822
  O           20.376806       -1.309210       -5.191717
  O           18.802602       -1.333921       -3.277127
  N           18.038087       -2.051078       -5.630323
  C           15.520207       -2.330182       -4.614623
  C           18.491424        0.489387       -5.138670
  S            4.311113        7.130349       15.824540
  S            6.338995        5.723047       14.435442
  F            3.851695        5.235604       17.645959
  F            2.062895        6.125314       16.797176
  F            3.216337        4.695431       15.644279
  F            7.585766        3.397476       14.499734
  F            7.912280        4.592475       16.280136
  F            6.018705        3.575294       15.989571
  O            3.634074        7.475316       14.602718
  O            4.316260        8.070863       16.913351
  O            7.528860        6.340384       13.910097
  O            5.380977        5.167644       13.515558
  N            5.764338        6.545006       15.658507
  C            3.310644        5.707990       16.511771
  C            6.997739        4.244203       15.364871
  S           16.934319       -9.417242        5.114316
  S           14.357080      -10.389257        4.454446
  F           17.351690      -11.088739        7.151616
  F           17.909702       -9.028218        7.544930
  F           15.818828       -9.604740        7.539264
  F           12.607458      -12.185675        5.278189
  F           14.468868      -13.058746        4.587274
  F           14.382563      -12.080148        6.521080
  O           16.492779       -8.048649        5.067123
  O           18.265366       -9.740524        4.673967
  O           13.882013      -10.553060        3.105243
  O           13.725857       -9.408633        5.298478
  N           15.935027      -10.478468        4.516594
  C           16.996197       -9.811408        6.941098
  C           13.943273      -12.023506        5.256165
  S           -2.961713       -5.579496        5.499065
  S           -5.551979       -6.669022        5.853826
  F           -1.762771       -7.890256        4.914583
  F           -0.671740       -6.633801        6.308424
  F           -2.412567       -7.740769        6.977981
  F           -6.782923       -9.003222        5.797822
  F           -5.934669       -8.437479        3.883438
  F           -4.642899       -9.150835        5.473144
  O           -3.050505       -4.822986        6.719737
  O           -2.261123       -5.017684        4.374946
  O           -6.761020       -6.026761        5.408188
  O           -5.333971       -6.834205        7.267206
  N           -4.311346       -6.210289        4.986572
  C           -1.901453       -7.051172        5.953319
  C           -5.728473       -8.411265        5.207140
  S           -7.409729        6.740295       -3.951326
  S          -10.128519        7.326100       -3.415213
  F           -7.842552        5.498424       -6.272772
  F           -6.439048        4.491914       -4.957882
  F           -8.566907        4.402492       -4.547538
  F          -12.519055        6.944268       -4.467064
  F          -11.219539        8.153677       -5.713279
  F          -10.921682        6.008280       -5.598098
  O           -7.194985        6.242164       -2.618665
  O           -6.348295        7.449982       -4.614504
  O          -10.584750        8.565302       -2.841540
  O          -10.283738        6.111731       -2.657802
  N           -8.757583        7.523583       -4.178936
  C           -7.586291        5.195674       -4.990219
  C          -11.250483        7.097327       -4.889534
  S            8.497879       -7.439552       -3.137353
  S            8.309887      -10.240807       -2.763145
  F           11.135392       -7.385973       -3.536529
  F           10.391043       -5.837738       -2.209603
  F           10.569693       -7.880302       -1.502367
  F            9.862972      -12.373555       -2.684650
  F            9.864889      -11.384715       -4.615105
  F           10.958725      -10.520447       -2.953397
  O            7.694927       -7.172664       -1.973620
  O            8.382404       -6.576070       -4.282414
  O            7.234983      -11.049067       -3.277119
  O            8.453436      -10.101648       -1.337492
  N            8.505861       -8.934794       -3.633582
  C           10.249469       -7.129629       -2.560980
  C            9.838220      -11.172993       -3.292286
  S          -14.676071       -7.675672       12.339691
  S          -12.684654       -7.315051       10.358123
  F          -14.230488      -10.279380       12.714994
  F          -16.326532       -9.732604       12.575510
  F          -15.103650       -9.811785       10.785970
  F          -10.884467       -8.715759        9.029893
  F          -10.520748       -8.663643       11.167522
  F          -12.097067       -9.919934       10.366484
  O          -15.659144       -6.969775       11.561544
  O          -14.692103       -7.548200       13.772728
  O          -11.835849       -6.155118       10.274724
  O          -13.632407       -7.559134        9.302355
  N          -13.187649       -7.546409       11.839746
  C          -15.100767       -9.478084       12.080322
  C          -11.481131       -8.736805       10.236017
  S            7.728757       18.683471        4.125707
  S            5.968361       19.553957        2.084712
  F            8.471295       16.426304        2.912231
  F            8.017921       16.209573        5.023936
  F            6.409547       16.419372        3.584046
  F            5.045385       18.758882       -0.256830
  F            7.188362       19.093667       -0.251106
  F            6.366348       17.316650        0.682284
  O            6.758651       18.948901        5.154626
  O            9.123170       18.905514        4.402132
  O            5.844430       20.924698        1.662123
  O            4.845612       18.920951        2.725956
  N            7.396933       19.276792        2.704468
  C            7.644223       16.830546        3.889373
  C            6.165553       18.625766        0.477124
  S           25.141293        6.937475        7.033582
  S           25.692117        6.867833        4.256148
  F           24.088788        4.489698        7.172566
  F           22.976422        6.013502        8.246105
  F           22.862082        5.907381        6.082814
  F           25.403065        5.260401        2.182634
  F           26.702951        4.450140        3.718289
  F           24.554162        4.464299        4.013616
  O           24.538385        8.240494        6.939379
  O           25.897647        6.597811        8.209448
  O           26.883523        7.413800        3.660041
  O           24.422086        7.471149        3.947135
  N           25.944786        6.463113        5.764159
  C           23.684474        5.769058        7.127444
  C           25.584757        5.159072        3.512259
  S           -7.886297       -6.690296       18.210025
  S           -5.656509       -5.010755       17.730874
  F           -6.479852       -8.929445       18.566134
  F           -8.237649       -9.156562       17.312984
  F           -6.458159       -8.199752       16.524256
  F           -3.027570       -5.153642       17.543494
  F           -3.774700       -5.680167       19.510480
  F           -3.973357       -7.079501       17.865151
  O           -8.595298       -6.169853       17.071301
  O           -8.624995       -7.055484       19.389459
  O           -5.542382       -3.665624       18.231342
  O           -5.754536       -5.216653       16.309447
  N           -6.608125       -5.879923       18.647777
  C           -7.217296       -8.332370       17.616427
  C           -4.021841       -5.782046       18.197495
  S            9.063510       10.199389       13.133898
  S            7.462827       11.416119       15.128836
  F            9.769190        8.080543       14.593761
  F           11.395660        8.996032       13.485475
  F           10.637471        9.944307       15.282719
  F            6.710253       11.022829       17.627997
  F            6.026687        9.471720       16.274755
  F            8.102195        9.525118       16.902551
  O            9.739732       11.435373       12.841838
  O            8.793148        9.277558       12.062807
  O            6.212013       12.077213       14.861836
  O            8.574583       12.198780       15.602015
  N            7.773562       10.321623       14.030083
  C           10.280756        9.255621       14.194060
  C            7.053800       10.284838       16.556303
  S           22.677234       -4.224802        2.288142
  S           23.706654       -2.838166        0.043162
  F           20.910514       -2.352271        2.988869
  F           22.043947       -3.188039        4.640730
  F           22.974943       -1.763884        3.295667
  F           23.402626       -0.541738       -1.222078
  F           21.617954       -1.774152       -1.245838
  F           22.177239       -0.711134        0.560236
  O           23.995918       -4.533784        2.773772
  O           21.620210       -5.183883        2.469702
  O           24.054016       -3.472079       -1.201974
  O           24.752181       -2.246230        0.836221
  N           22.604337       -3.668441        0.815999
  C           22.124196       -2.793098        3.356178
  C           22.656424       -1.390293       -0.491106
  S           24.807513       11.341822       17.901434
  S           26.553545        9.119314       18.086440
  F           26.713445       13.162560       17.487880
  F           25.195063       13.754091       18.921906
  F           26.725018       12.324740       19.487909
  F           29.134130        8.570257       18.009189
  F           28.378877        9.393704       16.150159
  F           28.700548       10.690697       17.858681
  O           24.091258       10.950283       19.086301
  O           24.088218       11.957938       16.818328
  O           26.266687        7.824241       17.526645
  O           26.639692        9.253589       19.517176
  N           25.784873       10.259626       17.305051
  C           25.932983       12.716316       18.484882
  C           28.284850        9.472777       17.484436
  S           -3.704037       12.513874        2.250623
  S           -4.026446       15.287386        1.775136
  F           -6.273609       11.872852        1.926459
  F           -5.320107       10.943344        3.640714
  F           -5.882486       13.036800        3.713758
  F           -5.932433       17.033908        1.242480
  F           -5.685975       15.537410       -0.308074
  F           -6.673837       15.018601        1.551946
  O           -2.912075       12.749749        3.428499
  O           -3.394413       11.387158        1.411130
  O           -3.091552       16.087842        1.028066
  O           -4.198065       15.550366        3.180072
  N           -3.955884       13.770137        1.333871
  C           -5.394641       12.078158        2.920205
  C           -5.673431       15.732568        1.017499
  S          -16.219249        1.572077       -3.596234
  S          -17.677145       -0.846606       -3.812824
  F          -16.144294        1.616915       -0.929577
  F          -16.628568        3.521369       -1.851724
  F          -18.121980        1.951577       -1.753560
  F          -18.798516       -2.670442       -2.269128
  F          -16.647425       -2.545198       -2.020959
  F          -17.928472       -1.021221       -1.160073
  O          -17.070735        2.237063       -4.546497
  O          -14.816881        1.892362       -3.566495
  O          -17.415096       -1.855783       -4.805679
  O          -18.928581       -0.136462       -3.858220
  N          -16.379708        0.007013       -3.513275
  C          -16.819919        2.191504       -1.937369
  C          -17.756257       -1.820342       -2.222119
  S            8.140635       -5.343746       15.904798
  S           10.366893       -4.601713       17.490851
  F            8.605676       -7.969937       15.979274
  F            8.084353       -7.200217       14.017751
  F           10.066930       -6.856439       14.827299
  F           12.417313       -5.707782       18.731510
  F           10.498168       -6.340805       19.519309
  F           11.208284       -7.132280       17.628803
  O            8.438158       -4.341234       14.916524
  O            6.766588       -5.654455       16.197299
  O           10.332778       -3.561632       18.485808
  O           11.189921       -4.419379       16.323874
  N            8.928355       -5.218665       17.263440
  C            8.770594       -6.931615       15.144435
  C           11.155885       -6.032739       18.393301
