         874
  Built with Packmol                                             
  Ti          -2.868335        2.115442       11.265214
  Ti           7.802788        5.383210        1.844391
  Ti           1.352572       -1.673500        9.417113
  Ti           2.511792        7.542652        3.648414
  Ti           1.444672        9.187418        1.751989
  Ti           3.259458       -1.864257       11.359530
  Ti          -1.869782        0.416024        9.366140
  Ti           5.815984        5.614284        3.703281
  H            3.746896        1.652626        8.583439
  H           -7.024875       10.142785        6.478257
  H            4.431630       11.010612        4.650438
  H           -2.503694        6.028051       11.048460
  H            8.748737        1.507342        2.155250
  H           -6.801542        1.221893       10.903644
  H           11.114246        7.503838        2.029089
  H            4.372721       -5.862020       10.962653
  H           -2.589143        8.456181        2.095703
  H            4.656966        3.204147        6.826953
  H           -0.045224        3.670268        8.406030
  H           12.440918       -1.828167        6.378540
  H           -2.327232        0.331938       12.984230
  H            5.927385        5.077403        0.154584
  H            3.761426       -2.506617        5.844726
  H            0.745560        9.314262        7.279431
  H           -6.059913        3.661213        9.037490
  H           10.641247        3.393379        4.132134
  H           -3.728587        2.298708        5.688870
  H           -1.703972       10.903386        4.124923
  H            1.733452       12.300945        2.609537
  H            8.667985       -0.517063        3.355831
  H            4.606680        7.297451        2.297825
  H            0.215487        0.134620       10.719246
  H            7.415332        0.218685        9.728366
  H            5.955496       -0.302534       10.483299
  H            7.828656        4.670987        8.632537
  H            7.237651        5.011538        7.017709
  H            7.098177       -4.749977        9.534320
  H            5.784030       -3.695029       10.000157
  H            1.411485        1.911548        9.356085
  H            0.863759        5.227040        6.648574
  H            5.741023        9.069333        3.845371
  H            7.999135        8.609993        4.744623
  C            8.422325        4.659191        4.703706
  C           -3.853328        2.346718        8.423899
  C            3.961595       -2.592630        8.476524
  C            0.513540        9.443357        4.621320
  C            9.344336        4.085192        5.693105
  C           -4.811926        2.940026        7.452907
  C            4.917315       -3.172748        7.523270
  C           -0.392661       10.057561        5.626884
  C            9.101042        4.149763        7.100999
  C           -4.599256        2.829342        6.063538
  C            6.075072       -3.893771        7.969088
  C           -1.516055       10.792469        5.189090
  C           -0.124811        9.894234        6.980095
  C            4.657405       -3.047644        6.140915
  C           10.498947        3.426687        5.210054
  C           -5.932679        3.593124        7.958691
  C            2.813684        4.307411        6.639567
  C            1.802100        2.580168        8.590925
  C            6.161473        9.726276        4.605129
  C           -1.730084       -2.944720        6.528234
  C            8.715175        1.588330        0.011262
  C            1.839040       13.147429        0.088587
  C            6.684170        0.195343       12.990012
  C           -6.719779        1.271810       13.046845
  C            3.350517        5.224492        5.605606
  C           -1.145018       -2.033515        7.540248
  C            4.215985       -4.201651       13.101266
  C            1.796086       11.711651        0.049701
  C            5.408882       -0.466276       13.043122
  C           -5.332575        1.734605       13.064020
  C            1.482906        4.442604        7.078738
  C            3.125222        2.436827        8.154613
  C            5.424120       10.827594        5.058747
  C           -8.018869       10.319594        6.073436
  C            8.784652        0.919515        1.239780
  C           -2.508142        6.615249       11.963065
  C           -4.360552        7.730507        1.110303
  C           -7.351366        1.022025       11.821932
  C            7.441371        9.469644        5.112723
  C           12.991193       -2.694552        6.017481
  C            3.632637        3.298056        7.181208
  C            0.980621        3.578705        8.052889
  C            7.361766        0.489528       11.753548
  C           -3.089201        8.254946        1.152479
  C            4.438003       -6.388560       11.910676
  C            8.855538       -0.479663        1.318796
  N            8.938305       -1.077634        2.555968
  N            6.782516        0.288157       10.517426
  N            8.001283        4.757340        7.639127
  N            6.418775       -4.042078        9.284423
  O            7.234665        5.022637        5.076604
  O           -3.053924        1.423703        8.020113
  O            4.345224       -2.456407        9.695708
  O            0.426054        9.871897        3.422680
  O            1.318961        8.513079        5.002228
  O            2.776776       -2.264724        8.078087
  O            8.824398        4.755701        3.489805
  O           -3.903766        2.779752        9.624467
  O            6.156697        4.409127        2.505218
  O           -1.367975        1.993658       10.109628
  O            7.017801        6.727170        2.953185
  O           -3.056279        0.208461       10.609657
  O            1.659621       -2.837312       10.674383
  O            2.969458        9.121937        2.909279
  O            2.531624       -0.543378       10.208048
  O            1.322575        7.306972        2.398893
  O            4.575167        5.087631        5.244337
  O           -1.836144       -1.022528        7.923516
  O            4.066391       -3.610049       11.962095
  O            1.743514       11.006429        1.144350
  O            4.771026       -0.795498       11.956418
  O           -0.427504        9.094025        1.094098
  O            0.028867       -2.288059        7.991258
  O            2.574295        6.119616        5.117796
  O            9.199419        6.452785        1.083295
  O           -4.748114        1.988975       11.944029
  O            8.500254        3.672420        1.113292
  O           -2.542975        3.849240       12.015231
  O            4.269171        6.735574        3.019668
  O           -0.147093       -0.436062       10.017030
  O            6.748057        5.600086        0.071530
  O           -2.238358        1.302347       13.044892
  S           25.794871       -5.434270        0.351664
  S           24.789273       -2.959419       -0.589764
  F           23.489264       -6.763810        0.164073
  F           24.586343       -7.113306        2.004206
  F           23.503483       -5.255390        1.721845
  F           22.519699       -1.881100       -1.397916
  F           23.197993       -3.501000       -2.670829
  F           22.309344       -3.938092       -0.741071
  O           26.456469       -4.807122        1.464860
  O           26.413470       -6.566727       -0.284717
  O           25.514058       -2.081333       -1.470969
  O           24.504986       -2.517897        0.750645
  N           25.262680       -4.458412       -0.764817
  C           24.249432       -6.174114        1.100380
  C           23.111864       -3.089622       -1.398532
  S            7.375355       -4.327643       12.618387
  S            9.104510       -5.224800       10.562289
  F            8.720099       -5.455208       14.628101
  F            6.566603       -5.708953       14.727534
  F            7.734694       -6.882789       13.326878
  F           11.283638       -6.681628       10.252614
  F           11.608163       -4.900511       11.447089
  F           10.581794       -6.608334       12.304187
  O            6.204088       -4.741256       11.892239
  O            7.317134       -3.137113       13.424209
  O            9.484116       -4.425245        9.426736
  O            8.304349       -6.401879       10.346220
  N            8.719238       -4.313465       11.796295
  C            7.620443       -5.676087       13.890377
  C           10.735483       -5.883551       11.187377
  S           -9.928725        3.173144        6.333312
  S          -11.453307        5.192605        7.606037
  F          -12.011219        1.832577        5.340948
  F          -10.481705        0.585297        6.244663
  F          -11.844157        1.713496        7.499675
  F          -13.973713        5.873688        7.994015
  F          -13.392646        5.899705        5.904482
  F          -13.743341        4.009352        6.908618
  O           -9.120144        2.965229        7.505149
  O           -9.324861        3.049152        5.033282
  O          -11.078676        6.582430        7.636160
  O          -11.478062        4.453336        8.841077
  N          -10.832657        4.463404        6.347150
  C          -11.143405        1.751858        6.362051
  C          -13.238115        5.241285        7.061199
  S           26.742350       11.705425       12.072908
  S           24.509351       12.765777       13.455575
  F           28.559889       12.404843       13.896657
  F           29.138084       12.809329       11.843877
  F           27.693757       14.086801       12.836928
  F           23.949455       14.076547       15.677117
  F           24.802674       12.114556       16.033596
  F           26.073808       13.747666       15.384074
  O           26.337388       12.315589       10.834385
  O           27.377094       10.414538       12.044384
  O           23.223691       12.120798       13.518431
  O           24.622930       14.021344       12.760514
  N           25.664185       11.710613       13.221642
  C           28.103189       12.821240       12.704890
  C           24.863260       13.191298       15.238394
  S           27.334024       -7.659340       15.441758
  S           25.747908       -6.339932       13.501192
  F           25.474766       -9.430048       16.167324
  F           26.545975       -8.516751       17.819662
  F           25.021358       -7.394421       16.761323
  F           23.309891       -6.424113       12.493307
  F           24.447769       -8.234942       12.131925
  F           23.625977       -7.845964       14.101206
  O           27.757208       -6.414201       16.025519
  O           28.257804       -8.761342       15.393527
  O           26.250094       -5.876866       12.233813
  O           25.299768       -5.370482       14.466487
  N           26.609634       -7.548713       14.047098
  C           26.010359       -8.280355       16.607340
  C           24.201383       -7.275137       13.033845
  S           17.291532       15.487758       11.909213
  S           15.451286       15.563484        9.757432
  F           18.310919       13.092851       11.322730
  F           17.873887       13.397811       13.426969
  F           16.261112       13.021116       12.026532
  F           14.646812       14.065907        7.738290
  F           16.733042       14.642367        7.597579
  F           16.127473       13.095935        8.992765
  O           16.289821       15.901964       12.855385
  O           18.646778       15.939975       12.079247
  O           15.164156       16.745934        8.987861
  O           14.409863       14.996680       10.573904
  N           16.899005       15.634540       10.390518
  C           17.434612       13.642898       12.178185
  C           15.770169       14.268614        8.451144
  S           -6.617548       11.863781       -2.037060
  S           -6.090473        9.091315       -1.796171
  F           -9.191455       11.721087       -1.349071
  F           -8.784353       12.983958       -3.066990
  F           -8.750882       10.825214       -3.274038
  F           -7.344422        6.843566       -1.211293
  F           -7.304275        8.254113        0.435889
  F           -8.649794        8.576301       -1.234585
  O           -5.966148       11.934461       -3.318042
  O           -6.515769       12.980616       -1.135714
  O           -4.874921        8.550010       -1.246360
  O           -6.379691        8.873189       -3.189451
  N           -6.380181       10.536453       -1.222251
  C           -8.439747       11.835121       -2.455506
  C           -7.425938        8.148972       -0.894348
  S            5.728403       12.535518       18.502305
  S            5.628292       13.489550       15.837309
  F            6.455389       10.044533       17.881680
  F            4.889172       10.182027       19.378303
  F            4.428375       10.536268       17.288723
  F            5.973600       12.619187       13.369501
  F            7.774154       12.511907       14.574058
  F            6.185560       11.064588       14.867901
  O            4.449654       13.114564       18.818119
  O            6.752453       12.502911       19.512434
  O            6.081592       14.795358       15.434502
  O            4.226237       13.179295       15.735128
  N            6.375237       13.006605       17.145198
  C            5.352662       10.723266       18.236055
  C            6.444045       12.352456       14.601864
  S           26.241216        4.039937        6.279090
  S           24.508775        4.584350        4.105461
  F           26.054027        1.382680        6.128625
  F           25.917600        2.185285        8.140846
  F           24.229565        2.350844        6.789071
  F           23.009778        3.302518        2.351391
  F           25.123037        2.852580        2.161246
  F           23.972466        1.988225        3.784141
  O           25.583403        5.005122        7.119288
  O           27.663331        3.858101        6.400036
  O           24.734752        5.629055        3.140889
  O           23.371779        4.683637        4.982864
  N           25.870086        4.100393        4.749167
  C           25.563619        2.396577        6.859228
  C           24.144216        3.092449        3.044287
  S            1.254894        0.702949       -2.825945
  S           -0.850283        1.334555       -1.039411
  F            2.762287        2.826553       -2.245630
  F            2.590866        2.392707       -4.365586
  F            0.936758        3.315493       -3.308913
  F           -1.536470        3.210515        0.685920
  F            0.278589        2.160700        1.240819
  F            0.321640        3.633194       -0.351229
  O            0.338167        0.438711       -3.902989
  O            2.453989       -0.084594       -2.716175
  O           -1.552039        0.357649       -0.248169
  O           -1.568151        2.039337       -2.069170
  N            0.608122        0.836644       -1.395606
  C            1.915488        2.411514       -3.201110
  C           -0.409235        2.656082        0.203088
  S           18.833543       -5.022619       16.557727
  S           18.840327       -5.401763       13.750842
  F           21.451254       -5.409147       16.899602
  F           20.191994       -6.418477       18.351269
  F           20.369685       -7.202369       16.336796
  F           20.517859       -5.988039       11.799173
  F           20.981195       -4.116001       12.791773
  F           21.442680       -6.000413       13.761687
  O           17.701392       -5.893687       16.730081
  O           18.968387       -3.870643       17.409122
  O           18.054614       -4.618690       12.833061
  O           18.544324       -6.802918       13.897820
  N           19.144046       -4.591193       15.074651
  C           20.296510       -6.076370       17.053374
  C           20.545925       -5.367194       12.992884
  S            8.357100       -6.696456        6.773603
  S            7.138949       -8.125790        8.893866
  F            8.507082       -8.762424        5.091946
  F           10.304909       -7.550523        5.196515
  F            9.830424       -8.929925        6.801594
  F            6.331210      -10.570338        9.475753
  F            5.261195       -9.690574        7.806757
  F            7.285925      -10.418918        7.533460
  O            9.325573       -6.100938        7.655449
  O            7.850314       -5.928883        5.667212
  O            6.097653       -7.588352        9.730368
  O            8.418241       -8.423843        9.482961
  N            7.149198       -7.423661        7.476598
  C            9.299899       -8.070737        5.925779
  C            6.464927       -9.791089        8.386682
  S            7.129403       -8.781096       -0.770734
  S            4.497647       -8.261787        0.138430
  F            6.583232      -11.147938       -1.874566
  F            8.405809      -11.099692       -0.696558
  F            6.475499      -11.148487        0.291209
  F            2.115558       -9.398096        0.174499
  F            2.833190       -8.979400       -1.829039
  F            3.651965      -10.648011       -0.710980
  O            7.700682       -8.420372        0.499601
  O            7.847987       -8.468187       -1.977311
  O            3.872724       -6.965634        0.090178
  O            4.780998       -8.848534        1.422134
  N            5.615130       -8.396145       -0.972838
  C            7.138007      -10.650878       -0.757686
  C            3.209468       -9.387035       -0.609351
  S          -12.494081       -5.621186       -2.891055
  S          -10.139993       -5.617977       -1.316043
  F          -11.970793       -7.901587       -4.173486
  F          -12.695451       -6.297031       -5.443168
  F          -10.651083       -6.269826       -4.719300
  F           -7.956865       -7.055522       -0.949626
  F           -9.777292       -8.120890       -0.444157
  F           -9.237991       -7.822203       -2.523736
  O          -12.314241       -4.243488       -3.265006
  O          -13.826682       -6.125931       -2.692286
  O          -10.098539       -5.212808        0.064895
  O           -9.437920       -4.827246       -2.292924
  N          -11.580985       -6.134427       -1.714239
  C          -11.908748       -6.577694       -4.387319
  C           -9.238294       -7.252501       -1.310627
  S          -17.991851       13.839915        0.405882
  S          -16.669166       11.716922        1.734719
  F          -16.170396       14.143961       -1.519877
  F          -16.873215       15.999770       -0.640195
  F          -15.474339       14.745761        0.443674
  F          -14.452465       10.295326        1.555420
  F          -15.764764       10.052706       -0.154397
  F          -14.591764       11.864161        0.063353
  O          -18.216632       14.547314        1.638478
  O          -18.988341       13.901569       -0.630124
  O          -17.345668       10.580420        2.303557
  O          -15.992703       12.634016        2.614374
  N          -17.510786       12.346934        0.552983
  C          -16.537210       14.725112       -0.366630
  C          -15.298084       10.942301        0.732294
  S           -0.537917       18.068431       14.786967
  S           -3.050332       17.879077       16.080921
  F            0.498962       15.857615       15.862080
  F            1.835719       17.567791       15.848010
  F            0.213478       17.469469       17.284267
  F           -4.317656       16.338031       17.808902
  F           -3.797437       15.312800       15.969680
  F           -2.267574       15.724831       17.451051
  O           -0.402667       19.459562       15.128574
  O           -0.028516       17.603393       13.524290
  O           -4.305013       18.191922       15.447854
  O           -2.597780       18.703971       17.170510
  N           -1.967093       17.445253       15.013153
  C            0.555639       17.189230       16.022876
  C           -3.368115       16.214230       16.863266
  S          -15.552067       -1.776013        6.738956
  S          -13.719925       -3.479859        8.066573
  F          -14.273349       -1.758822        4.397317
  F          -14.965041        0.188012        5.063066
  F          -13.217179       -0.714149        5.976986
  F          -11.454628       -4.754286        7.607104
  F          -13.089215       -5.437185        6.355610
  F          -12.116904       -3.545150        5.931906
  O          -15.566634       -0.843412        7.834528
  O          -16.761283       -1.999847        5.992097
  O          -14.109448       -4.515413        8.987860
  O          -12.970000       -2.355526        8.562502
  N          -14.879457       -3.169220        7.036656
  C          -14.428743       -0.975579        5.476507
  C          -12.537091       -4.352396        6.915771
  S           22.001980       -9.662050        5.070004
  S           20.780062       -9.559214        7.623187
  F           20.921012      -11.987938        4.334857
  F           23.036865      -11.794640        3.890313
  F           22.384539      -12.168638        5.924708
  F           19.174057      -10.993799        9.149477
  F           18.238901      -10.333191        7.307320
  F           19.670205      -11.962572        7.272717
  O           23.292847       -9.328950        5.611243
  O           21.637781       -9.167061        3.769063
  O           20.258972       -8.355046        8.215906
  O           21.913066      -10.201099        8.236981
  N           20.780324       -9.462057        6.044486
  C           22.086202      -11.510416        4.800229
  C           19.385092      -10.781059        7.837459
  S           15.342370        1.420733       15.753285
  S           17.259242        2.925705       14.310003
  F           16.669865       -0.891631       15.656210
  F           14.546544       -1.050681       15.234270
  F           15.894174       -0.248486       13.736090
  F           19.576732        2.598873       13.089648
  F           19.668947        2.204013       15.220387
  F           18.757024        0.755611       13.888006
  O           14.256606        1.941049       14.965488
  O           15.130047        1.154194       17.151133
  O           17.627089        4.279310       14.634522
  O           16.583807        2.669369       13.064797
  N           16.723325        2.160410       15.586269
  C           15.638272       -0.285338       15.047528
  C           18.906068        2.065802       14.127545
  S           11.794398      -11.940242        9.636443
  S           13.666406      -10.126360       10.744511
  F           12.932151      -12.081155        7.227221
  F           10.771811      -11.872062        7.195077
  F           12.021747      -10.159506        7.652219
  F           15.822965       -8.775238       10.044104
  F           16.093928      -10.925331        9.953881
  F           14.951843       -9.911135        8.413830
  O           10.678022      -11.178843       10.130619
  O           11.700843      -13.375346        9.593691
  O           14.162902      -10.209180       12.093401
  O           12.855326       -8.997029       10.371391
  N           13.203074      -11.545115       10.220875
  C           11.893396      -11.478450        7.827223
  C           15.219670       -9.935639        9.726790
  S           19.694831        5.487412       -1.644502
  S           17.808318        5.709631        0.456471
  F           21.849156        5.937670       -0.136245
  F           21.831051        7.004355       -2.026661
  F           20.579915        7.677745       -0.387952
  F           17.723752        6.215219        3.045694
  F           18.824166        4.409702        2.562309
  F           19.719756        6.352940        2.206700
  O           18.924667        6.346990       -2.503692
  O           20.420791        4.387174       -2.221183
  O           16.651312        4.863146        0.589400
  O           17.616124        7.111462        0.191162
  N           18.957842        4.979464       -0.348010
  C           21.060023        6.592324       -1.002827
  C           18.572092        5.662430        2.159170
  S            9.528233        8.986787       -1.219431
  S            6.839020        8.126913       -1.445599
  F            9.673409       10.094898       -3.642178
  F           11.390918        8.884005       -3.098377
  F            9.530683        7.931449       -3.678314
  F            4.860494        8.131604       -3.192672
  F            5.471734       10.122703       -2.587382
  F            6.696968        8.986055       -3.969968
  O            9.955283        7.707096       -0.719177
  O           10.154984       10.180797       -0.717808
  O            5.883050        8.189541       -0.370857
  O            7.249311        6.836905       -1.935494
  N            7.970396        9.217329       -1.264717
  C           10.049925        8.969253       -3.014941
  C            5.923318        8.895423       -2.879351
  S          -15.167503      -10.821172       13.752792
  S          -16.756949      -11.314309       16.044708
  F          -16.081732       -8.355418       13.302313
  F          -15.924116       -9.598210       11.529619
  F          -17.546889       -9.911056       12.934218
  F          -18.608947      -10.131612       17.506960
  F          -16.708036       -9.087274       17.526005
  F          -17.995722       -8.962984       15.784992
  O          -15.506205      -12.094029       13.173697
  O          -13.846627      -10.287728       13.550736
  O          -16.285911      -12.010218       17.213770
  O          -17.792508      -11.918125       15.247538
  N          -15.559629      -10.633527       15.267085
  C          -16.249918       -9.602984       12.835882
  C          -17.552816       -9.780261       16.750438
  S          -12.880505        4.512759       -2.383965
  S          -10.116683        5.025248       -2.731880
  F          -12.616057        1.918760       -1.818344
  F          -14.215966        2.381129       -3.210583
  F          -12.152459        2.415424       -3.877614
  F           -7.807114        3.748406       -2.682746
  F           -8.828818        3.741990       -0.769491
  F           -9.515820        2.448733       -2.369561
  O          -13.219889        5.203004       -3.599947
  O          -13.775710        4.589894       -1.260238
  O           -9.458584        6.222138       -2.276654
  O          -10.206785        4.778000       -4.147227
  N          -11.406601        4.721870       -1.868276
  C          -12.959225        2.704067       -2.851686
  C           -9.014132        3.660587       -2.094037
  S           11.454443       12.195882       14.913031
  S           13.430254       10.319663       14.139485
  F           11.591615       11.685951       17.528341
  F            9.574046       11.856219       16.745880
  F           10.738431       10.066193       16.366167
  F           15.018785        8.505590       15.213058
  F           15.433550       10.520337       15.900976
  F           13.700065        9.454081       16.651200
  O           10.546436       11.746888       13.891190
  O           11.485725       13.591953       15.259602
  O           14.410441       10.562985       13.113377
  O           12.436784        9.300560       13.922910
  N           12.936122       11.675495       14.787011
  C           10.810225       11.396434       16.475784
  C           14.450881        9.674405       15.563116
  S           17.682514       -1.217119        2.973405
  S           18.872660       -1.036493        5.537255
  F           15.758999       -2.927183        3.676585
  F           16.751741       -3.403756        1.805981
  F           17.746840       -3.793438        3.693331
  F           18.588691       -2.028316        7.966761
  F           16.881247       -0.860406        7.314776
  F           17.191402       -2.858407        6.529597
  O           18.956214       -1.411436        2.332967
  O           16.662082       -0.465729        2.292057
  O           19.381695        0.186265        6.101716
  O           19.796921       -2.096111        5.228372
  N           17.738047       -0.743447        4.474940
  C           16.947639       -2.934679        3.052609
  C           17.813091       -1.732804        6.907374
  S            4.532035       -4.861877       -3.436149
  S            1.836702       -4.740312       -2.574288
  F            4.396088       -7.331932       -4.435668
  F            6.167501       -6.935395       -3.245427
  F            4.255394       -7.255765       -2.273125
  F           -0.328909       -6.247776       -2.507006
  F            0.342819       -5.805131       -4.521283
  F            1.404380       -7.267312       -3.321355
  O            5.016664       -4.357721       -2.178693
  O            5.209226       -4.488639       -4.649495
  O            1.009970       -3.566984       -2.686921
  O            2.191302       -5.216437       -1.262793
  N            2.978711       -4.738600       -3.668615
  C            4.844687       -6.702778       -3.337856
  C            0.760956       -6.092331       -3.281095
  S           -4.913014       16.490248        4.074815
  S           -5.116872       19.119836        3.042292
  F           -7.413699       16.355325        4.995174
  F           -5.905916       15.602042        6.363010
  F           -6.153512       17.739396        6.089920
  F           -6.865752       21.089399        2.871726
  F           -7.488463       19.298982        1.817638
  F           -7.602999       19.377621        3.982218
  O           -3.662626       16.781022        4.724594
  O           -5.126610       15.180686        3.518462
  O           -4.528718       19.541435        1.797624
  O           -4.622138       19.684825        4.270495
  N           -5.409100       17.565393        3.035577
  C           -6.170246       16.562159        5.457032
  C           -6.871797       19.744499        2.920645
  S           21.796759       -3.886662        4.013237
  S           20.426057       -6.074213        5.178655
  F           20.131636       -3.578159        1.951471
  F           22.237525       -3.481736        1.434020
  F           21.310162       -5.395996        1.858014
  F           18.319552       -7.601576        4.735208
  F           17.812535       -5.517031        5.054693
  F           18.672985       -6.146109        3.165619
  O           23.069497       -4.547155        4.132067
  O           21.727983       -2.459926        4.185853
  O           20.244133       -6.244217        6.596707
  O           21.243968       -7.020071        4.465332
  N           20.607388       -4.547418        4.807499
  C           21.336800       -4.107980        2.214409
  C           18.710326       -6.336997        4.491652
  S           -3.028133       -8.859541       14.233690
  S           -4.453041       -7.805777       12.024251
  F           -4.975661      -10.475530       15.078916
  F           -3.987240       -9.352710       16.651850
  F           -5.411747       -8.368214       15.345821
  F           -6.823872       -7.992216       10.879155
  F           -5.713680       -9.855378       10.855389
  F           -6.647698       -9.173428       12.690400
  O           -2.609927       -7.550856       14.661101
  O           -2.132593       -9.972673       14.404131
  O           -3.859716       -7.538316       10.740001
  O           -4.935507       -6.700144       12.809910
  N           -3.659774       -8.938118       12.792541
  C           -4.438749       -9.283867       15.385401
  C           -5.991115       -8.771847       11.593210
  S            4.099660       -0.245567        3.154185
  S            5.538557       -0.241071        0.714523
  F            3.495633       -2.844146        3.119132
  F            1.848129       -1.541165        3.666663
  F            2.473245       -1.689097        1.595067
  F            6.228851       -1.895718       -1.222611
  F            7.068221       -2.435681        0.703100
  F            4.973384       -2.815940        0.288648
  O            3.347894        0.922482        2.779025
  O            4.472430       -0.427296        4.531908
  O            6.747775        0.509508        0.497047
  O            4.357977        0.113807       -0.028949
  N            5.345323       -0.576392        2.248132
  C            2.916125       -1.662124        2.855956
  C            5.976590       -1.947872        0.098309
  S          -14.642246       14.406946       14.644121
  S          -12.813194       15.877797       16.229545
  F          -15.904057       16.528014       13.630417
  F          -17.214080       14.928481       14.291596
  F          -16.264891       16.226287       15.747242
  F          -12.233411       18.378606       16.843264
  F          -11.957318       17.928142       14.739620
  F          -13.956689       18.189945       15.538799
  O          -14.965477       13.524722       15.733817
  O          -14.604659       13.882885       13.304700
  O          -11.428359       15.521290       16.396890
  O          -13.688761       15.815980       17.370605
  N          -13.381080       15.326066       14.860298
  C          -16.082535       15.597746       14.581740
  C          -12.739919       17.693356       15.801600
  S          -11.208517       18.425943       -1.961636
  S          -11.002517       20.062257        0.341067
  F          -11.693337       16.154096       -0.649252
  F          -10.248354       15.976437       -2.259309
  F           -9.675628       16.902761       -0.383656
  F          -11.109430       19.865352        2.971019
  F          -12.973800       19.335934        1.997210
  F          -11.299983       17.957019        1.956688
  O          -10.003765       18.972257       -2.527630
  O          -12.293232       18.065210       -2.835346
  O          -11.528650       21.399785        0.425163
  O           -9.576707       19.872163        0.399268
  N          -11.796482       19.204729       -0.724767
  C          -10.674121       16.775808       -1.263206
  C          -11.640260       19.251957        1.897171
  S          -13.298825       12.167072       -4.684969
  S          -11.659002       14.423370       -5.177414
  F          -14.440747       13.127281       -2.473023
  F          -13.806196       11.055969       -2.335794
  F          -12.338960       12.650053       -2.234409
  F          -11.086993       16.770973       -4.115147
  F          -13.158535       16.593672       -4.733001
  F          -12.477637       15.604482       -2.926736
  O          -12.203393       11.255865       -4.884875
  O          -14.618505       11.781327       -5.108936
  O          -11.406051       14.961109       -6.488796
  O          -10.566156       13.841075       -4.443195
  N          -13.040720       13.654755       -5.134675
  C          -13.474130       12.265093       -2.825940
  C          -12.134547       15.928674       -4.181082
  S          -17.536674       15.472504        7.001784
  S          -16.195426       17.803302        7.891074
  F          -18.622893       16.583839        4.832970
  F          -19.976828       15.336477        5.983088
  F          -19.452310       17.315849        6.698023
  F          -15.888470       20.335778        7.213435
  F          -15.110310       18.954073        5.733630
  F          -17.250523       19.256406        5.914713
  O          -18.064212       15.206370        8.313694
  O          -17.164706       14.368123        6.157932
  O          -14.872830       17.800758        8.459936
  O          -17.308739       18.176177        8.724114
  N          -16.403474       16.564625        6.929756
  C          -18.975428       16.231136        6.079400
  C          -16.107056       19.154747        6.606336
  S           19.716369       10.350811        0.979633
  S           18.373428       10.330679       -1.514060
  F           17.875620        8.942372        2.301235
  F           18.622943       10.678408        3.368713
  F           17.216162       10.929606        1.737139
  F           16.129512        9.449670       -2.589009
  F           17.414799        7.858375       -1.867702
  F           16.277318        9.054844       -0.460823
  O           19.969855       11.764686        0.896349
  O           20.700173        9.496469        1.589823
  O           19.036883       10.171883       -2.781924
  O           17.725025       11.582316       -1.221768
  N           19.210654        9.668109       -0.347102
  C           18.267810       10.217882        2.154510
  C           16.975729        9.096530       -1.603923
  S           13.970425       -8.052330       15.466040
  S           12.652665       -5.719633       14.547108
  F           16.449509       -7.147042       15.074521
  F           16.116065       -9.185120       14.406033
  F           15.356502       -7.521817       13.239563
  F           13.220772       -3.346385       13.541227
  F           13.974635       -3.624161       15.555922
  F           14.973701       -4.578026       13.883583
  O           13.123439       -8.909580       14.679929
  O           14.418652       -8.501783       16.757236
  O           11.470818       -5.171156       15.159710
  O           12.560734       -6.247857       13.211074
  N           13.499095       -6.554198       15.590561
  C           15.559853       -7.961667       14.485313
  C           13.776710       -4.238446       14.381670
  S           -2.820545       14.472095        1.456774
  S           -0.715057       16.337470        1.125564
  F           -2.951623       14.665614        4.114604
  F           -3.030020       12.634876        3.351859
  F           -1.144495       13.705832        3.396761
  F            0.864035       17.874991        2.577924
  F           -1.233486       18.400295        2.748001
  F           -0.469722       16.644355        3.766847
  O           -2.184611       13.514283        0.591663
  O           -4.255540       14.576398        1.453199
  O           -0.652988       17.295973        0.053048
  O            0.274324       15.293225        1.181532
  N           -2.210513       15.924463        1.433418
  C           -2.456365       13.840446        3.178610
  C           -0.382044       17.370910        2.644072
  S           17.223505       14.163728        4.478173
  S           14.929284       14.800257        2.943969
  F           16.591833       11.602599        4.878549
  F           17.313307       12.641414        6.642681
  F           15.298153       12.994853        5.922681
  F           12.722523       13.662023        2.048718
  F           14.530391       12.767866        1.250870
  F           13.924090       12.350826        3.291259
  O           17.067837       15.333503        5.301355
  O           18.548187       13.708090        4.149974
  O           14.949207       15.658412        1.788095
  O           14.213954       15.231445        4.116503
  N           16.340191       14.123467        3.174259
  C           16.558198       12.772681        5.535851
  C           13.984106       13.303756        2.350772
  S            2.247169       -7.661598        6.411164
  S            1.430170      -10.357649        6.704801
  F            1.845867       -7.531941        3.776618
  F            3.712041       -6.651498        4.450438
  F            3.504226       -8.807891        4.345814
  F            0.581533      -12.379132        5.235015
  F           -0.764497      -10.678544        5.209214
  F            1.080471      -10.618056        4.070291
  O            3.434847       -7.876408        7.194434
  O            1.566285       -6.397354        6.501646
  O            0.652051      -10.844451        7.814045
  O            2.781461      -10.827789        6.545298
  N            1.175492       -8.815149        6.464866
  C            2.859888       -7.675521        4.644611
  C            0.527241      -11.034536        5.217756
  S           13.662606       -2.505156        2.144653
  S           12.620517       -5.060216        2.783496
  F           11.374652       -1.175549        2.485389
  F           12.482276       -0.624984        0.701610
  F           11.373417       -2.488118        0.759309
  F           10.333942       -6.195435        3.454095
  F           11.030049       -4.747911        4.911686
  F           10.153615       -4.072226        3.046204
  O           14.319211       -3.004610        0.965819
  O           14.294459       -1.465067        2.912168
  O           13.330491       -6.046793        3.555164
  O           12.334576       -5.335266        1.399645
  N           13.113645       -3.599367        3.136318
  C           12.129756       -1.660215        1.486798
  C           10.942437       -5.003876        3.599362
  S           23.660773        0.582155       17.394835
  S           25.455571        2.733649       16.979894
  F           21.553585        2.092096       18.026125
  F           21.851629        0.372391       19.316708
  F           23.124732        2.116481       19.520478
  F           25.507514        5.369568       17.106695
  F           24.125118        4.612041       15.616864
  F           23.610296        4.515617       17.721709
  O           24.612170       -0.129999       18.205954
  O           22.777215       -0.159873       16.535288
  O           26.434449        2.770448       15.924757
  O           25.908325        2.673491       18.345124
  N           24.232882        1.809367       16.589417
  C           22.487218        1.344051       18.635243
  C           24.616458        4.395674       16.844528
  S          -10.376976       -1.240419       15.334199
  S          -13.157587       -1.416083       14.824549
  F          -10.312426        1.410572       15.628766
  F           -8.707613        0.597373       14.414228
  F          -10.709258        0.766951       13.596411
  F          -15.264955        0.153335       14.573997
  F          -14.375713        0.224578       16.551025
  F          -13.415031        1.240940       14.893071
  O          -10.060761       -2.092917       14.219081
  O           -9.574336       -1.317387       16.525815
  O          -14.003687       -2.461064       15.339331
  O          -12.944339       -1.332388       13.403290
  N          -11.895339       -1.197461       15.752272
  C          -10.017308        0.482983       14.704238
  C          -14.097260        0.141702       15.242979
  S          -10.053071       11.328068        1.573622
  S           -7.942469       13.205426        1.781678
  F          -11.995907       13.125791        1.238550
  F          -12.470114       11.533022        2.634987
  F          -11.131965       13.133805        3.227452
  F           -7.558115       15.816755        1.772820
  F           -8.358882       15.063773       -0.097008
  F           -9.648989       15.254175        1.636221
  O           -9.600317       10.604809        2.732131
  O          -10.638108       10.602131        0.477788
  O           -6.640044       13.017125        1.197638
  O           -8.061430       13.242374        3.215882
  N           -9.043186       12.388492        0.992513
  C          -11.487206       12.347260        2.206735
  C           -8.412792       14.927207        1.234845
  S           16.844496        1.953545       -2.154894
  S           14.642529        3.700839       -1.807468
  F           18.336505        3.658766       -3.563730
  F           18.288221        1.636733       -4.351684
  F           16.583391        2.949435       -4.624687
  F           13.873648        6.134576       -2.480218
  F           15.640970        6.112860       -1.223013
  F           15.795049        5.576393       -3.319003
  O           15.991413        0.865320       -2.552699
  O           18.026498        1.672723       -1.384106
  O           13.884287        3.804176       -0.587935
  O           13.995265        3.186240       -2.985897
  N           16.114394        3.197479       -1.521148
  C           17.544334        2.593998       -3.766220
  C           15.021975        5.479462       -2.228518
  S           17.357181       15.844158       -0.964226
  S           20.058347       15.323594       -1.638848
  F           16.703386       13.309581       -0.447346
  F           15.245780       14.394173       -1.635144
  F           17.088942       13.701862       -2.544881
  F           21.721939       13.287870       -1.873666
  F           20.986892       13.562896        0.148346
  F           19.699073       12.691831       -1.364095
  O           17.166096       16.669474       -2.127228
  O           16.683139       16.189096        0.259207
  O           21.158259       16.171835       -1.259968
  O           19.728482       15.196302       -3.034356
  N           18.850843       15.472551       -0.628164
  C           16.564019       14.215649       -1.428103
  C           20.640515       13.620149       -1.144764
  S           -4.444637       -3.595496       -3.638840
  S           -5.842580       -1.176542       -4.104478
  F           -2.302640       -2.469988       -2.514665
  F           -1.851635       -4.018749       -3.967164
  F           -2.494423       -2.057866       -4.634940
  F           -5.532943        1.425166       -3.784961
  F           -5.553120        0.329960       -1.912908
  F           -3.796534        0.271624       -3.184015
  O           -4.695464       -4.064446       -4.975779
  O           -4.422663       -4.542435       -2.555823
  O           -7.263318       -1.023680       -3.928388
  O           -5.291272       -1.064783       -5.429630
  N           -5.277517       -2.336087       -3.189111
  C           -2.676359       -2.990169       -3.694501
  C           -5.136665        0.287145       -3.185748
  S           18.476962       -6.373063       -1.074192
  S           18.682704       -8.372796       -3.069471
  F           19.198247       -4.337641       -2.641193
  F           20.133780       -4.345227       -0.682484
  F           20.809453       -5.724570       -2.213838
  F           19.348347       -8.624508       -5.611205
  F           17.610200       -7.364213       -5.303036
  F           19.592154       -6.606237       -4.853543
  O           19.213121       -7.164391       -0.124400
  O           17.403782       -5.535953       -0.607680
  O           17.755743       -9.465496       -3.209545
  O           20.043932       -8.660251       -2.699492
  N           17.996990       -7.131488       -2.368979
  C           19.728576       -5.131527       -1.697390
  C           18.809251       -7.692856       -4.803377
  S          -11.043519        0.189617       -0.613150
  S           -8.215777        0.055628       -0.521924
  F          -11.475501       -1.909055        0.976711
  F          -12.724012       -1.848128       -0.797925
  F          -10.641542       -2.433626       -0.955005
  F           -6.299921       -1.422125        0.532870
  F           -7.536343       -0.437322        2.018093
  F           -8.293031       -2.168894        0.953296
  O          -11.047708        0.329282       -2.045180
  O          -12.034768        0.886592        0.162578
  O           -7.359366        1.210485       -0.446190
  O           -8.175082       -0.762411       -1.705821
  N           -9.642742        0.364878        0.086250
  C          -11.484870       -1.605346       -0.330936
  C           -7.560092       -1.053790        0.828643
  S           12.468232        3.268991       13.188348
  S           13.745121        3.669826       10.692093
  F            9.983511        3.175026       12.220866
  F           10.210222        4.379198       14.012623
  F           10.894278        5.139219       12.099877
  F           13.137464        3.965160        8.140549
  F           12.566957        2.030132        8.937200
  F           11.397687        3.790710        9.424937
  O           13.220556        4.327576       13.807735
  O           12.131558        2.102777       13.960810
  O           14.989901        3.050334       10.318434
  O           13.702071        5.099767       10.852942
  N           12.980945        2.804175       11.773029
  C           10.797392        4.037353       12.850355
  C           12.642514        3.337039        9.222987
