         874
  Built with Packmol                                             
  Ti          -2.868335        2.115442       11.265214
  Ti           7.802788        5.383210        1.844391
  Ti           1.352572       -1.673500        9.417113
  Ti           2.511792        7.542652        3.648414
  Ti           1.444672        9.187418        1.751989
  Ti           3.259458       -1.864257       11.359530
  Ti          -1.869782        0.416024        9.366140
  Ti           5.815984        5.614284        3.703281
  H            3.746896        1.652626        8.583439
  H           -7.024875       10.142785        6.478257
  H            4.431630       11.010612        4.650438
  H           -2.503694        6.028051       11.048460
  H            8.748737        1.507342        2.155250
  H           -6.801542        1.221893       10.903644
  H           11.114246        7.503838        2.029089
  H            4.372721       -5.862020       10.962653
  H           -2.589143        8.456181        2.095703
  H            4.656966        3.204147        6.826953
  H           -0.045224        3.670268        8.406030
  H           12.440918       -1.828167        6.378540
  H           -2.327232        0.331938       12.984230
  H            5.927385        5.077403        0.154584
  H            3.761426       -2.506617        5.844726
  H            0.745560        9.314262        7.279431
  H           -6.059913        3.661213        9.037490
  H           10.641247        3.393379        4.132134
  H           -3.728587        2.298708        5.688870
  H           -1.703972       10.903386        4.124923
  H            1.733452       12.300945        2.609537
  H            8.667985       -0.517063        3.355831
  H            4.606680        7.297451        2.297825
  H            0.215487        0.134620       10.719246
  H            7.415332        0.218685        9.728366
  H            5.955496       -0.302534       10.483299
  H            7.828656        4.670987        8.632537
  H            7.237651        5.011538        7.017709
  H            7.098177       -4.749977        9.534320
  H            5.784030       -3.695029       10.000157
  H            1.411485        1.911548        9.356085
  H            0.863759        5.227040        6.648574
  H            5.741023        9.069333        3.845371
  H            7.999135        8.609993        4.744623
  C            8.422325        4.659191        4.703706
  C           -3.853328        2.346718        8.423899
  C            3.961595       -2.592630        8.476524
  C            0.513540        9.443357        4.621320
  C            9.344336        4.085192        5.693105
  C           -4.811926        2.940026        7.452907
  C            4.917315       -3.172748        7.523270
  C           -0.392661       10.057561        5.626884
  C            9.101042        4.149763        7.100999
  C           -4.599256        2.829342        6.063538
  C            6.075072       -3.893771        7.969088
  C           -1.516055       10.792469        5.189090
  C           -0.124811        9.894234        6.980095
  C            4.657405       -3.047644        6.140915
  C           10.498947        3.426687        5.210054
  C           -5.932679        3.593124        7.958691
  C            2.813684        4.307411        6.639567
  C            1.802100        2.580168        8.590925
  C            6.161473        9.726276        4.605129
  C           -1.730084       -2.944720        6.528234
  C            8.715175        1.588330        0.011262
  C            1.839040       13.147429        0.088587
  C            6.684170        0.195343       12.990012
  C           -6.719779        1.271810       13.046845
  C            3.350517        5.224492        5.605606
  C           -1.145018       -2.033515        7.540248
  C            4.215985       -4.201651       13.101266
  C            1.796086       11.711651        0.049701
  C            5.408882       -0.466276       13.043122
  C           -5.332575        1.734605       13.064020
  C            1.482906        4.442604        7.078738
  C            3.125222        2.436827        8.154613
  C            5.424120       10.827594        5.058747
  C           -8.018869       10.319594        6.073436
  C            8.784652        0.919515        1.239780
  C           -2.508142        6.615249       11.963065
  C           -4.360552        7.730507        1.110303
  C           -7.351366        1.022025       11.821932
  C            7.441371        9.469644        5.112723
  C           12.991193       -2.694552        6.017481
  C            3.632637        3.298056        7.181208
  C            0.980621        3.578705        8.052889
  C            7.361766        0.489528       11.753548
  C           -3.089201        8.254946        1.152479
  C            4.438003       -6.388560       11.910676
  C            8.855538       -0.479663        1.318796
  N            8.938305       -1.077634        2.555968
  N            6.782516        0.288157       10.517426
  N            8.001283        4.757340        7.639127
  N            6.418775       -4.042078        9.284423
  O            7.234665        5.022637        5.076604
  O           -3.053924        1.423703        8.020113
  O            4.345224       -2.456407        9.695708
  O            0.426054        9.871897        3.422680
  O            1.318961        8.513079        5.002228
  O            2.776776       -2.264724        8.078087
  O            8.824398        4.755701        3.489805
  O           -3.903766        2.779752        9.624467
  O            6.156697        4.409127        2.505218
  O           -1.367975        1.993658       10.109628
  O            7.017801        6.727170        2.953185
  O           -3.056279        0.208461       10.609657
  O            1.659621       -2.837312       10.674383
  O            2.969458        9.121937        2.909279
  O            2.531624       -0.543378       10.208048
  O            1.322575        7.306972        2.398893
  O            4.575167        5.087631        5.244337
  O           -1.836144       -1.022528        7.923516
  O            4.066391       -3.610049       11.962095
  O            1.743514       11.006429        1.144350
  O            4.771026       -0.795498       11.956418
  O           -0.427504        9.094025        1.094098
  O            0.028867       -2.288059        7.991258
  O            2.574295        6.119616        5.117796
  O            9.199419        6.452785        1.083295
  O           -4.748114        1.988975       11.944029
  O            8.500254        3.672420        1.113292
  O           -2.542975        3.849240       12.015231
  O            4.269171        6.735574        3.019668
  O           -0.147093       -0.436062       10.017030
  O            6.748057        5.600086        0.071530
  O           -2.238358        1.302347       13.044892
  S           10.375641       -6.773026       -2.420682
  S           12.689858       -5.197438       -1.991353
  F            8.773535       -4.744491       -3.081737
  F            7.895828       -6.178189       -1.708435
  F            9.362202       -4.748322       -0.994719
  F           13.445281       -2.668821       -2.039093
  F           12.795389       -3.403966       -3.973432
  F           11.331032       -2.943100       -2.441123
  O           10.563850       -7.488106       -1.186393
  O            9.840119       -7.469323       -3.560195
  O           14.016441       -5.595618       -2.384416
  O           12.391113       -5.066664       -0.589174
  N           11.595317       -5.895702       -2.894760
  C            9.033502       -5.532294       -2.026251
  C           12.548754       -3.459334       -2.657569
  S           20.154699        3.509050       14.164447
  S           21.000367        6.166055       13.666886
  F           22.122323        2.901141       15.860794
  F           21.696226        1.367616       14.384799
  F           22.783275        3.154626       13.811141
  F           22.944017        7.822224       14.334854
  F           21.723260        7.211901       16.020595
  F           23.175835        5.837660       15.180240
  O           19.976443        3.242454       12.761813
  O           19.253319        2.910014       15.112484
  O           20.101667        7.282957       13.533697
  O           21.767030        5.751400       12.521134
  N           20.359146        5.022445       14.551605
  C           21.787754        2.696997       14.576794
  C           22.278541        6.786152       14.877883
  S          -16.428628       -2.909463        0.941203
  S          -15.577793       -1.548830        3.275118
  F          -14.679202       -4.914921        1.131836
  F          -14.886627       -4.083754       -0.862646
  F          -13.770212       -3.005475        0.652312
  F          -13.765714       -1.756701        5.182998
  F          -15.177292       -3.403342        5.161039
  F          -13.604487       -3.303915        3.670700
  O          -16.423618       -1.698423        0.164293
  O          -17.430697       -3.907757        0.677822
  O          -16.473668       -0.909153        4.203068
  O          -14.665114       -0.733471        2.517052
  N          -16.303469       -2.721395        2.500376
  C          -14.845369       -3.772549        0.446530
  C          -14.474443       -2.571737        4.380127
  S            0.865901      -14.001501       -0.339195
  S            3.168837      -13.611609       -1.941340
  F           -0.241463      -11.630029       -0.857420
  F           -0.295519      -12.214845        1.232290
  F            1.555936      -11.509680        0.349669
  F            4.266093      -11.769777       -3.480993
  F            2.353528      -12.475318       -4.221785
  F            2.427302      -11.115566       -2.533489
  O            1.648554      -14.476351        0.770852
  O           -0.431144      -14.575896       -0.579714
  O            3.763547      -14.639131       -2.755826
  O            3.911887      -13.096962       -0.820861
  N            1.628140      -13.887211       -1.713235
  C            0.457405      -12.234613        0.116402
  C            3.033393      -12.162514       -3.110332
  S            6.639430      -10.826244        4.355834
  S            8.137079      -11.562579        2.067328
  F            6.336854      -13.302483        5.302078
  F            4.536666      -12.090564        5.351060
  F            5.233105      -12.924979        3.474124
  F            9.066213      -13.726835        0.875878
  F            9.906687      -13.409761        2.850095
  F            7.881474      -14.157905        2.641517
  O            5.770345       -9.977726        3.584509
  O            6.991243      -10.437509        5.695690
  O            9.258517      -10.811638        1.565994
  O            6.945313      -11.649831        1.264497
  N            7.939895      -11.323126        3.618301
  C            5.634062      -12.379380        4.626629
  C            8.784162      -13.312645        2.124908
  S           -3.608311        8.196819       14.666102
  S           -1.822326        6.070152       15.222832
  F           -5.717136        7.122181       15.897647
  F           -6.150580        7.989863       13.955722
  F           -5.136154        6.077409       14.088476
  F           -1.802364        3.710939       16.406284
  F           -2.234996        5.345578       17.764684
  F           -3.759017        4.647999       16.387928
  O           -3.219520        8.236622       13.281367
  O           -3.936382        9.425921       15.338247
  O           -0.440115        6.255394       15.580670
  O           -2.135863        5.425197       13.974559
  N           -2.685024        7.337910       15.610492
  C           -5.240407        7.284446       14.653192
  C           -2.447188        4.886329       16.523936
  S          -17.431220        1.724998        0.179397
  S          -16.848644        4.318715        1.156965
  F          -18.448557        2.526107       -2.153400
  F          -19.595378        0.979310       -1.151382
  F          -19.684118        3.027482       -0.443371
  F          -17.090659        6.846563        0.437063
  F          -15.795940        5.703740       -0.875234
  F          -17.947844        5.458581       -0.993199
  O          -18.052425        1.335750        1.417470
  O          -16.682971        0.748958       -0.567310
  O          -15.658980        4.649075        1.897527
  O          -18.124031        4.400395        1.819667
  N          -16.606707        3.066825        0.221029
  C          -18.871392        2.097007       -0.953670
  C          -16.922234        5.648073       -0.151527
  S           15.012765        3.944539       16.628310
  S           16.129418        1.429876       17.300589
  F           12.465800        3.212623       16.938092
  F           12.858917        4.381138       15.151516
  F           13.437738        2.292441       15.231987
  F           15.359567       -1.002451       17.977316
  F           14.774244        0.511271       19.416241
  F           13.706684        0.331977       17.536645
  O           15.844188        4.065573       15.460270
  O           14.687178        5.125397       17.383074
  O           17.322036        1.266368       18.090398
  O           16.150102        1.023486       15.919692
  N           15.409820        2.798432       17.633716
  C           13.352071        3.416313       15.950518
  C           14.917216        0.261889       18.107518
  S          -10.863721      -12.888694        7.973947
  S          -10.637966      -10.524766        9.517734
  F           -8.556863      -13.966239        8.771439
  F           -8.927206      -14.102318        6.636925
  F           -8.314983      -12.215786        7.514618
  F           -8.961399       -9.362373       11.192492
  F           -9.738278      -11.247986       11.930995
  F           -8.214659      -11.233445       10.387272
  O          -11.223803      -12.150847        6.792356
  O          -11.459504      -14.177831        8.204751
  O          -11.742638       -9.903388       10.200713
  O          -10.012575       -9.823046        8.427352
  N          -10.889067      -12.074109        9.322229
  C           -9.059799      -13.307418        7.715371
  C           -9.314608      -10.609845       10.831601
  S           -3.252407       11.750141       16.843343
  S           -1.743119        9.557801       17.811895
  F           -2.058402       13.600440       18.349807
  F           -4.221411       13.762165       18.265803
  F           -3.294089       12.220451       19.477147
  F            0.162914        9.037924       19.562214
  F            0.801249       10.368191       17.972440
  F           -0.466487       11.114157       19.566520
  O           -4.492912       11.037578       16.997078
  O           -3.096969       12.657515       15.737624
  O           -1.267432        8.481562       16.982255
  O           -2.728474        9.272430       18.821893
  N           -1.944863       10.880151       16.967840
  C           -3.197338       12.890196       18.324414
  C           -0.225308       10.058998       18.776162
  S            4.163782        8.033768       15.280306
  S            2.747624        9.895923       13.683661
  F            2.762224        8.453808       17.511425
  F            4.910954        8.348825       17.800836
  F            4.016929       10.127527       16.939962
  F            0.779032       11.642158       13.888981
  F            0.150203        9.598005       14.250198
  F            1.268387       10.672216       15.766920
  O            5.437290        8.533993       14.835126
  O            4.014989        6.626614       15.540847
  O            2.394532        9.667824       12.306647
  O            3.687621       10.940753       13.995420
  N            2.911530        8.529185       14.462699
  C            3.945110        8.793236       16.974920
  C            1.145130       10.473610       14.447239
  S            2.534794       15.006638       10.502389
  S            3.008073       16.659476        8.251493
  F            1.627270       16.948691       12.090949
  F            3.035026       15.592998       13.035480
  F            3.744381       17.100921       11.647262
  F            2.834946       19.195219        7.539536
  F            0.917256       18.315007        8.041689
  F            2.311468       18.846668        9.615925
  O            3.825864       14.382115       10.386878
  O            1.413176       14.222139       10.945825
  O            2.734068       16.265214        6.894161
  O            4.374372       16.879168        8.648255
  N            2.083908       15.876622        9.268742
  C            2.750294       16.241008       11.890272
  C            2.214152       18.344303        8.377235
  S          -16.904981       13.875671        7.913055
  S          -17.570939       15.360481       10.231296
  F          -17.056883       15.926329        6.212932
  F          -18.002069       14.101557        5.513894
  F          -18.974666       15.319015        7.022541
  F          -18.228692       17.818893       10.931596
  F          -16.234578       17.673645       10.090836
  F          -17.968628       17.574081        8.791656
  O          -17.835887       12.830209        8.245709
  O          -15.664248       13.531992        7.270739
  O          -16.948100       15.167199       11.514878
  O          -18.967581       15.044608       10.082730
  N          -16.607285       14.915337        9.058711
  C          -17.789229       14.869499        6.599001
  C          -17.487317       17.209438        9.988138
  S          -14.547659      -10.026395        4.846690
  S          -12.642679       -7.996117        5.367672
  F          -16.623932       -8.384330        4.512922
  F          -17.040084      -10.129920        5.734214
  F          -15.902475       -8.476123        6.555778
  F          -12.506607       -5.370562        5.601761
  F          -13.103195       -6.022870        3.621094
  F          -14.520870       -6.100931        5.260854
  O          -14.108906      -10.806544        5.973232
  O          -14.985402      -10.701303        3.653801
  O          -11.291463       -8.016512        4.871012
  O          -12.862278       -8.096772        6.786862
  N          -13.604960       -8.833876        4.432839
  C          -16.111401       -9.197556        5.450067
  C          -13.234831       -6.280898        4.929330
  S            3.649536       -9.033462       10.501248
  S            1.854985      -11.198228       10.841507
  F            5.665402      -10.489238        9.533937
  F            6.244342       -9.024891       11.028039
  F            5.250392      -10.856101       11.630451
  F            1.772156      -13.817560       10.526727
  F            2.067803      -12.741534        8.666827
  F            3.709841      -12.956452       10.067623
  O            3.375360       -8.524607       11.818870
  O            3.903307       -8.106910        9.430171
  O            0.445485      -11.124861       10.557259
  O            2.279437      -11.389882       12.203698
  N            2.664341      -10.147040        9.980296
  C            5.290281       -9.911045       10.685998
  C            2.387941      -12.759442        9.967819
  S           -2.923798       -9.043253       -2.927178
  S           -3.550217      -11.658794       -2.038953
  F           -5.445435       -8.275557       -3.340313
  F           -4.064042       -7.729052       -4.923003
  F           -4.749531       -9.778619       -4.739853
  F           -5.651594      -13.209829       -1.657703
  F           -5.650077      -11.446098       -0.395279
  F           -6.152385      -11.273452       -2.498274
  O           -1.906731       -9.528937       -3.821561
  O           -2.728289       -7.783345       -2.260462
  O           -2.869698      -12.324318       -0.958749
  O           -3.420139      -12.187171       -3.371752
  N           -3.468258      -10.087210       -1.880387
  C           -4.383032       -8.697715       -4.044124
  C           -5.353916      -11.897861       -1.621487
  S           18.114686       15.524111        8.159363
  S           19.453228       13.204318        9.080917
  F           17.272882       14.467254        5.858688
  F           18.095626       16.468513        5.685835
  F           19.418298       14.769658        5.947746
  F           19.989227       10.740877        8.299243
  F           17.867224       11.118534        8.542020
  F           18.916657       11.901301        6.812663
  O           19.236229       16.367273        8.477882
  O           16.781148       16.038362        8.324666
  O           19.441147       12.761319       10.450763
  O           20.697208       13.642608        8.503965
  N           18.167823       14.064522        8.749983
  C           18.238579       15.283812        6.309165
  C           19.020718       11.659252        8.126732
  S           26.408560       -8.593820        7.537388
  S           24.580266       -9.765439        9.355918
  F           28.543560       -9.964109        8.363691
  F           28.896461       -7.845642        8.048447
  F           27.821476       -8.517216        9.808435
  F           24.541294      -11.520890       11.326633
  F           25.111243      -12.386527        9.421300
  F           26.526897      -11.169838       10.525974
  O           25.942608       -7.265675        7.835972
  O           26.819814       -8.907703        6.194835
  O           23.228666      -10.125938        9.015199
  O           24.797580       -8.714596       10.315585
  N           25.509985       -9.770322        8.076334
  C           28.002450       -8.743490        8.503536
  C           25.234732      -11.299342       10.194713
  S           23.116144       14.127755       14.497827
  S           25.668450       15.353434       14.421352
  F           24.009571       11.614499       14.434426
  F           22.330422       12.009721       13.116823
  F           24.316359       12.697600       12.581061
  F           28.219598       14.692057       14.276185
  F           27.250698       13.972460       16.078372
  F           26.881740       12.986729       14.181818
  O           22.606065       14.994188       13.468581
  O           22.241156       13.710793       15.561143
  O           26.020540       16.523014       15.183576
  O           25.626020       15.447394       12.985445
  N           24.500377       14.548788       15.121273
  C           23.474661       12.524475       13.604919
  C           27.076560       14.177246       14.765693
  S            3.627415       19.157339       17.594294
  S            6.415029       18.857841       17.191913
  F            3.647534       21.822060       17.726759
  F            2.434609       20.851458       19.242862
  F            4.596217       20.856115       19.420613
  F            8.596181       20.333026       17.009546
  F            7.158953       20.733105       15.435132
  F            6.809985       21.487264       17.438674
  O            3.607896       18.143051       18.614624
  O            2.499761       19.284419       16.709789
  O            6.997680       17.894887       16.294078
  O            6.645872       18.717127       18.605903
  N            4.948652       19.241985       16.740349
  C            3.585820       20.763722       18.550397
  C            7.282944       20.447089       16.738286
  S           24.104602       18.017465       12.366673
  S           22.271723       20.176853       12.367346
  F           23.701861       17.308115        9.826335
  F           23.769247       15.651185       11.227000
  F           22.008676       16.913564       11.122346
  F           20.558767       21.368498       10.750989
  F           22.612269       21.494246       10.064127
  F           21.514554       19.634141        9.864768
  O           23.584033       17.500573       13.604438
  O           25.513303       17.904722       12.096572
  O           22.509961       21.431882       13.031436
  O           21.210054       19.329598       12.844289
  N           23.633112       19.470393       11.980988
  C           23.343888       16.917527       11.059852
  C           21.719205       20.692933       10.660552
  S           23.342255       15.347055       -0.176995
  S           23.696820       18.152545       -0.016018
  F           24.096853       14.824460        2.328233
  F           24.929644       13.485794        0.836169
  F           25.715143       15.496058        1.050625
  F           24.498767       19.988519        1.702390
  F           22.718560       18.931444        2.348858
  F           24.656683       17.965004        2.468783
  O           24.046198       15.272508       -1.429649
  O           22.227451       14.467481        0.054659
  O           22.803650       19.110264       -0.614259
  O           25.043298       18.052623       -0.515487
  N           22.947480       16.795860        0.299631
  C           24.595665       14.766388        1.083210
  C           23.897351       18.784866        1.728894
  S           14.637987       19.984246        2.770999
  S           15.984048       18.861875        4.996039
  F           12.215933       19.071404        3.418353
  F           12.737632       18.841884        1.323843
  F           13.600807       17.517943        2.809196
  F           15.481842       17.368022        7.113357
  F           14.430855       19.265219        7.136417
  F           13.750921       17.665055        5.839546
  O           15.634574       19.501652        1.852222
  O           14.010432       21.254706        2.521582
  O           17.029453       19.532771        5.723979
  O           16.308909       17.672911        4.252205
  N           15.019349       19.902556        4.297415
  C           13.221601       18.778782        2.578548
  C           14.838311       18.264892        6.343503
  S            3.206791       13.586319        6.103589
  S            5.238628       12.783864        7.906394
  F            4.846407       14.654900        4.290170
  F            3.096337       15.855991        4.744549
  F            4.749476       15.772222        6.146076
  F            7.863667       12.887061        8.162071
  F            7.216517       11.735740        6.441570
  F            7.130989       13.902482        6.390345
  O            2.423882       14.173933        7.158102
  O            2.534860       12.941827        5.006666
  O            5.222039       11.541178        8.633255
  O            5.133198       14.018364        8.639436
  N            4.402166       12.671543        6.568689
  C            4.031132       15.049321        5.281144
  C            6.954206       12.828129        7.171822
  S           16.450100        5.696193       10.974161
  S           16.090170        7.875211       12.747500
  F           14.141071        4.486601       11.543334
  F           15.854429        3.158121       11.436725
  F           15.577235        4.435880       13.167233
  F           14.349857        8.765725       14.520955
  F           13.546312        8.667722       12.508699
  F           13.801223        6.849663       13.663858
  O           17.794379        5.469689       11.434426
  O           16.137146        5.476585        9.587101
  O           16.461174        9.231565       12.438421
  O           16.789605        7.187015       13.800892
  N           15.791486        7.052910       11.429796
  C           15.446110        4.376515       11.838326
  C           14.343930        8.043086       13.385640
  S           12.415851        7.496862        5.234619
  S           13.399877        6.946588        7.832944
  F           12.772924       10.138309        5.352716
  F           10.865715        9.520992        4.520074
  F           11.203418        9.409758        6.659641
  F           14.350500        8.219493        9.940758
  F           15.589679        8.444632        8.174912
  F           13.729272        9.547300        8.341410
  O           11.254181        6.672600        5.437960
  O           13.019406        7.548874        3.929583
  O           14.221162        5.809090        8.156145
  O           12.077796        7.030830        8.396384
  N           13.556610        7.347166        6.310870
  C           11.781362        9.240441        5.466316
  C           14.322329        8.374520        8.604211
  S           -3.029950       -3.875076       18.143392
  S           -2.570654       -6.584376       18.829790
  F           -1.810543       -3.975503       15.772390
  F           -1.327471       -2.226069       16.963163
  F           -0.458042       -4.150408       17.458313
  F           -1.392976       -8.738518       17.860464
  F           -3.039818       -8.039157       16.634384
  F           -1.144585       -6.984596       16.607878
  O           -2.589762       -3.414144       19.433356
  O           -4.101660       -3.182143       17.479023
  O           -3.536701       -7.418712       19.495753
  O           -1.352792       -6.246371       19.519010
  N           -3.281277       -5.425545       18.021172
  C           -1.569380       -3.549123       17.022313
  C           -2.011404       -7.638042       17.393898
  S           19.502756        9.959561        2.411747
  S           18.843460       11.196732       -0.049379
  F           22.090012       10.609903        2.368723
  F           21.683915        8.558246        2.949762
  F           21.531872        9.147550        0.867992
  F           20.001465       12.535060       -2.007630
  F           20.095832       13.560092       -0.098476
  F           21.392283       11.864332       -0.483603
  O           18.808088        8.750871        2.055744
  O           19.492459       10.396860        3.782428
  O           17.623276       11.925247       -0.280217
  O           19.068445        9.972422       -0.772501
  N           19.228388       11.203521        1.484740
  C           21.304035        9.549847        2.122169
  C           20.161776       12.356392       -0.683409
  S           -9.432367      -10.504829        1.772085
  S           -8.015122      -12.658628        2.944675
  F           -7.605153       -8.637849        2.314639
  F           -9.652462       -8.043967        2.724090
  F           -8.624842       -9.398488        4.070729
  F           -5.763749      -13.122927        4.241823
  F           -5.452859      -12.396370        2.221940
  F           -6.075873      -11.025524        3.783140
  O          -10.655640      -10.875151        2.432915
  O           -9.491252       -9.954751        0.443909
  O           -7.958134      -13.982896        2.382592
  O           -8.684736      -12.467459        4.204646
  N           -8.277522      -11.575271        1.822525
  C           -8.785384       -9.072081        2.784495
  C           -6.225979      -12.270057        3.309010
  S           17.214693      -11.368858       -3.862535
  S           14.737460      -10.935775       -2.559402
  F           16.439274      -10.461040       -6.248594
  F           17.577133      -12.308516       -6.311265
  F           15.502477      -12.331995       -5.679272
  F           12.305297      -10.059042       -3.091164
  F           13.837359       -8.547660       -3.361301
  F           13.597103      -10.122783       -4.833027
  O           17.327321      -12.700576       -3.329548
  O           18.404642      -10.577953       -4.031639
  O           14.614390      -10.443865       -1.211904
  O           14.302326      -12.276607       -2.851433
  N           16.098276      -10.465765       -3.214389
  C           16.639440      -11.631443       -5.622211
  C           13.563118       -9.849406       -3.521423
  S          -16.725094      -12.548801       11.788788
  S          -18.991183      -10.948030       12.358675
  F          -15.644654      -10.881970       10.007492
  F          -15.635920      -12.969451        9.412372
  F          -17.475074      -11.823143        9.324888
  F          -20.078364       -8.657602       11.624629
  F          -18.135260       -8.421455       12.558999
  F          -18.276546       -9.148046       10.520172
  O          -17.528649      -13.732450       11.635470
  O          -15.412633      -12.661983       12.367354
  O          -19.546738      -10.783205       13.676652
  O          -19.772146      -11.623581       11.355588
  N          -17.452610      -11.307634       12.430880
  C          -16.358677      -12.018526       10.033546
  C          -18.849421       -9.195747       11.730847
  S           16.241960       -6.838044        4.742974
  S           16.068570       -9.043961        2.974849
  F           14.164817       -5.503491        3.731473
  F           15.915072       -4.283027        4.130089
  F           15.875930       -5.593801        2.402518
  F           14.628970       -9.877523        0.925562
  F           13.476588       -9.666705        2.750949
  F           14.062689       -7.905028        1.629481
  O           17.660265       -6.711133        4.536723
  O           15.694150       -6.556241        6.043202
  O           16.283495      -10.410774        3.372970
  O           16.995256       -8.434229        2.057278
  N           15.588353       -8.164004        4.198289
  C           15.506281       -5.485114        3.682463
  C           14.462695       -9.121096        2.026178
  S           14.005698       17.976683       18.265150
  S           11.538641       19.273551       17.761005
  F           15.413686       20.204212       18.682732
  F           16.398853       18.735571       17.424019
  F           14.783572       19.942116       16.624468
  F           10.538635       21.710538       17.593885
  F           11.299286       21.231688       19.567859
  F           12.677776       21.680964       17.954593
  O           13.862485       17.130895       17.110002
  O           14.631657       17.448506       19.448073
  O           10.266564       18.789521       18.230479
  O           11.792836       19.296316       16.344204
  N           12.715884       18.774358       18.691941
  C           15.210096       19.296762       17.714563
  C           11.521857       21.073381       18.256070
  S           23.269982       10.631653       -2.332926
  S           25.731517       10.755362       -3.728613
  F           22.176705        8.735976       -3.859309
  F           20.855018       10.393269       -3.392038
  F           22.422499       10.638173       -4.870953
  F           26.922126        9.666784       -5.817703
  F           26.461768        8.236016       -4.253914
  F           24.881780        8.984513       -5.537697
  O           23.133330       12.063979       -2.331483
  O           22.803686        9.881314       -1.197293
  O           27.011083       10.911181       -3.087286
  O           25.245770       11.813639       -4.575111
  N           24.684869       10.080803       -2.753300
  C           22.124748       10.067877       -3.699279
  C           26.007054        9.322439       -4.892904
  S          -13.513152        5.713282       16.246873
  S          -13.619161        3.324170       17.764537
  F          -16.150322        5.958371       15.924457
  F          -14.983825        6.314917       14.128913
  F          -15.289262        4.289077       14.840842
  F          -15.391048        1.604183       18.696689
  F          -15.620400        3.598318       19.518448
  F          -16.271647        3.179317       17.492362
  O          -12.483121        5.190200       15.389169
  O          -13.500151        7.111295       16.586717
  O          -12.768867        3.052218       18.894099
  O          -13.480026        2.517074       16.580605
  N          -13.802879        4.880799       17.552662
  C          -15.075253        5.549082       15.232376
  C          -15.324924        2.916047       18.403733
  S           24.646776        0.081297        1.650572
  S           24.856353       -2.244040        3.254095
  F           27.125493       -0.029759        0.669593
  F           26.495114        1.946259        1.309745
  F           27.043009        0.451204        2.782425
  F           26.624087       -4.093646        3.902879
  F           26.123259       -4.092026        1.792516
  F           27.426062       -2.556566        2.598605
  O           24.071197        0.841690        2.727950
  O           24.204967        0.327817        0.303673
  O           23.798047       -3.206990        3.414051
  O           25.268947       -1.469898        4.395553
  N           24.723086       -1.475794        1.877950
  C           26.432290        0.634857        1.607688
  C           26.341248       -3.301573        2.852258
  S           -9.497870       -5.159954        9.293729
  S           -8.737235       -2.535750       10.040312
  F          -12.089124       -4.617598        8.962149
  F          -11.682087       -6.453971       10.045605
  F          -11.437149       -4.536223       11.028667
  F           -9.817570       -0.162589       10.449988
  F          -10.019958       -0.852740        8.403725
  F          -11.271252       -1.697148        9.961270
  O           -8.769138       -5.744008       10.388290
  O           -9.560885       -5.861518        8.039161
  O           -7.517959       -1.900891        9.612304
  O           -8.908805       -2.838948       11.437126
  N           -9.196681       -3.640580        9.005905
  C          -11.276708       -5.182294        9.869545
  C          -10.039742       -1.246776        9.684245
  S            1.403632       -0.306096       16.765900
  S            1.241770        2.062198       18.311018
  F            1.244489        0.897330       14.389952
  F            0.011657       -0.878320       14.587469
  F           -0.595913        0.976150       15.534024
  F            0.969087        4.667360       17.986026
  F            2.795811        3.883730       17.118001
  F            0.895839        3.555540       16.124468
  O            0.417627       -0.970309       17.576362
  O            2.495017       -1.069922       16.222254
  O            2.013671        2.297139       19.503428
  O           -0.188388        1.941014       18.422460
  N            1.974492        1.040583       17.351248
  C            0.460051        0.212288       15.237090
  C            1.497038        3.623658       17.320341
  S           22.499340        1.808677        7.745285
  S           24.698335        3.488434        8.349631
  F           20.788748        3.777245        7.181983
  F           19.970399        2.197929        8.426123
  F           21.325820        3.660306        9.279617
  F           25.293444        6.055535        8.500253
  F           24.738278        5.422113        6.501495
  F           23.211090        5.681609        8.019741
  O           22.702431        1.020067        8.931489
  O           22.036599        1.164116        6.545070
  O           26.056543        3.201449        7.967819
  O           24.358091        3.500064        9.748401
  N           23.672268        2.790765        7.368723
  C           21.072353        2.933418        8.186867
  C           24.463872        5.257795        7.802683
  S           13.104969        0.523632       -1.139841
  S           11.335691        0.232838       -3.332441
  F           12.065702        2.811047       -0.241874
  F           14.235152        2.765451       -0.298692
  F           13.105762        3.007708       -2.134435
  F            9.325249        1.498221       -4.482997
  F            8.889375        0.866107       -2.454473
  F           10.174071        2.578471       -2.803869
  O           14.255438        0.244718       -1.957681
  O           13.086571        0.066649        0.224318
  O           10.775897       -1.025903       -3.750856
  O           12.248983        0.913409       -4.212883
  N           11.707808        0.206960       -1.795367
  C           13.121712        2.383976       -0.952311
  C            9.848188        1.357762       -3.250930
  S          -17.494028        0.692407       12.216984
  S          -17.483477       -1.844173       13.477163
  F          -20.146747        0.894288       12.014458
  F          -19.058002        1.469602       10.226870
  F          -19.286070       -0.627408       10.731545
  F          -19.175774       -3.702072       14.284130
  F          -19.423313       -1.812030       15.318989
  F          -20.139937       -2.035625       13.284003
  O          -16.484437        0.291426       11.273493
  O          -17.502867        2.047085       12.701618
  O          -16.584702       -2.208157       14.541395
  O          -17.369140       -2.518915       12.210629
  N          -17.713576       -0.279825       13.437074
  C          -19.088736        0.590427       11.245987
  C          -19.153277       -2.365436       14.128942
  S           -6.641906       14.805318        0.567918
  S           -4.097596       15.886994        1.183435
  F           -7.830813       17.143707        0.080963
  F           -8.996490       15.773364        1.295532
  F           -7.321281       16.840495        2.166779
  F           -2.898920       18.229335        1.391907
  F           -3.606456       17.806187       -0.614284
  F           -5.013678       18.382688        0.932351
  O           -6.625901       13.957281        1.730162
  O           -7.256118       14.326141       -0.641725
  O           -2.851979       15.291955        0.774486
  O           -4.413864       15.940182        2.586861
  N           -5.269528       15.485881        0.199860
  C           -7.751453       16.227893        1.059356
  C           -3.902106       17.675618        0.686074
  S           22.861998       13.667699        5.864099
  S           25.026771       11.986226        6.577407
  F           24.245288       15.948318        5.927180
  F           22.297824       16.046445        6.880895
  F           23.947138       15.053275        7.879664
  F           27.582859       12.150506        7.214803
  F           27.159157       12.826621        5.197922
  F           26.650618       14.082692        6.891552
  O           21.988121       13.045202        6.822780
  O           22.320026       14.118283        4.609769
  O           25.259950       10.688653        5.998786
  O           24.687863       12.072913        7.973861
  N           24.217228       12.914375        5.584976
  C           23.376963       15.264624        6.689309
  C           26.694213       12.816469        6.454550
  S          -12.323963        2.806795       -3.069163
  S          -12.722996        2.165419       -0.339363
  F          -11.505359        5.311750       -2.652293
  F          -12.935126        5.086114       -4.269907
  F          -13.603963        4.993392       -2.208785
  F          -12.549989        3.289650        2.042448
  F          -10.644608        3.169073        1.013152
  F          -12.108700        4.652761        0.413306
  O          -13.601844        2.261456       -3.443139
  O          -11.212605        2.673405       -3.973149
  O          -12.388628        0.892012        0.243307
  O          -14.106965        2.555915       -0.407174
  N          -11.832623        2.459420       -1.613151
  C          -12.610868        4.654215       -3.036694
  C          -11.954506        3.391627        0.839874
  S            2.913701       -3.132293        2.297853
  S            0.597201       -1.927792        3.395763
  F            2.870683       -1.779478       -0.001437
  F            3.264406       -3.903874       -0.210587
  F            1.252003       -3.208010        0.201933
  F           -1.252637       -0.157930        2.753475
  F            0.742185        0.687751        2.853335
  F            0.167404       -0.536349        1.157482
  O            2.461554       -4.453102        2.646078
  O            4.319479       -2.832552        2.361455
  O            0.465568       -1.555027        4.780173
  O           -0.243746       -2.974032        2.875525
  N            2.115443       -1.942226        2.952515
  C            2.543714       -2.993089        0.470270
  C            0.044515       -0.395141        2.484567
  S           -8.514749       20.686404       13.990615
  S           -7.100398       20.632100       16.443993
  F          -10.783534       19.662901       14.951731
  F          -10.144206       18.820314       13.056176
  F           -9.142546       18.246629       14.892402
  F           -7.444358       19.891621       18.954019
  F           -8.786754       21.480554       18.339421
  F           -9.145463       19.444279       17.683966
  O           -7.415829       20.090518       13.278204
  O           -9.327381       21.672431       13.329190
  O           -6.207983       21.674623       16.879436
  O           -6.557634       19.331579       16.149868
  N           -8.189671       21.196138       15.445452
  C           -9.709524       19.271256       14.247896
  C           -8.190812       20.351388       17.932939
  S          -12.342514      -11.209292       16.923109
  S          -14.959391      -10.189166       16.557457
  F          -13.036961      -13.785091       16.881915
  F          -11.634534      -13.252667       18.450846
  F          -13.728914      -12.721890       18.640606
  F          -17.440491      -11.049777       16.292242
  F          -16.134145      -11.697996       14.686709
  F          -16.008792      -12.643450       16.634814
  O          -12.078271      -10.300886       18.007179
  O          -11.274116      -11.560156       16.025600
  O          -15.269988       -9.054337       15.727660
  O          -15.162426      -10.086108       17.978940
  N          -13.632942      -10.901768       16.073238
  C          -12.718638      -12.832152       17.772335
  C          -16.195879      -11.474553       16.006425
  S           11.816999       19.920643       11.222521
  S           13.818101       20.276007       13.195261
  F           13.491517       19.741234        9.153103
  F           11.759569       21.003083        8.806817
  F           13.398578       21.721226       10.032412
  F           16.442238       20.481293       13.391769
  F           15.789445       18.558328       12.629840
  F           15.743615       20.305506       11.345324
  O           11.035650       21.014094       11.736420
  O           11.143144       18.770567       10.680905
  O           13.772647       19.674232       14.502423
  O           13.728623       21.708749       13.087084
  N           12.991494       19.425713       12.148620
  C           12.674868       20.640271        9.725015
  C           15.540569       19.874549       12.598018
  S          -12.386817       -6.934870       14.979651
  S          -14.326769       -6.018557       16.828801
  F          -10.640416       -4.963021       15.404607
  F          -10.957432       -5.453896       13.314066
  F          -12.453927       -4.322853       14.402832
  F          -14.730432       -4.018314       18.502997
  F          -13.010082       -5.233398       19.021100
  F          -12.890232       -3.833272       17.368831
  O          -13.376609       -7.139914       13.955687
  O          -11.272379       -7.840442       15.069490
  O          -15.087731       -6.885874       17.689945
  O          -15.015837       -5.280021       15.803029
  N          -12.946889       -6.680923       16.430129
  C          -11.570621       -5.320854       14.505196
  C          -13.691491       -4.706418       17.994766
  S            1.008271       -7.837248       -4.584658
  S            3.494586       -6.493477       -4.771517
  F            2.028696      -10.299067       -4.454765
  F            0.329614      -10.094863       -5.790145
  F            2.277063       -9.351531       -6.389365
  F            6.075943       -7.033911       -4.878168
  F            5.147702       -7.657195       -3.019580
  F            4.826717       -8.807064       -4.830513
  O            0.453116       -7.081807       -5.676146
  O            0.157279       -8.212814       -3.486995
  O            3.787662       -5.251000       -4.105762
  O            3.445288       -6.515474       -6.210107
  N            2.370138       -7.298586       -4.003954
  C            1.446816       -9.485762       -5.350431
  C            4.961394       -7.565810       -4.343335
