         874
  Built with Packmol                                             
  Ti          -2.868335        2.115442       11.265214
  Ti           7.802788        5.383210        1.844391
  Ti           1.352572       -1.673500        9.417113
  Ti           2.511792        7.542652        3.648414
  Ti           1.444672        9.187418        1.751989
  Ti           3.259458       -1.864257       11.359530
  Ti          -1.869782        0.416024        9.366140
  Ti           5.815984        5.614284        3.703281
  H            3.746896        1.652626        8.583439
  H           -7.024875       10.142785        6.478257
  H            4.431630       11.010612        4.650438
  H           -2.503694        6.028051       11.048460
  H            8.748737        1.507342        2.155250
  H           -6.801542        1.221893       10.903644
  H           11.114246        7.503838        2.029089
  H            4.372721       -5.862020       10.962653
  H           -2.589143        8.456181        2.095703
  H            4.656966        3.204147        6.826953
  H           -0.045224        3.670268        8.406030
  H           12.440918       -1.828167        6.378540
  H           -2.327232        0.331938       12.984230
  H            5.927385        5.077403        0.154584
  H            3.761426       -2.506617        5.844726
  H            0.745560        9.314262        7.279431
  H           -6.059913        3.661213        9.037490
  H           10.641247        3.393379        4.132134
  H           -3.728587        2.298708        5.688870
  H           -1.703972       10.903386        4.124923
  H            1.733452       12.300945        2.609537
  H            8.667985       -0.517063        3.355831
  H            4.606680        7.297451        2.297825
  H            0.215487        0.134620       10.719246
  H            7.415332        0.218685        9.728366
  H            5.955496       -0.302534       10.483299
  H            7.828656        4.670987        8.632537
  H            7.237651        5.011538        7.017709
  H            7.098177       -4.749977        9.534320
  H            5.784030       -3.695029       10.000157
  H            1.411485        1.911548        9.356085
  H            0.863759        5.227040        6.648574
  H            5.741023        9.069333        3.845371
  H            7.999135        8.609993        4.744623
  C            8.422325        4.659191        4.703706
  C           -3.853328        2.346718        8.423899
  C            3.961595       -2.592630        8.476524
  C            0.513540        9.443357        4.621320
  C            9.344336        4.085192        5.693105
  C           -4.811926        2.940026        7.452907
  C            4.917315       -3.172748        7.523270
  C           -0.392661       10.057561        5.626884
  C            9.101042        4.149763        7.100999
  C           -4.599256        2.829342        6.063538
  C            6.075072       -3.893771        7.969088
  C           -1.516055       10.792469        5.189090
  C           -0.124811        9.894234        6.980095
  C            4.657405       -3.047644        6.140915
  C           10.498947        3.426687        5.210054
  C           -5.932679        3.593124        7.958691
  C            2.813684        4.307411        6.639567
  C            1.802100        2.580168        8.590925
  C            6.161473        9.726276        4.605129
  C           -1.730084       -2.944720        6.528234
  C            8.715175        1.588330        0.011262
  C            1.839040       13.147429        0.088587
  C            6.684170        0.195343       12.990012
  C           -6.719779        1.271810       13.046845
  C            3.350517        5.224492        5.605606
  C           -1.145018       -2.033515        7.540248
  C            4.215985       -4.201651       13.101266
  C            1.796086       11.711651        0.049701
  C            5.408882       -0.466276       13.043122
  C           -5.332575        1.734605       13.064020
  C            1.482906        4.442604        7.078738
  C            3.125222        2.436827        8.154613
  C            5.424120       10.827594        5.058747
  C           -8.018869       10.319594        6.073436
  C            8.784652        0.919515        1.239780
  C           -2.508142        6.615249       11.963065
  C           -4.360552        7.730507        1.110303
  C           -7.351366        1.022025       11.821932
  C            7.441371        9.469644        5.112723
  C           12.991193       -2.694552        6.017481
  C            3.632637        3.298056        7.181208
  C            0.980621        3.578705        8.052889
  C            7.361766        0.489528       11.753548
  C           -3.089201        8.254946        1.152479
  C            4.438003       -6.388560       11.910676
  C            8.855538       -0.479663        1.318796
  N            8.938305       -1.077634        2.555968
  N            6.782516        0.288157       10.517426
  N            8.001283        4.757340        7.639127
  N            6.418775       -4.042078        9.284423
  O            7.234665        5.022637        5.076604
  O           -3.053924        1.423703        8.020113
  O            4.345224       -2.456407        9.695708
  O            0.426054        9.871897        3.422680
  O            1.318961        8.513079        5.002228
  O            2.776776       -2.264724        8.078087
  O            8.824398        4.755701        3.489805
  O           -3.903766        2.779752        9.624467
  O            6.156697        4.409127        2.505218
  O           -1.367975        1.993658       10.109628
  O            7.017801        6.727170        2.953185
  O           -3.056279        0.208461       10.609657
  O            1.659621       -2.837312       10.674383
  O            2.969458        9.121937        2.909279
  O            2.531624       -0.543378       10.208048
  O            1.322575        7.306972        2.398893
  O            4.575167        5.087631        5.244337
  O           -1.836144       -1.022528        7.923516
  O            4.066391       -3.610049       11.962095
  O            1.743514       11.006429        1.144350
  O            4.771026       -0.795498       11.956418
  O           -0.427504        9.094025        1.094098
  O            0.028867       -2.288059        7.991258
  O            2.574295        6.119616        5.117796
  O            9.199419        6.452785        1.083295
  O           -4.748114        1.988975       11.944029
  O            8.500254        3.672420        1.113292
  O           -2.542975        3.849240       12.015231
  O            4.269171        6.735574        3.019668
  O           -0.147093       -0.436062       10.017030
  O            6.748057        5.600086        0.071530
  O           -2.238358        1.302347       13.044892
  S           -1.342894       -5.819699       -0.596400
  S           -3.461965       -6.148273        1.253999
  F           -1.956826       -7.933270       -2.104576
  F            0.155936       -7.731740       -1.649114
  F           -1.217723       -8.452100       -0.133097
  F           -5.472890       -7.785281        1.747192
  F           -5.647563       -6.766091       -0.159430
  F           -4.248371       -8.407822        0.067935
  O           -0.377731       -5.634982        0.454588
  O           -1.194646       -5.081810       -1.822632
  O           -4.221580       -5.057223        1.806688
  O           -2.629799       -6.929445        2.131340
  N           -2.853908       -5.762139       -0.154157
  C           -1.083996       -7.588540       -1.144578
  C           -4.778889       -7.341706        0.682867
  S           24.636376       19.326338       -3.574276
  S           24.340856       17.325472       -1.591449
  F           22.190940       19.060848       -4.607741
  F           23.780422       19.218983       -6.077558
  F           23.488910       17.366035       -4.988627
  F           22.558219       15.572281       -0.745652
  F           21.904557       17.629048       -0.529093
  F           21.905569       16.692230       -2.485385
  O           25.915766       18.811433       -3.984482
  O           24.411316       20.747195       -3.599080
  O           24.855296       17.440719       -0.251695
  O           24.893082       16.321702       -2.463201
  N           24.070250       18.750856       -2.221362
  C           23.454457       18.697831       -4.879793
  C           22.573445       16.785847       -1.327209
  S           -8.413589       16.986822       -2.940274
  S           -6.786208       19.247628       -3.452901
  F           -6.439301       15.406966       -2.088843
  F           -7.827310       14.457986       -3.461684
  F           -6.346511       15.855827       -4.208301
  F           -4.250584       19.972984       -3.346507
  F           -5.076138       19.462114       -1.406936
  F           -4.573756       17.893660       -2.818416
  O           -9.073256       17.101596       -4.213812
  O           -9.165214       16.536826       -1.798930
  O           -7.180236       20.602232       -3.165395
  O           -6.601252       18.854876       -4.825487
  N           -7.538421       18.224244       -2.510246
  C           -7.178030       15.606108       -3.191970
  C           -5.079967       19.129401       -2.704887
  S           18.947101       -6.439622       12.952104
  S           20.258650       -4.457453       14.492638
  F           16.745917       -6.552930       14.455647
  F           17.537998       -8.486212       13.866706
  F           18.512606       -7.344748       15.432389
  F           19.882521       -3.025074       16.677509
  F           18.424427       -2.615643       15.124837
  F           18.283891       -4.439704       16.290067
  O           20.124960       -7.264721       12.906320
  O           18.074040       -6.399197       11.809199
  O           21.031602       -3.382360       13.927314
  O           20.931656       -5.456532       15.280902
  N           19.163457       -4.968311       13.472190
  C           17.879641       -7.244597       14.259343
  C           19.138995       -3.588052       15.707247
  S           23.119788        2.917855       15.000406
  S           24.821663        5.165017       14.724216
  F           25.035604        1.080188       14.733344
  F           23.224669        0.666890       13.610169
  F           24.616104        2.176049       12.909804
  F           27.364175        5.728350       14.293942
  F           27.027688        4.656964       16.149576
  F           26.935610        3.601885       14.256684
  O           22.164571        3.454955       14.068034
  O           22.649022        2.155316       16.126025
  O           24.691227        6.371009       15.499742
  O           24.583761        5.222756       13.305580
  N           24.225641        3.922422       15.500394
  C           24.060765        1.645847       14.003969
  C           26.636751        4.754562       14.871674
  S           23.105202       20.716635       13.202486
  S           25.865166       20.565741       13.820735
  F           22.235475       20.145272       15.659275
  F           21.194298       19.100444       14.066759
  F           23.184459       18.472476       14.657589
  F           27.447613       20.038087       15.866289
  F           26.209276       21.792178       16.173128
  F           25.339917       19.811014       16.327773
  O           23.266096       19.904964       12.025398
  O           22.142396       21.785737       13.191190
  O           26.856495       21.466717       13.293118
  O           25.916485       19.177896       13.441643
  N           24.437989       21.246757       13.854181
  C           22.400561       19.539275       14.472774
  C           26.224679       20.557625       15.652522
  S           -9.971133       11.845737        9.173411
  S          -10.473908       10.677463       11.704172
  F          -11.405980       14.055457        9.594176
  F          -11.707139       13.139613        7.649349
  F          -12.604020       12.256824        9.415829
  F          -11.821078       11.168598       13.920198
  F          -10.266931       12.628434       13.522740
  F          -12.112733       12.673018       12.384435
  O          -10.272251       10.619377        8.483771
  O           -8.937949       12.704597        8.658635
  O           -9.485110        9.963993       12.469750
  O          -11.608842        9.955320       11.191443
  N           -9.794527       11.726099       10.734357
  C          -11.514133       12.879291        8.956052
  C          -11.204387       11.863735       12.946719
  S            1.265014       -8.140696        4.421720
  S            1.101521       -5.383874        3.792751
  F           -1.059833       -8.269837        5.724447
  F            0.584440       -9.290303        6.707725
  F            0.461208       -7.125613        6.763377
  F           -0.495837       -3.318506        4.179470
  F           -1.414157       -4.904564        3.019482
  F           -1.175747       -5.128448        5.163718
  O            2.621582       -8.013244        4.884013
  O            0.865606       -9.344369        3.742201
  O            1.514303       -4.821965        2.533093
  O            1.827616       -5.026830        4.983449
  N            0.693561       -6.903489        3.631267
  C            0.253507       -8.198253        5.993301
  C           -0.597180       -4.654385        4.051639
  S          -13.106684       -5.777466        9.865413
  S          -15.056904       -4.473444       11.452413
  F          -14.806012       -7.416872        8.623107
  F          -12.979360       -8.364119        9.314400
  F          -14.544744       -7.862095       10.729218
  F          -17.653884       -4.544738       11.918741
  F          -17.166381       -4.006718        9.874887
  F          -16.987619       -6.068234       10.525199
  O          -12.234626       -5.969852       10.993569
  O          -12.533298       -5.513337        8.572522
  O          -15.050841       -3.061162       11.732223
  O          -14.851377       -5.397030       12.537404
  N          -14.310619       -4.787256       10.093620
  C          -13.914230       -7.446882        9.626148
  C          -16.810942       -4.793545       10.899561
  S            1.658516       11.093535       16.423979
  S           -0.828882       10.559486       15.178972
  F            0.636855       12.150898       18.650385
  F            2.307905       13.253269       17.811222
  F            0.349585       13.380785       16.887703
  F           -3.412824       10.864678       15.622767
  F           -2.446872        9.557529       17.059000
  F           -2.165890       11.704475       17.186994
  O            2.191944       11.693954       15.230167
  O            2.531700       10.330960       17.276113
  O           -1.105819        9.370395       14.415927
  O           -0.809800       11.829930       14.502167
  N            0.310044       10.298753       16.245087
  C            1.201207       12.552489       17.500385
  C           -2.288209       10.675277       16.337298
  S            8.069730        9.792299       13.591089
  S            7.050628       12.099584       14.879602
  F            5.699138        8.804526       12.867700
  F            7.071258        7.342406       13.699151
  F            6.055058        8.743818       15.005882
  F            4.736824       13.232496       15.453771
  F            5.104762       13.071551       13.322297
  F            4.532954       11.315124       14.459270
  O            8.941654        9.490933       14.695245
  O            8.511879        9.511277       12.251077
  O            7.661235       13.400829       14.797188
  O            7.020190       11.426305       16.151697
  N            7.408551       11.222127       13.613231
  C            6.636261        8.611699       13.809446
  C            5.256288       12.442798       14.495795
  S           18.202176        3.865645        0.792700
  S           17.220905        5.784213        2.630798
  F           20.787046        4.399550        1.182683
  F           20.215599        4.172976       -0.899127
  F           19.709408        5.988330        0.174385
  F           18.116949        7.645674        4.273636
  F           18.769694        5.647381        4.807687
  F           19.687276        6.676125        3.133041
  O           17.275998        4.283809       -0.225910
  O           18.551207        2.473575        0.894793
  O           16.101396        5.557207        3.507174
  O           17.101449        6.776552        1.594723
  N           17.922746        4.421692        2.240037
  C           19.818238        4.661196        0.290931
  C           18.529412        6.465914        3.774412
  S           -6.443707       -3.535093       15.241313
  S           -3.872321       -2.402915       14.882776
  F           -5.596171       -5.815585       16.336636
  F           -7.139453       -6.056355       14.829276
  F           -5.100001       -5.618711       14.234911
  F           -1.331655       -3.006796       15.266434
  F           -2.475412       -2.911267       17.106858
  F           -2.687375       -4.618846       15.786267
  O           -6.840580       -3.201106       13.899234
  O           -7.420383       -3.478523       16.296304
  O           -3.569521       -1.012629       15.102519
  O           -3.780958       -2.930538       13.546466
  N           -5.114800       -2.858241       15.749184
  C           -6.035276       -5.357675       15.153516
  C           -2.524383       -3.289058       15.822231
  S           10.410613       16.907779       12.694810
  S           12.923935       17.628074       11.605414
  F           10.735356       14.272629       12.431726
  F            8.786942       15.008154       11.819757
  F           10.514021       15.318122       10.544891
  F           15.063185       16.497807       10.550446
  F           14.731088       15.935921       12.618890
  F           13.499542       15.079916       11.051962
  O            9.718792       17.877607       11.887932
  O            9.940746       16.641305       14.028346
  O           13.746152       18.692582       12.118886
  O           12.361123       17.759799       10.286949
  N           11.979664       17.044650       12.732225
  C           10.104342       15.285538       11.816824
  C           14.115588       16.198732       11.458080
  S           19.783311       17.042886       10.685749
  S           19.119572       15.150452        8.685613
  F           17.626650       18.576896       10.347644
  F           19.491286       19.670673       10.544126
  F           19.020586       18.651662        8.688265
  F           17.243334       14.691560        6.886726
  F           16.504188       14.641878        8.925269
  F           16.952407       16.542330        7.980764
  O           21.134251       17.162182       10.205164
  O           19.531435       17.129986       12.099636
  O           19.329320       13.732491        8.820753
  O           19.873362       15.872361        7.694097
  N           18.953796       15.838250       10.100247
  C           18.928247       18.566256       10.019014
  C           17.351700       15.268338        8.097827
  S          -12.413933      -10.294602        3.981083
  S          -12.235178       -7.580979        4.772727
  F          -15.070020      -10.340183        3.732461
  F          -14.229218      -12.058505        4.758249
  F          -14.387676      -10.153120        5.782243
  F          -13.804581       -5.517961        5.270503
  F          -13.912359       -6.197944        3.213692
  F          -14.893661       -7.329743        4.782382
  O          -11.538968      -10.720796        5.040814
  O          -12.358352      -10.969140        2.711433
  O          -11.202577       -6.681430        4.328412
  O          -12.290478       -7.940672        6.165574
  N          -12.468823       -8.741309        3.723546
  C          -14.123766      -10.725315        4.603405
  C          -13.803178       -6.610016        4.483993
  S           21.801666      -12.110577        6.926615
  S           20.934536      -11.899598        4.238497
  F           19.382317      -12.531346        7.969877
  F           20.602989      -11.108737        9.064391
  F           19.663986      -10.524335        7.198671
  F           18.704219      -11.961376        2.828278
  F           19.125246      -13.830407        3.845099
  F           18.375699      -12.131475        4.966045
  O           22.610474      -10.925497        6.818689
  O           22.261648      -13.201829        7.743737
  O           21.651964      -12.449722        3.117992
  O           20.808679      -10.469687        4.347917
  N           21.259434      -12.693748        5.567220
  C           20.270119      -11.533935        7.831146
  C           19.187427      -12.497247        3.964296
  S            1.876989       18.226154        5.261092
  S            3.539172       19.380064        3.279164
  F            3.829725       17.726613        7.009226
  F            2.416639       16.100308        6.744385
  F            3.916012       16.493784        5.227408
  F            6.087431       19.913744        2.845099
  F            5.266248       20.985416        4.542639
  F            5.732432       18.874175        4.715977
  O            1.210896       17.390762        4.297415
  O            1.125438       18.758556        6.366452
  O            3.170190       20.526085        2.489634
  O            3.708259       18.110064        2.622684
  N            2.775945       19.374206        4.664511
  C            3.087156       17.074286        6.100750
  C            5.248102       19.814006        3.892364
  S          -15.109661       11.368745       10.792098
  S          -15.859089        9.663128       12.925553
  F          -17.272066       10.914570        9.296631
  F          -15.396933       10.892771        8.203368
  F          -15.944419        9.207277        9.453782
  F          -17.806604        8.014375       13.600567
  F          -18.464916       10.068633       13.374491
  F          -18.047008        8.864868       11.619210
  O          -13.778289       10.824820       10.749370
  O          -15.305210       12.767413       10.517157
  O          -15.649629        9.976113       14.315171
  O          -15.142240        8.556616       12.347440
  N          -15.966265       10.979896       12.055855
  C          -15.984501       10.540216        9.362230
  C          -17.648312        9.133620       12.870213
  S           10.601490       -8.751818       13.422754
  S            9.811460       -9.926497       10.969514
  F            8.748432       -9.953974       14.919312
  F            9.009113       -7.838687       15.330928
  F            7.943174       -8.475501       13.552612
  F            7.981449      -11.574431       10.019660
  F            9.304881      -12.506368       11.463435
  F            7.746929      -11.155050       12.135323
  O           10.663845       -7.438064       12.839319
  O           11.551168       -9.112761       14.441544
  O           10.734972      -10.380091        9.962415
  O            8.946574       -8.815698       10.668594
  N           10.478556       -9.946832       12.403498
  C            8.977669       -8.760070       14.349828
  C            8.650500      -11.374491       11.170129
  S          -13.349047      -12.781449       11.905080
  S          -15.115715      -10.643723       12.480764
  F          -11.100029      -11.394049       12.273493
  F          -11.105183      -12.653209       10.505356
  F          -12.219543      -10.792499       10.516502
  F          -15.042967       -8.083846       13.119971
  F          -14.129069       -9.364509       14.613007
  F          -13.080796       -8.937742       12.762681
  O          -14.076344      -13.137639       10.715794
  O          -12.749223      -13.821159       12.698376
  O          -16.336435      -10.790592       13.229858
  O          -15.194049      -10.279409       11.090226
  N          -14.071413      -11.766311       12.869309
  C          -11.864708      -11.841626       11.264925
  C          -14.286186       -9.182894       13.294781
  S           26.378579       -8.304544        1.921705
  S           23.766357       -9.392332        1.797566
  F           25.615140       -5.796858        2.419062
  F           27.181126       -5.985363        0.927763
  F           25.131107       -6.476610        0.417603
  F           21.249135       -8.618635        1.975999
  F           22.370631       -8.309854        3.806672
  F           22.664961       -6.980890        2.117905
  O           26.774016       -8.967386        0.707414
  O           27.342135       -8.141361        2.977656
  O           23.404663      -10.676026        2.339946
  O           23.709320       -9.199944        0.372017
  N           25.018276       -8.788298        2.552270
  C           26.046185       -6.543070        1.389677
  C           22.447165       -8.255550        2.470041
  S           25.155843        8.275575        7.598354
  S           24.468801       10.979768        8.085913
  F           26.846389        8.772217        5.594834
  F           25.482577        7.121657        5.237778
  F           24.771141        9.166234        5.104645
  F           24.986581       13.392433        7.149005
  F           26.733758       12.397940        7.963143
  F           25.954225       11.807580        6.027035
  O           23.777584        7.862824        7.614840
  O           26.159590        7.390436        8.126675
  O           24.282160       11.536184        9.400614
  O           23.336583       10.894833        7.200856
  N           25.439337        9.731596        8.129098
  C           25.585711        8.349561        5.780094
  C           25.609740       12.204757        7.259826
  S          -12.734152        5.973402       -3.231554
  S          -10.949200        4.063655       -4.322066
  F          -11.711975        5.938069       -0.767290
  F          -13.880759        5.893813       -0.846275
  F          -12.740612        4.108651       -1.312565
  F           -8.937511        2.526648       -3.575365
  F           -8.511795        4.644929       -3.385320
  F           -9.802549        3.665064       -1.943609
  O          -13.877880        5.318348       -3.808636
  O          -12.722420        7.408907       -3.135173
  O          -10.380535        4.157855       -5.641390
  O          -11.860048        2.986712       -4.033956
  N          -11.331209        5.493454       -3.763961
  C          -12.761223        5.439095       -1.439876
  C           -9.467785        3.717329       -3.240295
  S           21.509134       19.001628        6.076896
  S           23.070794       20.158847        8.137105
  F           22.184479       16.473752        6.598856
  F           22.205385       16.997762        4.492486
  F           23.808633       17.663164        5.792871
  F           24.750272       19.437897       10.041425
  F           22.754480       18.632619       10.311246
  F           24.074676       17.779506        8.816591
  O           21.990964       19.945229        5.103401
  O           20.148046       18.542458        5.995011
  O           22.637198       21.267662        8.946669
  O           24.185065       20.344675        7.244733
  N           21.835012       19.344010        7.579771
  C           22.490824       17.448830        5.728429
  C           23.687318       18.924837        9.394834
  S           21.069248       11.086633       17.817448
  S           21.491916       13.872535       18.104683
  F           18.416738       11.229369       17.567429
  F           19.115887        9.658403       18.892222
  F           19.134836       11.724183       19.552797
  F           20.113389       16.120873       18.211857
  F           19.924690       15.091665       16.311965
  F           18.865627       14.353012       18.054804
  O           21.915199       10.784540       18.941433
  O           21.052243       10.191045       16.691511
  O           22.594004       14.582859       17.509946
  O           21.420560       13.777324       19.539361
  N           21.146916       12.566327       17.282166
  C           19.335240       10.927065       18.498684
  C           20.011304       14.908556       17.636487
  S           -9.012538       10.136160       15.682495
  S          -10.559917        7.768657       15.531008
  F           -6.961726        9.223989       14.239996
  F           -6.393814       10.300865       16.037114
  F           -7.155460        8.275133       16.180183
  F          -10.424486        5.331893       14.525677
  F          -10.394786        6.884651       13.011568
  F           -8.623551        6.497619       14.202216
  O           -9.216735       10.246851       17.102455
  O           -8.941329       11.333923       14.888520
  O          -11.989545        7.753453       15.361292
  O          -10.001787        7.275747       16.763074
  N           -9.930997        9.093885       14.939427
  C           -7.287019        9.433104       15.525579
  C           -9.961727        6.562444       14.237958
  S          -15.125035        3.267187        1.634958
  S          -14.906688        5.564801        3.276815
  F          -14.418118        1.510619        3.514699
  F          -13.481730        1.191760        1.582517
  F          -12.797439        2.798417        2.868816
  F          -14.240438        6.224259        5.744218
  F          -15.986893        4.941983        5.643579
  F          -14.009894        4.107723        5.327041
  O          -14.383170        3.887751        0.569703
  O          -16.203625        2.372141        1.309937
  O          -15.826336        6.671764        3.234979
  O          -13.543401        5.778961        2.866886
  N          -15.600440        4.230210        2.787622
  C          -13.882063        2.136037        2.454622
  C          -14.785448        5.176642        5.098736
  S          -14.354351       19.713070        1.395932
  S          -12.137204       18.987693        3.002322
  F          -15.298333       21.583236        3.048224
  F          -16.808199       20.256068        2.229229
  F          -15.496204       19.563112        3.811204
  F          -11.048578       19.593879        5.329182
  F          -11.070813       21.256355        3.936292
  F          -12.898172       20.659261        4.940757
  O          -14.724540       18.338635        1.185885
  O          -14.547351       20.662060        0.331849
  O          -10.832075       18.680499        2.477783
  O          -12.891265       17.942507        3.643755
  N          -12.930325       19.948166        2.027545
  C          -15.549589       20.310173        2.704062
  C          -11.773693       20.202282        4.372502
  S           16.043027        1.738222       -2.780539
  S           13.945689        1.064452       -1.000199
  F           15.287938        4.269095       -3.158976
  F           15.853590        3.214813       -4.970149
  F           13.938398        2.814767       -4.034111
  F           11.808974        2.152885        0.102801
  F           13.660146        3.120063        0.687771
  F           12.828671        3.473262       -1.284185
  O           15.840424        0.546423       -3.560796
  O           17.379046        2.241893       -2.603142
  O           14.115815        0.232856        0.162718
  O           13.125494        0.585659       -2.082094
  N           15.301201        1.779562       -1.391280
  C           15.224113        3.084416       -3.787251
  C           13.019095        2.543488       -0.337901
  S           27.438793        3.766177       10.061173
  S           24.655097        3.273969       10.237711
  F           27.486102        4.168537        7.424023
  F           29.085958        2.907785        8.174215
  F           27.075805        2.115049        7.987078
  F           22.533839        3.106272        8.675984
  F           23.440308        5.076747        8.678673
  F           24.378351        3.453531        7.587822
  O           27.751330        2.614359       10.864832
  O           28.252698        4.946611       10.180500
  O           23.821537        3.752847       11.309497
  O           24.854889        1.855531       10.094278
  N           25.923981        4.198854       10.047296
  C           27.779826        3.204249        8.310670
  C           23.707572        3.764031        8.705784
  S            9.657730       -9.052299        0.181256
  S           12.076120       -9.288769       -1.274036
  F           10.354567       -6.857687        1.529138
  F            9.398268       -8.390877        2.731903
  F           11.462657       -8.628609        2.110654
  F           14.416187       -8.089771       -1.504991
  F           12.748377       -6.828589       -2.081439
  F           13.144725       -7.209660        0.016751
  O            9.669969      -10.445941        0.538812
  O            8.398650       -8.404750       -0.074676
  O           12.145270       -9.678644       -2.658263
  O           12.638457      -10.162622       -0.277735
  N           10.679870       -8.625439       -0.939046
  C           10.263844       -8.183162        1.721890
  C           13.146195       -7.760723       -1.204937
  S           17.111369       11.746744       10.729887
  S           17.506991       12.942999       13.266588
  F           16.734329        9.268588       11.643820
  F           18.042059        9.405140        9.916679
  F           18.767578        9.985481       11.876524
  F           17.616306       12.272833       15.817231
  F           15.677868       11.901643       14.917709
  F           17.341700       10.576582       14.492756
  O           18.265958       12.403313       10.176648
  O           15.958296       11.534415        9.895955
  O           16.990514       14.235751       13.633896
  O           18.932626       12.765741       13.173836
  N           16.627545       12.280917       12.130825
  C           17.700126       10.005341       11.072245
  C           16.998624       11.856019       14.696553
  S           10.159951       15.415108       -2.404445
  S            7.508816       16.102740       -1.682610
  F            9.701052       12.803930       -2.704196
  F           11.517310       13.282775       -1.616200
  F            9.587033       13.480337       -0.647096
  F            5.168295       14.953898       -1.271551
  F            5.876569       14.746212       -3.311080
  F            6.750532       13.542802       -1.732250
  O           10.714379       16.176263       -1.316563
  O           10.870571       15.357557       -3.654170
  O            6.838603       17.295692       -2.130438
  O            7.808957       15.959295       -0.281969
  N            8.633617       15.664574       -2.704653
  C           10.234618       13.645632       -1.804690
  C            6.263433       14.755777       -2.028257
  S           18.975302       19.228936        0.053235
  S           16.934788       19.249634        2.017484
  F           21.012624       19.049566        1.766663
  F           21.301353       20.488710        0.167500
  F           19.986164       20.958740        1.826872
  F           16.661716       19.195704        4.642245
  F           17.584247       17.403521        3.841322
  F           18.731408       19.238110        3.993026
  O           18.397318       20.348815       -0.641056
  O           19.619327       18.189730       -0.705307
  O           15.679164       18.559106        1.878019
  O           16.934600       20.688563        2.061529
  N           18.062742       18.559803        1.149388
  C           20.392582       19.975364        1.017855
  C           17.520636       18.735844        3.713823
  S          -11.383811        9.213866       -0.477073
  S           -9.595467        8.252945        1.497986
  F           -9.891486       11.298161       -1.216920
  F          -12.001201       11.742118       -0.964280
  F          -10.729584       11.486836        0.774106
  F           -7.271436        8.870685        2.586161
  F           -7.131222        8.416652        0.469877
  F           -7.946687       10.318956        1.118695
  O          -12.511865        9.104083        0.409310
  O          -11.563351        8.940444       -1.878183
  O           -9.324799        6.857235        1.725153
  O          -10.261590        9.007438        2.527296
  N          -10.062300        8.506640        0.008207
  C          -10.970188       11.037325       -0.461516
  C           -7.891817        9.009739        1.400001
  S          -17.497512       -6.897840       17.362598
  S          -18.559593       -5.920632       14.925500
  F          -17.194687       -9.419698       16.545763
  F          -18.059601       -9.209175       18.525517
  F          -19.265609       -8.815678       16.766293
  F          -19.230802       -6.790459       12.525556
  F          -17.114659       -7.002845       12.951343
  F          -18.543314       -8.364947       13.850418
  O          -18.525943       -6.253324       18.135361
  O          -16.168122       -6.992608       17.904672
  O          -18.227259       -4.638151       14.361880
  O          -19.908215       -6.154488       15.371578
  N          -17.395446       -6.452361       15.854889
  C          -18.040781       -8.685361       17.285454
  C          -18.339294       -7.090915       13.487909
  S           -8.181260       16.039537       14.652215
  S           -7.939851       14.803157       12.115389
  F          -10.578124       17.124504       14.208843
  F           -9.146592       18.452957       15.156340
  F           -8.985590       18.016184       13.037974
  F           -9.270641       14.577597        9.847137
  F          -10.317920       13.720372       11.542082
  F          -10.242955       15.873423       11.290172
  O           -6.850626       16.581892       14.578054
  O           -8.694008       15.610657       15.926285
  O           -7.380027       13.492538       11.911075
  O           -7.247187       15.945337       11.578641
  N           -8.534567       14.946540       13.573982
  C           -9.285803       17.487534       14.228400
  C           -9.539772       14.740447       11.155660
  S           24.986841       -3.219557       -0.914008
  S           24.905871       -0.428921       -1.391702
  F           27.621541       -3.360218       -0.517449
  F           26.813959       -4.926628       -1.784725
  F           27.069074       -2.920106       -2.567637
  F           26.539803        1.637827       -1.551914
  F           26.509521        0.721862        0.413934
  F           27.564097       -0.245019       -1.216318
  O           24.170619       -3.498148       -2.065704
  O           24.841673       -4.034908        0.262526
  O           23.864524        0.438773       -0.906341
  O           25.039562       -0.626256       -2.811435
  N           25.054008       -1.708382       -0.473676
  C           26.723395       -3.618098       -1.481346
  C           26.470638        0.462459       -0.900063
  S          -16.402486        0.462934       17.653456
  S          -16.341051       -1.408588       15.528360
  F          -13.828396        1.147704       17.499051
  F          -14.553744        0.809953       19.516875
  F          -14.153066       -0.874688       18.210886
  F          -14.631321       -2.453599       13.810331
  F          -14.893239       -0.314779       13.562721
  F          -13.710108       -1.078152       15.212621
  O          -17.105330       -0.451196       18.514043
  O          -16.694452        1.869361       17.736050
  O          -17.397115       -1.560571       14.561664
  O          -16.069352       -2.492546       16.435924
  N          -16.330420        0.052466       16.134121
  C          -14.631225        0.373053       18.245809
  C          -14.806006       -1.294894       14.472200
  S           24.551347        9.001615       13.678920
  S           23.576044       11.658416       13.566692
  F           24.271598        8.710985       16.316337
  F           26.152430        7.974987       15.520976
  F           25.831536       10.107542       15.752057
  F           22.682075       13.548179       15.178047
  F           21.433555       11.774629       15.164364
  F           23.326409       11.759619       16.223416
  O           25.690638        9.324650       12.861669
  O           23.937454        7.707123       13.546528
  O           22.725378       12.157708       12.517909
  O           24.905174       12.195779       13.697495
  N           23.416790       10.093430       13.731602
  C           25.237905        8.957561       15.417605
  C           22.702291       12.203629       15.123632
  S           20.060935        2.649445       17.192351
  S           21.680586        0.329051       17.070267
  F           18.082953        1.537689       18.596018
  F           17.428848        2.763642       16.928383
  F           18.244445        0.786451       16.568273
  F           21.647240       -2.196160       17.837760
  F           21.618919       -0.797917       19.495644
  F           19.823906       -1.125132       18.322798
  O           20.218014        2.902618       15.784707
  O           19.979321        3.762429       18.100485
  O           23.114596        0.343332       17.197867
  O           21.099397       -0.060716       15.812189
  N           21.031818        1.570467       17.804926
  C           18.362287        1.879733       17.328246
  C           21.157890       -1.014405       18.256300
  S          -12.235292       16.775449       -3.636308
  S          -12.437656       19.451618       -2.731009
  F          -14.858328       16.287766       -3.659483
  F          -13.652659       14.703525       -2.794403
  F          -14.030342       16.518525       -1.668660
  F          -14.275317       21.199995       -2.000922
  F          -14.457953       20.581610       -4.071842
  F          -15.088529       19.247116       -2.482437
  O          -11.207660       16.468459       -2.677161
  O          -12.185808       16.163531       -4.937542
  O          -11.614359       20.528027       -3.217218
  O          -12.303638       19.040817       -1.357787
  N          -12.571056       18.304655       -3.811942
  C          -13.784952       16.039718       -2.892278
  C          -14.165059       20.151312       -2.837157
  S           -4.768106       19.102550       13.538258
  S           -6.510521       19.213273       15.768534
  F           -3.229991       21.152030       14.281580
  F           -3.790189       21.157172       12.184445
  F           -5.235516       21.732486       13.695805
  F           -6.902027       20.642563       17.952727
  F           -4.989673       19.619372       17.931500
  F           -5.285446       21.389681       16.713618
  O           -5.865948       19.009061       12.612927
  O           -3.551209       18.388100       13.257498
  O           -7.025350       18.050471       16.443599
  O           -7.427742       20.068663       15.061802
  N           -5.134610       18.894848       15.056345
  C           -4.232455       20.890621       13.427765
  C           -5.873832       20.273942       17.166522
  S           -6.831861       -2.774834        7.698099
  S           -6.245415       -5.401577        8.580539
  F           -4.488294       -1.712040        8.402977
  F           -6.219050       -0.512625        8.929957
  F           -5.730881       -2.281354       10.086440
  F           -4.303674       -6.746976        9.757992
  F           -3.735586       -5.939210        7.826864
  F           -3.880005       -4.629420        9.549740
  O           -8.117753       -2.783711        8.343572
  O           -6.681516       -2.087100        6.443299
  O           -6.632273       -6.592389        7.869780
  O           -6.828958       -5.142799        9.870875
  N           -6.108853       -4.170891        7.596415
  C           -5.752561       -1.773002        8.850389
  C           -4.435953       -5.685942        8.940745
  S          -15.428614       14.957844        1.649525
  S          -13.663166       13.637915        3.428114
  F          -17.462048       15.153270        3.365814
  F          -18.023839       14.514457        1.368784
  F          -17.054915       13.123187        2.721455
  F          -13.614321       12.699604        5.894697
  F          -13.893120       14.848611        5.802488
  F          -15.539858       13.520394        5.324151
  O          -15.149671       14.025275        0.589931
  O          -15.668642       16.338554        1.323749
  O          -12.252415       13.913311        3.510637
  O          -14.092062       12.345703        2.960467
  N          -14.457394       14.894755        2.888397
  C          -17.081017       14.398776        2.322826
  C          -14.215339       13.690518        5.210555
  S            9.591632       17.276448        7.918786
  S           11.436453       17.125060        5.774930
  F            9.564316       14.662094        8.450858
  F            7.606562       15.599329        8.426104
  F            8.632721       15.178867        6.562137
  F           12.815541       15.324670        4.424538
  F           13.365874       15.428426        6.519970
  F           11.516070       14.460509        5.931691
  O            8.697359       18.114713        7.165247
  O            9.724052       17.487429        9.335845
  O           12.480042       18.089709        5.544186
  O           10.371945       17.010330        4.812580
  N           11.028577       17.082839        7.302540
  C            8.810899       15.580001        7.824697
  C           12.332281       15.490694        5.669560
  S           -5.581894       15.034507        1.629515
  S           -7.798706       16.615061        2.410537
  F           -5.934195       13.130283        3.464864
  F           -3.879106       13.788059        3.228728
  F           -5.302484       15.033218        4.290677
  F           -9.717679       16.641944        4.222626
  F           -9.828192       14.938064        2.885075
  F           -8.335160       14.986565        4.457721
  O           -4.709831       16.178047        1.584159
  O           -5.399595       13.974893        0.673436
  O           -8.671766       17.287167        1.483763
  O           -6.977615       17.406262        3.289324
  N           -7.120854       15.352939        1.740236
  C           -5.158925       14.205253        3.251169
  C           -8.982955       15.734321        3.553609
  S           -4.373901       15.224047       10.610931
  S           -6.721520       16.043570        9.254662
  F           -2.912877       14.808697        8.417399
  F           -2.748608       13.251186        9.920394
  F           -4.522248       13.379054        8.678615
  F           -7.619078       16.369785        6.794007
  F           -5.955166       17.674440        7.277472
  F           -5.603157       15.572139        6.876058
  O           -5.109842       14.326650       11.461403
  O           -3.235651       15.922620       11.146176
  O           -7.575324       17.112978        9.702162
  O           -7.237211       14.699513        9.249116
  N           -5.241667       16.240750        9.777054
  C           -3.604776       14.103720        9.326547
  C           -6.446832       16.440167        7.451327
  S          -14.938218       13.280903       18.804148
  S          -12.395517       14.459221       18.393487
  F          -14.943290       11.835345       16.561598
  F          -16.808646       12.864823       16.976862
  F          -15.101919       13.971508       16.224202
  F          -10.446158       14.479922       16.614044
  F          -10.771910       12.528548       17.503141
  F          -12.151254       13.282778       16.008732
  O          -15.535384       14.547706       19.134050
  O          -15.390406       12.094638       19.481202
  O          -11.433529       14.678527       19.441989
  O          -12.983579       15.599880       17.741154
  N          -13.363771       13.260870       18.751507
  C          -15.468290       12.975730       17.037167
  C          -11.390962       13.629753       17.056472
