        2399
  Built with Packmol                                             
  Ti          -2.855441        2.229755       11.246400
  Ti           7.975036        5.110976        1.881588
  Ti           1.241250       -1.706436        9.426417
  Ti           2.752440        7.455698        3.653386
  Ti           1.753864        9.134007        1.748999
  Ti           3.129451       -1.960779       11.379785
  Ti          -1.906242        0.493870        9.354922
  Ti           5.987220        5.413529        3.729051
  H            3.754491        1.533189        8.602241
  H           -0.186252       -4.222307        6.483198
  H            4.786307       10.856196        4.661866
  H           -2.353563        6.126849       11.026946
  H            8.783818        1.204924        2.202274
  H           -6.815340        1.473136       10.863946
  H           11.357185        7.115275        2.082244
  H            4.105056       -5.995319       10.993862
  H           -2.304659        8.544108        2.071053
  H            4.727684        3.049654        6.848996
  H            0.035867        3.681430        8.401220
  H           -3.665336       -1.693995        6.360589
  H            2.248323        7.497205       -0.124086
  H            6.099510        4.868281        0.181652
  H            3.639358       -2.627888        5.868686
  H            1.029000        9.292718        7.272349
  H           -5.978856        3.882496        8.999012
  H           10.729794        3.026651        4.187587
  H           -3.677750        2.435055        5.665173
  H           -1.346210       10.961867        4.102241
  H            2.146109       12.236841        2.604467
  H            8.625987       -0.813916        3.404762
  H            4.845063        7.135828        2.314757
  H            0.160550        0.141959       10.720043
  H            7.364193       -0.025926        9.769448
  H            5.883069       -0.494990       10.516784
  H            7.938314        4.407710        8.670546
  H            7.368596        4.766292        7.052003
  H            6.875380       -4.980756        9.579418
  H            5.596233       -3.880175       10.036813
  H            1.425195        1.874323        9.361458
  H            1.008323        5.203049        6.646973
  H            6.031760        8.869380        3.866525
  H           -7.731962        8.890218        4.689364
  C            8.553073        4.369740        4.745117
  C           -3.815986        2.491148        8.399367
  C            3.821751       -2.717141        8.501695
  C            0.816322        9.426210        4.612746
  C            9.449095        3.765425        5.740308
  C           -4.747890        3.116163        7.422320
  C            4.761950       -3.331489        7.554506
  C           -0.073496       10.073008        5.612538
  C            9.200332        3.840338        7.146730
  C           -4.531496        2.996185        6.034299
  C            5.891402       -4.091792        8.007572
  C           -1.168225       10.845965        5.167611
  C            0.180998        9.902249        6.967423
  C            4.514243       -3.199354        6.170583
  C           10.582770        3.066439        5.264601
  C           -5.848054        3.808578        7.921002
  C            2.924977        4.216078        6.650019
  C            1.843075        2.527811        8.597691
  C            6.470568        9.512288        4.627853
  C           -1.867744       -2.873623        6.521957
  C            8.764846        1.283992        0.058179
  C            2.295114       13.075580        0.083188
  C           11.249281        7.047107       -0.067827
  C           -2.109052        8.589544       -0.087215
  C            3.499155        5.112520        5.617977
  C           -1.256933       -1.981851        7.536115
  C            8.628990        2.738849        0.034982
  C            2.202361       11.642063        0.045700
  C            9.951446        6.430279       -0.020963
  C           -0.706742        9.003887       -0.062753
  C            1.597294        4.398121        7.081602
  C            3.162817        2.337892        8.169008
  C            5.769511       10.639236        5.075943
  C           -1.171243       -4.011621        6.072589
  C            8.804195        0.614878        1.287859
  C           -2.342636        6.715246       11.940841
  C           11.904581        7.321910        1.166133
  C           -7.376828        1.293757       11.779304
  C            7.737945        9.211994        5.142878
  C           -3.143621       -2.579527        6.003644
  C            3.705306        3.179589        7.197444
  C            1.059848        3.553593        8.053957
  C            7.308935        0.249396       11.793799
  C           -2.806243        8.359124        1.125256
  C            4.146699       -6.522481       11.942914
  C            2.308891       13.826772        1.312468
  N            2.363948       13.227937        2.550629
  N            6.729903        0.066554       10.554829
  N            8.119448        4.486580        7.678019
  N            6.222410       -4.250040        9.324967
  O            7.376747        4.774832        5.110912
  O           -3.046995        1.540283        8.001084
  O            4.203207       -2.592658        9.722805
  O            0.750449        9.855877        3.413146
  O            1.586781        8.468994        4.999201
  O            2.651328       -2.348700        8.096181
  O            8.964947        4.450494        3.533371
  O           -3.858000        2.927396        9.599082
  O            6.292442        4.195622        2.534358
  O           -1.353778        2.054229       10.099438
  O            7.231229        6.482910        2.984337
  O           -3.105958        0.329551       10.592107
  O            1.500552       -2.878399       10.686834
  O            3.268988        9.017012        2.914910
  O            2.454501       -0.616911       10.222657
  O            1.562756        7.259902        2.397478
  O            4.720279        4.932652        5.263729
  O           -1.914597       -0.946915        7.914344
  O            3.871775       -3.732640       11.988892
  O            2.119252       10.940626        1.140895
  O            4.673921       -0.944457       11.983764
  O           -0.116683        9.104896        1.080821
  O           -0.095110       -2.276397        7.993933
  O            2.757324        6.033407        5.124635
  O            9.412111        6.130103        1.127024
  O           -4.742224        2.169711       11.914840
  O            8.616546        3.375778        1.156429
  O           -2.474026        3.952051       11.996107
  O            4.484231        6.587072        3.035431
  O           -0.217709       -0.416738       10.016450
  O            6.938339        5.361952        0.102630
  O            2.370688        8.464002       -0.064115
  N            2.363059        4.586123       11.641469
  N            1.489408        3.087240       12.966990
  C           -6.246380       -8.828250       10.598021
  C           -4.789278       -8.689945       11.068554
  C          -10.529557        4.599805       11.090753
  C            2.301075        3.266184       11.908502
  C            8.073073       -9.357019       12.603399
  C            1.008679        4.315727       13.381668
  C           -4.416080       11.884697       -1.650466
  C            1.154130        1.793039       13.564150
  H          -12.834383        5.187464        9.624599
  H           -6.693390       -7.848114       10.391792
  H           -0.123349       -1.097963       -1.057928
  H           -4.288499       -8.021295       10.347334
  H          -10.977477        3.934281       11.842726
  H          -10.615842        4.069400       10.131165
  H            2.802976        2.476178       11.365087
  H           -3.422620       -0.659364       -0.618464
  H            0.329015        4.406565       14.220647
  H           -4.305476       12.424431       -0.699599
  H           -3.904670       12.492719       -2.411730
  H           -3.878578       10.930862       -1.553581
  H            0.132331        1.512025       13.268699
  H            1.881446        1.040165       13.238308
  H            1.208292        1.901042       14.654502
  S           18.861076        5.112943       -4.960295
  S           20.394365        7.472992       -4.513706
  F           16.489104        6.361301       -5.247972
  F           16.445419        4.557833       -3.988906
  F           17.284138        6.435743       -3.199542
  F           20.070306       10.102602       -4.339916
  F           19.502398        9.265244       -6.314434
  F           18.178539        9.001858       -4.592530
  O           19.468734        4.447188       -3.815482
  O           18.497921        4.345463       -6.144699
  O           21.731682        7.712857       -5.043934
  O           20.201685        7.352001       -3.073272
  N           19.587595        6.449274       -5.455437
  C           17.190179        5.660785       -4.312065
  C           19.482720        9.035692       -4.972394
  S           24.938385       20.401837        8.881020
  S           22.121053       20.822627        8.804684
  F           25.614253       23.007274        9.030374
  F           26.809302       21.814769        7.619896
  F           24.760231       22.425758        7.089712
  F           20.363634       22.812826        8.830156
  F           21.623171       22.715368       10.654019
  F           22.458297       23.494614        8.787935
  O           24.877404       19.483826        7.751148
  O           25.905120       20.183476        9.949413
  O           21.134242       19.995346        9.489451
  O           22.143819       20.858678        7.347016
  N           23.536989       20.759741        9.564227
  C           25.545603       22.000373        8.114082
  C           21.625663       22.551962        9.302189
  S          -22.127555       21.573662        3.004876
  S          -19.319120       21.741578        3.457361
  F          -22.209274       18.896973        2.694934
  F          -23.379970       20.040649        1.224856
  F          -21.185546       19.945466        1.055932
  F          -17.187478       20.165000        3.600789
  F          -18.733700       19.710698        5.125656
  F          -19.032363       19.095207        3.047459
  O          -22.081168       22.656967        2.031545
  O          -23.289293       21.417697        3.870763
  O          -18.680578       22.626234        4.425216
  O          -19.079238       21.939720        2.032647
  N          -20.822250       21.396094        3.912304
  C          -22.212875       20.032896        1.941397
  C          -18.538108       20.088367        3.832109
  S           28.811034       -5.212904        8.560157
  S           27.448391       -5.566626       11.037723
  F           31.211635       -6.081974        9.425744
  F           31.269063       -4.256074        8.200002
  F           30.601692       -4.157840       10.297157
  F           27.924157       -6.386252       13.518030
  F           28.274392       -7.948945       11.982538
  F           29.726461       -6.334662       12.251826
  O           28.270442       -3.868985        8.402947
  O           29.029552       -6.054727        7.390839
  O           26.084719       -6.064679       11.177143
  O           27.758245       -4.196382       11.428917
  N           28.115744       -6.116631        9.682043
  C           30.558216       -4.913643        9.168455
  C           28.397916       -6.619787       12.251303
  S           15.376413       -1.742506       -5.465288
  S           14.033823        0.538945       -4.410451
  F           14.858890       -3.370396       -3.379731
  F           16.922797       -3.454373       -4.136624
  F           16.266023       -1.748640       -2.906902
  F           12.669281        1.275894       -2.255225
  F           11.730070       -0.393714       -3.374466
  F           13.483468       -0.766922       -2.120178
  O           16.552024       -0.950720       -5.803058
  O           14.974793       -2.855156       -6.316423
  O           13.223689        1.466523       -5.191718
  O           15.268502        1.006482       -3.791104
  N           14.058089       -0.912322       -5.102526
  C           15.874113       -2.611407       -3.881137
  C           12.919548        0.131163       -2.969747
  S           18.046884       22.152716        0.288343
  S           20.676203       22.818050       -0.585879
  F           17.936470       19.752263       -0.933559
  F           16.126071       20.985260       -1.138073
  F           17.921400       21.453927       -2.325607
  F           22.644735       21.807680       -2.053565
  F           22.127342       20.569711       -0.286605
  F           20.828297       20.560786       -2.047097
  O           17.536796       23.459903       -0.104271
  O           17.505712       21.478716        1.461619
  O           21.682016       23.490322        0.228668
  O           20.138562       23.487842       -1.764410
  N           19.639537       22.014526        0.344393
  C           17.494510       21.030062       -1.106920
  C           21.611384       21.355622       -1.271636
  S          -13.747981      -12.548862       16.316575
  S          -13.862451      -10.621927       18.412778
  F          -11.066481      -12.515144       16.041207
  F          -12.196724      -12.481232       14.154130
  F          -12.045683      -10.659681       15.383859
  F          -12.240954       -9.095436       19.858682
  F          -11.864667      -11.268780       20.098256
  F          -11.199908      -10.236330       18.287435
  O          -14.802971      -11.870949       15.574616
  O          -13.642886      -14.001797       16.275876
  O          -14.757987      -10.690164       19.561888
  O          -14.016021       -9.543727       17.442977
  N          -13.564739      -12.094415       17.839296
  C          -12.181216      -12.010810       15.440235
  C          -12.202258      -10.300280       19.202604
  S           24.524766       17.199331       12.599240
  S           26.689754       15.367529       12.877773
  F           23.033232       16.188629       14.604537
  F           21.924668       16.651347       12.761542
  F           23.195036       14.854502       12.864534
  F           27.415432       13.292620       14.367138
  F           27.125222       15.161559       15.526988
  F           25.389961       14.031059       14.821461
  O           24.473683       16.989847       11.158205
  O           24.224483       18.511030       13.158700
  O           28.100011       15.715015       12.745395
  O           26.077187       14.462688       11.912042
  N           25.832336       16.647872       13.337436
  C           23.107169       16.156634       13.243779
  C           26.647194       14.423529       14.487300
  S            5.986322       18.609607        0.583331
  S            4.748413       16.835026       -1.271041
  F            3.698882       19.514557        1.686098
  F            5.191568       21.065842        1.233266
  F            3.999771       20.172642       -0.389974
  F            2.326365       16.041414       -2.015304
  F            2.794141       15.597913        0.107643
  F            2.296849       17.640183       -0.499620
  O            6.844301       19.167281       -0.453947
  O            6.482274       18.471533        1.946668
  O            5.245951       15.508429       -1.617004
  O            4.719986       17.881081       -2.286706
  N            5.229033       17.252153        0.205693
  C            4.639582       19.898366        0.777293
  C            2.950226       16.513803       -0.887816
  S           30.184575       -8.796453        9.576205
  S           31.052607      -11.509754        9.645291
  F           27.551665       -9.331195        9.798103
  F           28.070307       -7.817592        8.288245
  F           28.420838       -9.953232        7.876830
  F           30.046035      -13.959801        9.830077
  F           29.604439      -12.682027       11.589252
  F           28.507269      -12.386841        9.719489
  O           31.017170       -8.512405        8.414665
  O           29.969216       -7.771818       10.589843
  O           32.241632      -11.988736       10.340913
  O           30.987593      -11.590552        8.190692
  N           30.494301      -10.169424       10.336337
  C           28.470670       -9.002325        8.846565
  C           29.728883      -12.686844       10.233286
  S           29.294691        7.821175        9.648379
  S           27.185622        9.643127        9.054605
  F           31.246537        9.675615        9.785345
  F           31.770023        7.853584        8.669183
  F           30.458904        9.369966        7.755592
  F           26.794334       12.241067        8.670332
  F           27.567130       11.747479       10.690620
  F           28.911809       11.708510        8.965149
  O           28.886333        6.927444        8.572479
  O           29.850865        7.276393       10.880290
  O           25.833303        9.559798        9.594407
  O           27.402479        9.462097        7.623935
  N           28.237590        8.950918       10.054577
  C           30.757633        8.740446        8.922452
  C           27.646409       11.424006        9.370305
  S          -18.098975      -10.223366        9.136679
  S          -20.920809       -9.881925        9.338969
  F          -17.758388      -11.266661       11.598983
  F          -16.282329       -9.740911       11.021930
  F          -18.318820       -9.140754       11.609815
  F          -22.894604      -10.272737       11.071443
  F          -21.840405      -12.136125       10.489326
  F          -20.904052      -10.741588       11.891268
  O          -17.925846       -8.868120        8.630312
  O          -17.236359      -11.297466        8.661364
  O          -21.871389      -10.129407        8.260894
  O          -20.742538       -8.525863        9.844863
  N          -19.599495      -10.777579        9.144894
  C          -17.605710      -10.083599       10.939283
  C          -21.670036      -10.814917       10.771348
  S           19.205661       10.096367        6.009253
  S           21.960036       10.112316        5.278901
  F           19.581468        9.214690        8.528940
  F           17.932900        8.247067        7.440096
  F           20.020725        7.706843        6.990390
  F           24.339221        9.552081        6.316054
  F           23.260207       11.167677        7.387495
  F           22.662627        9.081440        7.665781
  O           18.838793        9.394936        4.785947
  O           18.301113       11.082638        6.586126
  O           22.601486       11.136137        4.461938
  O           21.856664        8.748146        4.773958
  N           20.679706       10.716812        6.041183
  C           19.201990        8.744378        7.307074
  C           23.106758        9.976823        6.745255
  S           14.578733      -12.140598        8.828786
  S           13.426492      -10.771444       11.046445
  F           14.140429      -14.629180        9.768071
  F           16.136629      -14.297984        8.904851
  F           15.653378      -13.509548       10.904334
  F           12.260866      -11.295598       13.373814
  F           11.164105      -12.111509       11.626297
  F           12.985742      -13.096603       12.332100
  O           15.762184      -11.291215        8.861455
  O           14.063493      -12.628360        7.555862
  O           12.605490       -9.569795       10.951101
  O           14.724131      -10.706493       11.708660
  N           13.331303      -11.630723        9.690601
  C           15.150492      -13.720268        9.659425
  C           12.403582      -11.883643       12.141978
  S          -18.553760        3.326447       13.668742
  S          -20.881945        1.827857       12.994923
  F          -19.843989        5.270281       15.019382
  F          -18.282444        5.974588       13.639098
  F          -20.225746        5.295720       12.854365
  F          -23.515357        1.909486       13.324384
  F          -22.384384        1.784220       15.229015
  F          -22.476349        3.675854       14.133481
  O          -18.063093        3.266018       12.298097
  O          -17.615276        3.300463       14.783324
  O          -20.967007        0.371884       12.995154
  O          -21.014440        2.556877       11.738901
  N          -19.752545        2.328757       14.024140
  C          -19.279578        5.049412       13.798395
  C          -22.385418        2.328711       13.980944
  S          -14.694514       -1.705260       12.558840
  S          -16.644605       -3.356446       11.297500
  F          -16.443949       -0.237158       13.991168
  F          -14.851579        0.914914       13.002867
  F          -16.542752        0.134431       11.826486
  F          -19.277010       -3.695628       11.223559
  F          -18.395480       -4.014596       13.234423
  F          -18.648933       -1.983927       12.460423
  O          -14.028126       -1.444963       11.289491
  O          -13.915566       -1.808249       13.786176
  O          -16.493448       -4.785370       11.047652
  O          -16.729858       -2.433478       10.171678
  N          -15.752681       -2.904868       12.556976
  C          -15.698845       -0.150579       12.852978
  C          -18.323411       -3.254851       12.106705
  S           18.403650       -3.719510       16.374650
  S           17.421060       -4.396343       13.786858
  F           20.556318       -5.340474       16.297803
  F           19.430973       -5.376113       18.187772
  F           18.643000       -6.417285       16.413468
  F           18.025637       -5.964510       11.731279
  F           19.584525       -4.452351       12.184772
  F           19.373719       -6.221303       13.454929
  O           17.085301       -3.893452       16.970279
  O           19.306621       -2.695012       16.883342
  O           16.835025       -3.451766       12.842701
  O           16.593768       -5.455011       14.353800
  N           18.442204       -3.646481       14.777164
  C           19.300477       -5.301837       16.826502
  C           18.675424       -5.299857       12.741030
  S           20.758758       -7.795141        3.444711
  S           18.002953       -7.844746        4.168126
  F           20.631576       -9.835909        1.687867
  F           22.355694       -9.888868        3.053248
  F           20.353788      -10.452289        3.779899
  F           15.782650       -9.192473        3.616809
  F           16.655460       -8.159106        1.858183
  F           17.569287       -9.998985        2.610975
  O           21.171100       -7.748343        4.841442
  O           21.530979       -7.089424        2.430137
  O           17.180153       -6.663944        4.404352
  O           18.285932       -8.757538        5.269646
  N           19.211589       -7.500630        3.164872
  C           21.021974       -9.589001        2.970356
  C           16.955925       -8.848395        2.993416
  S            0.829090       -7.695316       12.515519
  S            1.705002      -10.371887       12.950257
  F           -0.620485       -8.222724       10.304642
  F            0.640905       -6.424400       10.183889
  F            1.548650       -8.423930       10.007903
  F            1.468999      -12.786395       11.871127
  F           -0.460965      -11.916921       12.535704
  F            0.485608      -11.202469       10.697094
  O            2.180917       -7.177886       12.682563
  O           -0.314385       -6.913589       12.968386
  O            1.822074      -11.010581       14.256189
  O            2.904097      -10.131794       12.155814
  N            0.598123       -9.206065       12.987824
  C            0.592063       -7.708859       10.656524
  C            0.739751      -11.627329       11.962493
  S           23.250843        1.529853        9.624907
  S           20.934935        0.510274       10.935357
  F           23.882283       -0.753781        8.338942
  F           25.578872        0.286430        9.276598
  F           24.163830       -0.859220       10.516854
  F           19.544357       -1.742285       11.141112
  F           19.630953       -0.936230        9.075880
  F           21.372497       -1.949247        9.928964
  O           23.751974        2.109962       10.864026
  O           23.486208        2.203575        8.354308
  O           19.692166        1.248486       11.129427
  O           21.732812        0.125938       12.093930
  N           21.722588        1.057815        9.644801
  C           24.258347       -0.039197        9.437167
  C           20.344577       -1.110440       10.222416
  S           18.446839        7.013514       15.665979
  S           18.615875        9.715360       14.776202
  F           21.094196        6.667562       16.039103
  F           20.071963        5.005128       15.023719
  F           20.517630        6.862691       13.926479
  F           20.437669       11.590613       14.312994
  F           20.379690       10.909236       16.423628
  F           21.305815        9.650322       14.892498
  O           17.573670        6.655117       14.555933
  O           18.272930        6.380636       16.967110
  O           17.676279       10.772335       15.132655
  O           18.712949        9.275576       13.389198
  N           18.649527        8.580576       15.915002
  C           20.123215        6.369566       15.129957
  C           20.272162       10.499891       15.129399
  S           19.133385        1.738575       -3.316065
  S           21.702720        2.338928       -4.392327
  F           19.511157       -0.924737       -3.138690
  F           17.562254       -0.313164       -3.955641
  F           19.372109       -0.187665       -5.205348
  F           23.936403        1.104554       -5.125164
  F           23.444312        0.851273       -2.976652
  F           22.340123       -0.275886       -4.492307
  O           18.470241        2.554213       -4.325048
  O           18.589661        1.659718       -1.966299
  O           22.509502        3.498788       -4.030494
  O           21.186691        2.215963       -5.750711
  N           20.715261        1.938676       -3.187979
  C           18.898091       -0.011495       -3.943855
  C           22.912954        0.927592       -4.228046
  S           22.862900       12.680742       16.373651
  S           24.929832       10.877213       17.145225
  F           22.029658       13.249528       18.873571
  F           20.422371       12.870967       17.419965
  F           21.586726       11.190915       18.241425
  F           25.997278        9.830810       19.339687
  F           26.159640       12.041210       19.238805
  F           24.246067       11.106407       19.740117
  O           22.357132       11.745846       15.377037
  O           22.805877       14.115674       16.125782
  O           26.241798       10.791223       16.513999
  O           24.010409        9.749117       17.052083
  N           24.311501       12.350800       16.966502
  C           21.674870       12.476200       17.808564
  C           25.351774       10.981034       18.960358
  S          -12.333237       -3.349661       -1.626271
  S          -14.833256       -4.586006       -1.041801
  F          -10.849554       -5.591293       -1.423350
  F           -9.993936       -3.816664       -0.444441
  F          -11.668253       -4.896803        0.495269
  F          -15.827489       -6.975323       -0.447889
  F          -14.842056       -6.890872       -2.433890
  F          -13.630544       -6.957368       -0.613245
  O          -12.591945       -2.274357       -0.677659
  O          -11.594353       -3.080539       -2.853195
  O          -16.096045       -4.267810       -1.698468
  O          -14.667790       -4.299566        0.378476
  N          -13.592991       -4.257272       -2.011032
  C          -11.164251       -4.481742       -0.696705
  C          -14.771249       -6.448366       -1.148072
  S           16.208346       14.521163       -4.595924
  S           17.455592       12.275488       -5.829443
  F           13.778307       14.142813       -5.700082
  F           14.493931       16.223035       -5.714652
  F           15.317696       14.761728       -7.142619
  F           16.876703       10.295154       -7.500740
  F           15.676016       10.264066       -5.635319
  F           15.213385       11.710523       -7.210332
  O           17.312199       15.396138       -4.968756
  O           15.503729       14.728509       -3.337257
  O           18.416899       11.392381       -5.178976
  O           17.882034       13.101689       -6.952899
  N           16.483126       12.952121       -4.742148
  C           14.886587       14.919465       -5.863416
  C           16.233650       11.077358       -6.574336
  S           31.631544        9.633266        5.206818
  S           29.397844       11.328691        5.713146
  F           33.266939       11.575334        4.300581
  F           33.275459        9.722393        3.114752
  F           31.589702       11.131039        2.950336
  F           28.702421       13.883790        5.518412
  F           30.412928       13.529541        6.886286
  F           30.711624       13.459690        4.719992
  O           30.796912        8.668114        4.503294
  O           32.763381        9.177696        6.003763
  O           28.506346       11.214778        6.861775
  O           28.879807       11.083390        4.372221
  N           30.850793       10.735552        6.063657
  C           32.472131       10.576374        3.822553
  C           29.840485       13.141862        5.713185
  S           -8.515050       -9.965633       -2.709591
  S           -6.052491       -8.630765       -2.185964
  F           -8.151641      -11.950833       -0.922324
  F           -8.914335      -12.591923       -2.883690
  F           -6.791262      -12.054016       -2.646391
  F           -3.902402       -8.866279       -0.645927
  F           -5.790374       -8.623835        0.493895
  F           -5.315125      -10.544406       -0.440170
  O           -8.291650       -9.909449       -4.148343
  O           -9.865867       -9.853920       -2.174303
  O           -5.881619       -7.183256       -2.134830
  O           -5.388634       -9.397820       -3.233597
  N           -7.565267       -9.035139       -1.820280
  C           -8.053353      -11.726268       -2.263243
  C           -5.233486       -9.198468       -0.607843
  S          -10.885378        8.764923        4.193039
  S          -13.718676        8.471979        4.110223
  F          -10.821552       11.243352        3.134398
  F           -9.326125        9.846889        2.326165
  F          -11.434130        9.687996        1.706357
  F          -15.878743        9.821886        3.360603
  F          -14.713213       10.825730        4.959431
  F          -13.991917       10.859437        2.894116
  O          -10.686872        7.452925        3.591100
  O           -9.943494        9.263664        5.186936
  O          -14.523497        7.838761        5.148681
  O          -13.638908        7.861524        2.788257
  N          -12.360730        9.068241        4.731663
  C          -10.620108        9.947241        2.763360
  C          -14.612996       10.084550        3.821554
  S           -4.611143       12.481471        8.226506
  S           -7.060798       13.923619        8.425631
  F           -5.722796       10.025535        8.223753
  F           -3.953418       10.245197        9.512436
  F           -5.893679       11.070680       10.150448
  F           -9.672974       13.476550        8.589118
  F           -8.754635       12.708821        6.721056
  F           -8.466323       11.633185        8.604355
  O           -4.009283       13.267233        9.295813
  O           -3.794356       12.013645        7.113979
  O           -7.357789       15.166402        7.722507
  O           -6.967715       13.923989        9.880948
  N           -5.970899       13.062057        7.615962
  C           -5.085723       10.879025        9.074543
  C           -8.559844       12.874028        8.058560
  S           10.992302      -14.437681        8.161689
  S           11.023567      -11.590178        8.056830
  F            8.312916      -14.690186        8.318336
  F            9.451119      -15.972730        9.696460
  F            9.225607      -13.822773       10.120633
  F            9.338517       -9.538391        8.085845
  F            9.042407      -10.907972        6.365678
  F            8.349183      -11.488087        8.358123
  O           12.025163      -14.456216        9.189274
  O           10.941770      -15.491546        7.156435
  O           11.914905      -10.795036        7.219954
  O           11.141909      -11.516143        9.508425
  N           10.784120      -13.042017        7.408323
  C            9.411213      -14.728854        9.124810
  C            9.348343      -10.852885        7.691394
  S            6.760650       -8.166910       -0.782435
  S            5.121039       -6.433870        0.775930
  F            4.791862       -9.048313       -2.399349
  F            6.149313      -10.608600       -1.649359
  F            4.612324       -9.751645       -0.324072
  F            2.588632       -5.657664        0.961630
  F            3.528253       -5.167553       -0.987552
  F            2.916000       -7.222830       -0.554061
  O            7.360966       -8.746872        0.411859
  O            7.555197       -7.998794       -1.992457
  O            5.518855       -5.114992        1.254886
  O            4.866158       -7.501951        1.735541
  N            5.929651       -6.818342       -0.559758
  C            5.501211       -9.451605       -1.307409
  C            3.456898       -6.104989       -0.002526
  S           22.905474       18.818048        4.096739
  S           20.814897       18.296192        2.231958
  F           21.780822       21.014484        5.182203
  F           23.929082       21.189413        4.741713
  F           22.454381       21.299453        3.108850
  F           18.477638       19.298448        1.468566
  F           18.522353       18.666534        3.594853
  F           19.503169       20.524685        2.984767
  O           23.924233       18.664320        3.066412
  O           23.177914       18.393052        5.463807
  O           20.313262       16.970305        1.889203
  O           21.491371       19.094995        1.216620
  N           21.442192       18.298428        3.712576
  C           22.745908       20.676232        4.280901
  C           19.251079       19.245791        2.601086
  S           25.405529       15.175521        4.669851
  S           22.763081       15.250663        3.605863
  F           25.929820       12.628843        3.957844
  F           26.546746       13.170830        5.998752
  F           24.421132       12.809382        5.546853
  F           21.040638       13.680448        2.333981
  F           22.916457       14.040664        1.205285
  F           22.907453       12.655822        2.899116
  O           24.962264       15.753022        5.932025
  O           26.724192       15.499146        4.140591
  O           22.173684       16.390993        2.913509
  O           22.211843       14.821825        4.886038
  N           24.364300       15.265427        3.458845
  C           25.568312       13.349139        5.057224
  C           22.399841       13.832697        2.447867
  S            2.120941      -10.008964       -0.715771
  S            2.330422       -7.988736       -2.714533
  F            0.259464      -11.483658       -1.991538
  F           -0.103828      -11.181851        0.157086
  F           -0.490226       -9.547435       -1.268564
  F            1.297610       -7.354603       -5.076998
  F            2.364106       -9.300078       -5.066052
  F            0.375595       -9.137319       -4.168129
  O            2.005159       -9.013747        0.342158
  O            2.813672      -11.266228       -0.464512
  O            3.574883       -7.353408       -3.132589
  O            1.303842       -7.194147       -2.050172
  N            2.613918       -9.461987       -2.135830
  C            0.353677      -10.573308       -0.981321
  C            1.553997       -8.482553       -4.338365
  S          -20.443490       14.153709       12.558312
  S          -23.040309       15.213008       12.053663
  F          -19.235651       16.530765       12.955973
  F          -18.118057       15.118293       11.692819
  F          -19.858245       16.193171       10.874606
  F          -24.285018       17.553664       11.905033
  F          -23.405778       17.139158       13.899408
  F          -22.114523       17.735483       12.236884
  O          -20.517226       13.292922       11.384990
  O          -19.744900       13.701278       13.754555
  O          -24.288558       14.624104       12.525002
  O          -22.764367       15.266581       10.622720
  N          -21.823582       14.813465       13.026122
  C          -19.372730       15.581777       11.987065
  C          -23.211892       17.001603       12.558647
  S           24.238131        0.059721        0.952226
  S           26.632567       -0.750854       -0.363030
  F           24.557965       -1.506784        3.122750
  F           22.527422       -1.491796        2.276390
  F           24.130951       -2.626917        1.279751
  F           28.691911       -2.388146       -0.004644
  F           28.522220       -0.818367        1.554012
  F           27.168553       -2.537040        1.580109
  O           23.455210       -0.123009       -0.262977
  O           23.902160        1.127788        1.885004
  O           27.519264        0.137579       -1.105694
  O           25.914025       -1.805726       -1.068407
  N           25.826524        0.066284        0.763164
  C           23.858217       -1.478400        1.953264
  C           27.810676       -1.664904        0.759508
  S           28.755750       14.746882        2.314661
  S           28.653988       17.501115        3.038607
  F           31.391325       14.424347        2.780624
  F           30.658978       13.522850        0.912303
  F           30.950406       15.702315        1.046821
  F           30.258976       19.438056        3.888512
  F           30.132132       17.714002        5.279180
  F           31.315694       17.556140        3.445824
  O           28.016699       14.996498        1.083982
  O           28.567113       13.497301        3.040390
  O           27.567560       18.129825        3.781232
  O           28.905369       17.896045        1.657502
  N           28.744597       15.933882        3.386895
  C           30.533384       14.608621        1.737488
  C           30.170510       18.070644        3.965602
  S            7.919769      -13.260597        1.165067
  S            9.393807      -11.490486       -0.512482
  F            6.741762      -14.635389       -0.832344
  F            5.408869      -14.077906        0.826650
  F            6.031101      -12.563130       -0.646909
  F            9.779310      -10.985653       -3.090581
  F           10.394816      -13.028732       -2.482806
  F            8.273086      -12.550377       -2.720229
  O            7.443973      -12.156577        1.988372
  O            8.199228      -14.556581        1.770087
  O           10.760349      -11.046698       -0.262059
  O            8.304906      -10.520920       -0.483358
  N            9.128455      -12.920127        0.174139
  C            6.456507      -13.643996        0.058678
  C            9.462944      -12.054730       -2.290225
  S          -10.663069       -7.153339       -4.268526
  S          -12.614140       -9.093762       -5.009018
  F          -12.419213       -5.218985       -3.603966
  F          -10.704139       -4.546392       -4.806377
  F          -12.354779       -5.651764       -5.758551
  F          -15.250682       -9.363451       -5.170200
  F          -14.522260       -8.958938       -3.113946
  F          -14.611794       -7.338722       -4.581534
  O           -9.901294       -7.387727       -5.488294
  O           -9.973399       -6.827672       -3.026746
  O          -12.525976      -10.520072       -4.717535
  O          -12.574095       -8.637759       -6.393601
  N          -11.783416       -8.242728       -3.926718
  C          -11.597227       -5.570104       -4.633143
  C          -14.334357       -8.660128       -4.429073
  S           -3.718070      -11.626776        3.544288
  S           -2.838120      -13.932723        4.968558
  F           -6.305865      -12.363178        3.375654
  F           -5.446551      -11.549786        1.521031
  F           -4.954229      -13.599749        2.160065
  F           -3.803873      -16.199314        5.958483
  F           -4.715077      -14.381649        6.846295
  F           -5.295473      -15.027207        4.837981
  O           -2.618957      -11.738522        2.594269
  O           -4.211727      -10.314118        3.940462
  O           -1.860180      -13.923290        6.050519
  O           -2.521493      -14.611688        3.717412
  N           -3.586096      -12.512696        4.869621
  C           -5.178830      -12.336891        2.609330
  C           -4.242815      -14.926710        5.691292
  S          -16.354678       19.261662       -4.825477
  S          -15.463672       16.693555       -3.970382
  F          -18.541958       18.385630       -6.135354
  F          -17.361971       19.903470       -7.204675
  F          -16.648882       17.821694       -7.100718
  F          -16.161542       14.138067       -4.150730
  F          -17.674455       15.403427       -3.134675
  F          -17.462897       15.485275       -5.310789
  O          -15.023130       19.615752       -5.299474
  O          -17.220619       20.281616       -4.247931
  O          -14.886395       16.402468       -2.663051
  O          -14.642129       16.555783       -5.167336
  N          -16.439125       17.969187       -3.886777
  C          -17.270438       18.802801       -6.394889
  C          -16.767078       15.369695       -4.149408
  S          -20.716497       -1.280366       15.608579
  S          -19.302080        0.957425       16.663077
  F          -23.182021       -0.372616       16.212392
  F          -22.831219       -2.494055       16.677246
  F          -21.987952       -0.925289       17.973766
  F          -19.775956        3.270755       17.877167
  F          -20.676953        3.126947       15.854809
  F          -21.592712        2.071276       17.538221
  O          -19.837714       -2.217231       16.296400
  O          -21.259370       -1.614287       14.298043
  O          -18.124833        1.564464       16.052595
  O          -19.183031        0.299358       17.958989
  N          -20.208634        0.235298       15.548435
  C          -22.252776       -1.252690       16.681569
  C          -20.401496        2.429502       16.991404
  S           13.366720       21.665083       18.372873
  S           10.904997       20.244774       18.165774
  F           13.080924       23.070090       16.089963
  F           15.079521       22.207621       16.408413
  F           13.410183       20.920141       15.769038
  F            8.814695       20.030140       16.542618
  F            9.083962       22.066488       17.381182
  F           10.388981       21.364716       15.771408
  O           14.100251       20.441047       18.667395
  O           13.765647       22.923338       18.990426
  O           10.017563       19.944378       19.283503
  O           11.567997       19.154772       17.459416
  N           11.773391       21.563198       18.471362
  C           13.738921       21.973656       16.562217
  C            9.742624       20.975520       16.901488
  S           15.430858       -6.163441       -1.801362
  S           12.647108       -6.321112       -2.389684
  F           15.454063       -8.155264        0.015093
  F           16.581371       -6.356246        0.591604
  F           14.380496       -6.358401        0.687717
  F           10.496892       -7.707798       -1.679937
  F           12.097722       -8.949979       -2.583671
  F           12.298540       -8.233923       -0.526035
  O           15.362119       -4.716304       -1.645977
  O           16.625047       -6.782944       -2.361585
  O           12.064797       -6.174324       -3.718768
  O           12.351129       -5.331430       -1.360345
  N           14.161901       -6.851072       -2.491065
  C           15.445365       -6.793119       -0.036278
  C           11.854533       -7.890582       -1.763494
  S          -16.308193       -1.501881        2.904522
  S          -13.607732       -2.365791        2.619174
  F          -17.360532       -3.958916        3.255193
  F          -18.480524       -2.653426        1.883709
  F          -16.606307       -3.602747        1.220992
  F          -12.182404       -4.605977        2.610828
  F          -13.241742       -4.233167        4.524261
  F          -14.352147       -4.949087        2.780302
  O          -16.209167       -0.653900        1.723762
  O          -17.129168       -1.088198        4.035268
  O          -12.447548       -1.676654        3.172490
  O          -13.767538       -2.459674        1.172709
  N          -14.922554       -2.047563        3.488489
  C          -17.220964       -3.015386        2.281322
  C          -13.341340       -4.128995        3.170236
  S           13.356117       -6.065554        7.872519
  S           11.712894       -3.806550        7.309515
  F           11.820376       -7.866830        6.582438
  F           12.550153       -8.509016        8.555932
  F           10.895144       -7.062638        8.407515
  F            9.450589       -3.202541        6.057631
  F           11.004868       -4.055063        4.723527
  F            9.890147       -5.361374        6.079211
  O           13.445102       -5.706357        9.281822
  O           14.490705       -6.689371        7.203727
  O           12.208166       -2.476945        6.971949
  O           10.974790       -4.006405        8.551237
  N           12.786424       -4.931207        6.899130
  C           12.077143       -7.435200        7.849686
  C           10.456884       -4.131451        5.967726
  S           14.143768       12.446818        8.232355
  S           13.643990        9.746309        8.992435
  F           16.783305       12.134880        7.781859
  F           16.238346       13.945088        8.906944
  F           16.224456       11.979981        9.902561
  F           14.942154        7.451364        9.305589
  F           15.010337        8.235692        7.231320
  F           16.259498        9.138645        8.784125
  O           13.415226       12.954307        9.387671
  O           14.106012       13.170768        6.968159
  O           12.459675        8.979982        8.621981
  O           13.880770       10.073791       10.393615
  N           13.937668       10.894536        7.905669
  C           15.940296       12.619192        8.737332
  C           15.039410        8.590114        8.545737
  S          -20.978760      -11.031515        4.921518
  S          -21.346480      -12.055501        2.287797
  F          -19.257715      -12.940563        5.734504
  F          -20.832088      -12.428212        7.183124
  F          -21.308349      -13.671854        5.428238
  F          -20.541964      -14.075309        0.763593
  F          -18.890028      -12.755481        1.435583
  F          -19.786559      -14.182863        2.830481
  O          -22.415507      -10.882424        5.112840
  O          -20.057912      -10.074028        5.520664
  O          -21.454424      -11.241177        1.082675
  O          -22.491595      -12.842714        2.730089
  N          -20.499008      -11.285564        3.416833
  C          -20.574708      -12.608428        5.850127
  C          -20.066704      -13.328052        1.812077
  S          -12.223238       13.591882        4.605688
  S          -14.279339       15.168516        5.791827
  F          -12.213505       14.870470        2.232393
  F          -12.139525       12.675333        2.107674
  F          -14.033327       13.690709        2.593079
  F          -15.878006       17.202825        5.195240
  F          -13.720504       17.713496        5.112728
  F          -14.630399       16.543917        3.503037
  O          -12.863312       12.354543        5.032734
  O          -10.769671       13.685092        4.559041
  O          -14.292282       15.617039        7.179543
  O          -15.295787       14.231165        5.328341
  N          -12.770846       14.931011        5.288066
  C          -12.689809       13.724046        2.795419
  C          -14.633930       16.739027        4.847749
  S           19.646434       19.664682       -4.169567
  S           20.203032       17.230851       -2.795917
  F           16.969896       19.561125       -3.864897
  F           17.656744       20.128172       -5.876451
  F           17.764541       18.026720       -5.224245
  F           18.926583       15.268333       -1.543213
  F           18.630804       17.259381       -0.610126
  F           17.575005       16.748912       -2.457189
  O           20.506426       19.285610       -5.283027
  O           19.547354       21.061018       -3.764413
  O           21.330075       17.019440       -1.894709
  O           20.130182       16.483150       -4.045817
  N           19.798967       18.786619       -2.841216
  C           17.920677       19.311441       -4.809262
  C           18.754711       16.605862       -1.798281
  S           -4.972797        2.944111       18.569367
  S           -2.879785        2.148937       16.806628
  F           -6.355637        4.371795       16.748137
  F           -6.131636        5.336546       18.712502
  F           -4.434064        5.280660       17.309569
  F           -2.130509        2.450820       14.277296
  F           -4.097209        1.450356       14.508746
  F           -3.927796        3.611781       14.802808
  O           -4.018097        3.351096       19.592101
  O           -6.253542        2.364621       18.953561
  O           -2.255079        0.831118       16.792797
  O           -2.090450        3.316294       17.181915
  N           -4.380553        2.057652       17.376800
  C           -5.488307        4.564721       17.781902
  C           -3.292095        2.428504       15.007915
  S           26.731229       10.205687       -1.463415
  S           25.446897        7.690786       -1.081291
  F           29.193861        9.205438       -1.913253
  F           29.126150       10.940698       -0.562719
  F           28.503196        8.954672        0.158892
  F           26.022639        5.098841       -1.061126
  F           26.419530        6.082756       -3.009664
  F           27.789914        6.386457       -1.331348
  O           26.116735       10.753187       -0.261036
  O           26.966917       11.061692       -2.619022
  O           24.115104        7.350566       -1.568807
  O           25.692718        7.758639        0.354530
  N           26.110907        8.832011       -1.999132
  C           28.473712        9.788846       -0.913666
  C           26.478675        6.246845       -1.659208
  S            2.417890       22.513431        7.813439
  S            1.098297       21.492704       10.123643
  F            3.209835       20.121666        6.854433
  F            4.740848       21.700440        6.798524
  F            4.238277       20.716427        8.704366
  F            0.587339       19.173995       11.312161
  F           -0.279102       19.339709        9.276424
  F            1.864493       18.980561        9.527310
  O            3.119862       23.517311        8.602446
  O            1.995281       22.817251        6.452257
  O           -0.160782       21.998762       10.658170
  O            2.320062       21.627968       10.908249
  N            1.198802       21.780036        8.544696
  C            3.712501       21.185765        7.542309
  C            0.801781       19.651730       10.043553
  S            6.237078       19.641701        9.276462
  S            8.870236       18.616612        8.907783
  F            5.081688       17.271403        9.836970
  F            3.956094       18.549749        8.444662
  F            5.740255       17.461403        7.747982
  F           10.176891       16.305984        8.968765
  F            9.244601       16.851738       10.906650
  F            8.005060       16.092195        9.271546
  O            6.314223       20.409486        8.040489
  O            5.501589       20.167528       10.419389
  O           10.092674       19.274169        9.355397
  O            8.626669       18.443537        7.480431
  N            7.623067       19.058187        9.821739
  C            5.215493       18.144830        8.799004
  C            9.076246       16.878422        9.555688
  S          -14.844980       -0.322763       -3.912152
  S          -17.064683        0.977692       -2.686596
  F          -14.407115       -2.083964       -1.918700
  F          -12.599698       -1.127022       -2.729353
  F          -13.933164       -0.005413       -1.381408
  F          -18.503426        0.871056       -0.457535
  F          -18.577963       -0.995745       -1.654159
  F          -16.800210       -0.526504       -0.468268
  O          -14.215151        0.952357       -4.229101
  O          -14.703813       -1.453890       -4.820086
  O          -18.260123        1.429501       -3.389368
  O          -16.178130        1.957658       -2.069909
  N          -16.379697       -0.250098       -3.467018
  C          -13.910154       -0.908220       -2.397039
  C          -17.769531        0.021513       -1.247001
  S           10.967112      -14.432212        3.283442
  S           12.071988      -11.814629        3.501974
  F            8.419076      -13.711901        3.789479
  F            9.099824      -15.523403        4.835756
  F            9.749426      -13.536530        5.531058
  F           11.306006       -9.322587        4.005025
  F           10.358926      -10.196559        2.199030
  F            9.676546      -10.793924        4.190121
  O           12.001646      -14.989789        4.144791
  O           10.429761      -15.220174        2.181584
  O           13.121113      -11.276635        2.643490
  O           12.337831      -12.021494        4.920828
  N           11.240725      -12.955731        2.732155
  C            9.486546      -14.276524        4.421824
  C           10.779015      -10.469120        3.465280
  S           19.542001       15.875149        8.119553
  S           21.674357       16.874000        9.724423
  F           20.151767       17.298675        5.912935
  F           18.014798       17.258377        6.433887
  F           19.406762       18.525699        7.578187
  F           23.714166       18.566431        9.566565
  F           23.839003       16.886269        8.123000
  F           22.455121       18.541285        7.758692
  O           18.572618       16.109376        9.181866
  O           19.389188       14.731715        7.229087
  O           22.459623       16.076992       10.659961
  O           20.822405       17.944682       10.228834
  N           21.080384       15.947695        8.551866
  C           19.278032       17.322754        6.958956
  C           22.986223       17.755796        8.731968
  S           14.664718        3.520446        0.545027
  S           16.859786        5.285865        0.114654
  F           16.120433        1.251557        0.566074
  F           14.258191        1.152171       -0.600901
  F           16.011875        2.213516       -1.407890
  F           19.493091        5.208737       -0.216745
  F           18.819517        4.411392        1.741046
  F           18.569714        3.213528       -0.072694
  O           13.886701        4.158216       -0.509019
  O           13.998705        2.996577        1.730653
  O           17.017310        6.591650        0.744898
  O           16.673540        5.200749       -1.329188
  N           15.961952        4.318769        1.033540
  C           15.311936        1.962090       -0.270364
  C           18.516463        4.480544        0.415328
  S           24.374707       -7.919791       18.571052
  S           26.726282       -7.977553       16.962633
  F           24.127043       -5.235860       18.621894
  F           23.827876       -6.235336       20.558695
  F           25.860713       -5.984769       19.747597
  F           28.401390       -6.309226       15.754011
  F           26.314277       -6.163769       15.015626
  F           26.855558       -5.287471       16.945923
  O           24.952140       -8.854039       19.528562
  O           22.946204       -7.955267       18.284976
  O           26.991305       -8.946548       15.905322
  O           27.567721       -7.962853       18.153589
  N           25.143333       -7.789849       17.174231
  C           24.572492       -6.255404       19.409458
  C           27.080861       -6.347289       16.125951
  S          -20.626427       14.194675        8.329226
  S          -18.581243       16.146378        7.971000
  F          -21.926518       14.714466        6.025535
  F          -23.218962       14.465333        7.788253
  F          -22.078403       16.329367        7.509689
  F          -17.827746       18.001745        6.227463
  F          -17.836396       15.946783        5.391124
  F          -19.722688       17.013950        5.691099
  O          -20.870880       14.636026        9.696166
  O          -20.759689       12.785968        7.980649
  O          -17.176970       15.957632        8.316671
  O          -19.372487       17.139154        8.688595
  N          -19.280516       14.733636        7.653338
  C          -22.024497       14.979742        7.359020
  C          -18.491654       16.800577        6.225286
  S          -16.858588       -9.626192        0.840605
  S          -18.407721       -7.364465        1.618442
  F          -17.801836      -11.288340        2.741908
  F          -15.623365      -11.356340        2.443088
  F          -16.536978       -9.671803        3.529707
  F          -20.205654       -6.664765        3.442702
  F          -20.874871       -8.317897        2.122962
  F          -19.428528       -8.707983        3.717596
  O          -15.642096       -8.826916        0.774431
  O          -17.062957      -10.725757       -0.093691
  O          -19.036774       -6.425945        0.696180
  O          -17.336625       -6.904670        2.494772
  N          -18.228331       -8.804376        0.925469
  C          -16.706829      -10.519522        2.481080
  C          -19.802304       -7.797401        2.780866
  S          -19.731778       -3.406980       -3.862372
  S          -16.993056       -3.282726       -4.639681
  F          -20.679992       -4.162604       -6.270136
  F          -21.839724       -2.585916       -5.265780
  F          -19.918260       -2.100648       -6.227854
  F          -15.471384       -3.658278       -6.782936
  F          -16.568297       -5.476976       -6.141429
  F          -17.625935       -3.874107       -7.189831
  O          -19.656015       -2.100544       -3.221623
  O          -20.583193       -4.448313       -3.301623
  O          -15.870586       -3.716743       -3.815797
  O          -17.131674       -1.872158       -4.982750
  N          -18.330590       -4.080407       -4.239130
  C          -20.570317       -3.044147       -5.498658
  C          -16.656488       -4.124373       -6.271207
  S           -0.310375      -11.512894        5.526899
  S            2.129928      -10.196478        6.184335
  F           -1.923814       -9.430814        6.100629
  F           -2.615980      -11.379491        6.851108
  F           -0.971784      -10.324585        7.869385
  F            2.995569       -7.848268        7.071262
  F            1.924231       -7.726420        5.132243
  F            0.798952       -7.997673        6.988880
  O            0.061795      -12.688142        6.303657
  O           -1.087961      -11.661092        4.303331
  O            3.377888      -10.331208        5.441679
  O            2.050992      -10.687461        7.555217
  N            0.868663      -10.474463        5.226384
  C           -1.504192      -10.605267        6.650839
  C            1.943289       -8.346331        6.344472
  S           -3.361529       22.143321        4.873762
  S           -3.198691       22.724423        7.658732
  F           -2.013834       19.811323        4.987397
  F           -1.442821       21.136725        3.327002
  F           -0.760906       21.575815        5.375241
  F           -2.203037       21.692877        9.893603
  F           -3.714866       20.398427        8.913205
  F           -1.692024       20.534232        8.090649
  O           -2.931685       23.490260        4.521535
  O           -4.325443       21.440816        4.036459
  O           -4.272347       23.309123        8.454020
  O           -1.964845       23.473914        7.452573
  N           -3.798454       21.927588        6.397355
  C           -1.811189       21.115339        4.645885
  C           -2.680279       21.253590        8.684120
  S          -18.544478       13.014231        2.042813
  S          -20.158643       15.270617        1.392085
  F          -16.482410       14.420217        3.061876
  F          -15.913083       12.773391        1.718936
  F          -16.718518       14.647898        0.887916
  F          -20.092467       17.921545        1.527243
  F          -19.970768       16.926936        3.506726
  F          -18.222751       16.963811        2.191428
  O          -18.755077       12.426993        0.726047
  O          -18.420658       12.156831        3.214673
  O          -21.605990       15.337950        1.558659
  O          -19.584617       15.322552        0.052529
  N          -19.517800       14.223088        2.430226
  C          -16.833283       13.768097        1.917419
  C          -19.576362       16.846092        2.205933
  S           23.987709       12.371895       10.009617
  S           21.889733       11.460142       11.708868
  F           22.689949       14.550178        9.094026
  F           23.746496       13.381872        7.558310
  F           21.839233       12.651292        8.383957
  F           19.427418       12.136131       12.436955
  F           20.955974       13.660869       12.947937
  F           20.271680       13.447527       10.880775
  O           24.164290       11.042854        9.439053
  O           25.138133       13.247105       10.194689
  O           22.080142       10.881913       13.034195
  O           21.348031       10.636095       10.634569
  N           23.105572       12.446461       11.341928
  C           23.000274       13.281943        8.702325
  C           20.576290       12.752081       12.007673
  S           24.618804       18.134754       -6.272274
  S           25.022068       18.719185       -3.512552
  F           22.327604       19.531648       -6.530139
  F           22.316230       17.542667       -7.470075
  F           22.129613       17.731765       -5.283180
  F           23.867687       20.056175       -1.530147
  F           24.462556       21.338915       -3.239860
  F           22.691421       20.063560       -3.393095
  O           24.864319       16.715194       -6.053995
  O           25.037523       18.766461       -7.517000
  O           26.314272       19.004588       -2.899485
  O           24.292712       17.516164       -3.128633
  N           25.038302       19.106738       -5.073088
  C           22.750918       18.244912       -6.377600
  C           23.955519       20.122231       -2.898177
  S           -0.725884       18.583598        1.170714
  S           -2.121320       16.630191       -0.364606
  F           -2.071326       20.715234        0.215038
  F            0.108855       20.975331        0.352202
  F           -0.758708       19.761157       -1.268355
  F           -4.057127       16.473740       -2.175198
  F           -4.717661       17.332817       -0.239199
  F           -3.535922       18.543035       -1.626929
  O            0.564695       18.014058        0.805878
  O           -0.920504       19.167466        2.491677
  O           -2.526882       15.317346        0.124324
  O           -1.130100       16.727420       -1.429801
  N           -2.003388       17.675274        0.851793
  C           -0.878709       20.076506        0.048174
  C           -3.690698       17.287013       -1.132173
  S          -11.069715       14.261038       -2.226266
  S          -10.583538       16.636833       -0.729777
  F          -13.747479       14.544892       -2.354378
  F          -13.048324       12.515397       -1.872730
  F          -13.002338       14.093081       -0.335884
  F          -11.915667       18.658560        0.360232
  F          -12.149375       18.524047       -1.841971
  F          -13.224118       17.131870       -0.540549
  O          -10.223969       13.474458       -1.337964
  O          -11.125863       13.949086       -3.648677
  O           -9.461380       17.543554       -0.943583
  O          -10.681598       15.894788        0.521769
  N          -10.940730       15.849216       -2.085434
  C          -12.806722       13.846227       -1.657963
  C          -12.047798       17.793728       -0.697213
  S           -2.652635      -10.006325       12.807376
  S           -3.043603       -7.532734       14.167061
  F           -5.257777      -10.462120       12.284987
  F           -4.135651      -12.207258       13.016409
  F           -4.743403      -10.618953       14.416772
  F           -5.010862       -5.906772       14.899323
  F           -4.856114       -6.182654       12.703337
  F           -5.717884       -7.763314       13.946639
  O           -1.779232      -10.500751       13.863682
  O           -2.403490      -10.375403       11.419777
  O           -2.178655       -6.365134       14.041882
  O           -3.137344       -8.225768       15.446721
  N           -2.967153       -8.438280       12.840458
  C           -4.287053      -10.853540       13.158277
  C           -4.746159       -6.814468       13.904534
  S          -20.950470        0.464640       -0.110819
  S          -20.628309       -2.364955       -0.210086
  F          -22.823033        0.472920        1.828471
  F          -23.231647        1.815001        0.133918
  F          -23.531328       -0.356958       -0.080274
  F          -21.580588       -4.558910        0.943079
  F          -20.574757       -3.176217        2.356893
  F          -22.579628       -2.713109        1.613283
  O          -21.062708        0.548062       -1.561169
  O          -20.303180        1.535996        0.635460
  O          -19.354722       -3.055027       -0.380005
  O          -21.646715       -2.466479       -1.248910
  N          -20.404896       -0.923630        0.466967
  C          -22.726823        0.588069        0.473614
  C          -21.377779       -3.238815        1.258990
  S            8.424499       15.209254       16.404725
  S            9.905795       15.237059       18.838906
  F           10.199767       16.645075       14.971460
  F            8.095773       17.227509       14.700106
  F            9.175340       17.808723       16.530356
  F           12.184837       16.183870       19.818490
  F           12.461654       14.766269       18.134391
  F           11.795038       16.813125       17.743320
  O            7.200179       15.597671       17.092654
  O            8.366226       14.308892       15.260316
  O           10.026052       14.109630       19.756259
  O            9.215228       16.446642       19.270922
  N            9.625305       14.721014       17.341990
  C            9.014619       16.807980       15.624941
  C           11.678806       15.773534       18.610541
  S          -15.608371       -8.462003       14.731715
  S          -16.563932       -7.518731       17.245157
  F          -17.815113       -9.874323       14.096856
  F          -15.908798      -10.902317       13.711053
  F          -16.671681      -10.726437       15.770220
  F          -18.710634       -7.695603       18.797720
  F          -19.118609       -6.783526       16.816791
  F          -18.833341       -8.946001       16.987836
  O          -14.337308       -8.868724       15.316566
  O          -15.655310       -7.948711       13.368612
  O          -16.341582       -6.177516       17.773171
  O          -15.975392       -8.667010       17.924634
  N          -16.518797       -7.508634       15.637800
  C          -16.557690      -10.071193       14.584995
  C          -18.403733       -7.746892       17.461021
  S           18.646857       -9.707190       -2.312016
  S           21.001825       -8.209268       -2.887002
  F           17.560090       -7.900613       -0.631950
  F           17.458485       -9.988546        0.053517
  F           19.358922       -8.880150        0.167046
  F           22.143025       -5.897047       -2.253471
  F           20.173732       -5.673028       -3.250521
  F           20.274437       -6.282398       -1.151603
  O           19.422082      -10.914997       -2.060419
  O           17.326453       -9.799398       -2.921730
  O           21.632582       -8.115680       -4.198673
  O           21.710446       -8.861385       -1.791917
  N           19.430098       -8.514791       -3.035548
  C           18.249241       -9.076065       -0.592769
  C           20.879836       -6.422976       -2.359932
  S           27.430601        2.460754        2.472367
  S           28.620728        3.801459        4.687396
  F           29.119655        3.430113        0.608273
  F           26.994548        3.450518        0.039803
  F           27.773443        4.947812        1.455615
  F           30.616974        5.470058        5.217348
  F           31.278888        3.539705        4.346706
  F           30.364861        5.060968        3.067157
  O           26.095582        2.881381        2.877177
  O           27.628891        1.160464        1.844954
  O           28.805758        3.222144        6.013010
  O           27.717465        4.933385        4.515715
  N           28.582043        2.648963        3.566686
  C           27.859995        3.643530        1.083523
  C           30.309856        4.495255        4.301367
  S           -7.076410       -1.903873       -2.181249
  S           -5.675035       -4.206476       -3.105594
  F           -9.227131       -2.216765       -3.776211
  F           -8.451843       -0.161788       -3.651102
  F           -7.394815       -1.669192       -4.860862
  F           -5.954017       -6.189479       -4.849135
  F           -7.524991       -6.154973       -3.282847
  F           -7.589974       -4.715912       -4.929605
  O           -5.888270       -1.071182       -2.315494
  O           -8.025303       -1.655910       -1.103363
  O           -4.906228       -5.111856       -2.259238
  O           -4.990069       -3.410474       -4.117432
  N           -6.832361       -3.483028       -2.255328
  C           -8.082785       -1.479581       -3.704211
  C           -6.751691       -5.373665       -4.086413
  S           -5.654562       15.770895        5.310559
  S           -6.768742       18.278621        6.078780
  F           -7.612520       15.103926        3.581699
  F           -6.960261       13.484078        4.919721
  F           -8.251038       15.096712        5.685487
  F           -8.889278       19.796776        5.580186
  F           -7.627841       19.417216        3.794936
  F           -8.947761       17.846981        4.555924
  O           -5.424791       15.396268        6.699780
  O           -4.720634       15.347844        4.274930
  O           -6.001548       19.496595        6.313399
  O           -7.477451       17.649105        7.186956
  N           -5.995880       17.312134        5.051979
  C           -7.209376       14.829178        4.854546
  C           -8.123551       18.859041        4.933735
  S           19.043126       -0.390413        0.470270
  S           20.240297       -2.886225       -0.206453
  F           20.887231        1.152815       -0.748388
  F           20.286815        1.827849        1.257474
  F           21.645573        0.108596        1.031558
  F           22.353023       -3.840360       -1.501089
  F           20.984923       -2.654809       -2.783734
  F           22.320750       -1.640769       -1.378665
  O           18.887633       -0.791115        1.862510
  O           18.044387        0.462507       -0.161211
  O           19.507781       -4.084369       -0.600113
  O           21.001284       -2.883463        1.037534
  N           19.394008       -1.564779       -0.557605
  C           20.553602        0.718555        0.499915
  C           21.536214       -2.738191       -1.541446
  S           28.153513        7.918374        4.430146
  S           27.002031       10.348191        3.486572
  F           25.870264        6.485563        4.395020
  F           27.106710        6.222864        6.195532
  F           25.906753        8.052185        5.937112
  F           24.648212       11.324723        2.740926
  F           25.347494        9.634124        1.485820
  F           24.541404        9.253275        3.483845
  O           28.841410        8.611528        5.511538
  O           28.776878        6.770540        3.783915
  O           27.635310       11.260646        2.541333
  O           26.753007       10.787129        4.854759
  N           27.548283        8.850064        3.279307
  C           26.673194        7.143246        5.278710
  C           25.299266       10.116661        2.758213
  S           -7.728774       -2.573433        7.168474
  S          -10.000399       -0.858143        7.301712
  F           -9.111818       -4.850773        6.758204
  F           -7.484251       -5.002302        8.230521
  F           -9.374163       -4.008196        8.771888
  F          -12.648661       -0.980227        7.153833
  F          -11.622900       -1.651987        5.304789
  F          -11.674462       -2.954250        7.062169
  O           -7.162849       -1.992755        8.379100
  O           -6.852793       -3.018705        6.092318
  O          -10.069947        0.481594        6.729555
  O          -10.071308       -1.028097        8.748329
  N           -8.934677       -1.759635        6.503411
  C           -8.478800       -4.184096        7.764674
  C          -11.561041       -1.659743        6.665034
  S           18.381593       -8.380667       14.799373
  S           16.975062       -9.333805       12.511700
  F           19.606574      -10.711928       15.375611
  F           18.750967       -9.657097       17.106195
  F           17.434806      -10.747133       15.716004
  F           16.655800      -11.564914       11.108030
  F           18.748609      -10.829243       11.144736
  F           17.909536      -11.829655       12.900317
  O           17.176805       -7.764224       15.339334
  O           19.680100       -7.752084       15.005494
  O           16.772262       -8.577745       11.281114
  O           15.826315       -9.686735       13.337796
  N           18.304269       -8.837240       13.268249
  C           18.543679       -9.964615       15.787838
  C           17.616678      -10.971778       11.888086
  S          -19.630231        2.674578        5.346099
  S          -17.304369        4.315599        5.213197
  F          -18.810955        1.183550        7.437277
  F          -19.723049        0.050759        5.786665
  F          -17.668886        0.822910        5.593558
  F          -14.969834        4.632288        6.437828
  F          -16.719922        4.947950        7.764462
  F          -16.130596        2.919400        7.194716
  O          -19.592706        2.426999        3.910700
  O          -20.909039        2.777648        6.037291
  O          -17.307139        5.747122        4.934217
  O          -16.684437        3.398070        4.264283
  N          -18.700181        3.864937        5.872246
  C          -18.905339        1.109650        6.079418
  C          -16.235523        4.195013        6.738501
  S           13.073359       17.626400       -0.254670
  S           11.706738       19.038458       -2.318330
  F           15.304259       17.120683       -1.681113
  F           14.538510       15.419081       -0.515853
  F           13.536906       16.018101       -2.384290
  F           12.064342       19.803860       -4.835540
  F           13.549159       20.659551       -3.426454
  F           13.713056       18.569635       -4.052810
  O           11.900298       16.808486        0.024651
  O           13.964803       18.020717        0.828640
  O           10.886955       20.227462       -2.115058
  O           11.082966       17.803874       -2.780202
  N           12.822029       18.916516       -1.166380
  C           14.163152       16.494542       -1.276177
  C           12.825891       19.544758       -3.723562
  S          -10.956589       16.320420       -4.842033
  S          -12.469381       18.691217       -5.301419
  F           -9.133472       16.763085       -6.777930
  F           -9.903572       14.704817       -6.677277
  F          -11.142953       16.306511       -7.544228
  F          -12.487425       20.810655       -6.900707
  F          -10.654558       20.647586       -5.661185
  F          -10.917310       19.348579       -7.402010
  O          -12.161650       15.501628       -4.820148
  O           -9.828598       15.984748       -3.982566
  O          -13.054434       19.524096       -4.256852
  O          -13.341777       17.981011       -6.229398
  N          -11.185952       17.900340       -4.741903
  C          -10.255890       16.022541       -6.554492
  C          -11.575005       19.934931       -6.367622
  S            9.042227       -3.524592       -5.005145
  S            6.410880       -4.611171       -4.880204
  F            9.714786       -4.669172       -7.351420
  F           11.260232       -4.770805       -5.789075
  F            9.507268       -6.101849       -5.696713
  F            4.799218       -6.194311       -6.275294
  F            5.407266       -4.360590       -7.366238
  F            6.817737       -6.017868       -7.140558
  O            9.316825       -3.913204       -3.627955
  O            9.610293       -2.296191       -5.545565
  O            5.232227       -3.892854       -4.409149
  O            6.898711       -5.763832       -4.131869
  N            7.507771       -3.584346       -5.453087
  C            9.911232       -4.843538       -6.013826
  C            5.835993       -5.325145       -6.506017
  S           14.070812        8.025018       15.460864
  S           13.794718        9.113871       18.079723
  F           11.737751        8.979492       14.505244
  F           12.170232        6.886159       13.985081
  F           11.494151        7.402115       16.017271
  F           12.086393       10.560246       19.507901
  F           12.877002       11.620560       17.726586
  F           11.348277       10.073333       17.489898
  O           14.433151        6.718077       15.993488
  O           14.669013        8.500537       14.219994
  O           14.879765        9.697592       18.860132
  O           13.150567        7.890760       18.544140
  N           14.100699        9.235803       16.505797
  C           12.270498        7.819133       14.982633
  C           12.459026       10.412365       18.195323
  S           12.546738       11.150050        2.725112
  S           13.023675       13.958255        2.642841
  F           14.956946       10.478391        3.728694
  F           14.250710        9.210618        2.075323
  F           15.037261       11.226646        1.662938
  F           14.936216       15.710695        3.209590
  F           14.241405       14.552453        4.969739
  F           15.556118       13.615554        3.493027
  O           12.035749       11.151193        1.360574
  O           11.982446       10.243297        3.716622
  O           12.040924       14.982425        2.978058
  O           13.519675       13.856137        1.275299
  N           12.696176       12.585868        3.414224
  C           14.294089       10.498983        2.537750
  C           14.515104       14.476715        3.638009
  S           -3.652269      -12.059566       18.900445
  S           -1.058230      -10.914831       19.184682
  F           -4.918358       -9.756816       18.298972
  F           -5.960532      -11.040865       19.749746
  F           -4.210684       -9.859167       20.378011
  F            0.147530       -8.554136       19.031942
  F           -0.799265       -9.193743       17.130129
  F           -2.037044       -8.440360       18.769411
  O           -3.517863      -12.787752       20.155337
  O           -4.387438      -12.648268       17.788385
  O            0.181867      -11.533091       18.729698
  O           -1.280354      -10.711342       20.611520
  N           -2.303518      -11.434292       18.309953
  C           -4.726821      -10.593798       19.357710
  C           -0.939295       -9.188788       18.484573
  S          -18.671119        7.921919       10.578407
  S          -18.461513        7.550284        7.760925
  F          -21.282480        7.277509       10.759892
  F          -20.680898        9.057110       11.904781
  F          -20.911511        9.177212        9.717206
  F          -19.967757        6.860378        5.685997
  F          -19.802581        5.276355        7.230664
  F          -21.093243        7.009300        7.574207
  O          -17.998389        9.212243       10.503771
  O          -18.471145        7.058710       11.735386
  O          -17.319283        6.950991        7.080297
  O          -18.782446        8.953920        7.529792
  N          -18.569632        7.006696        9.270413
  C          -20.481862        8.380379       10.730889
  C          -19.907960        6.619897        7.035877
  S           12.330297        2.766079       15.229267
  S           10.634719        4.627975       16.562912
  F           14.653509        3.943133       15.925427
  F           14.523498        3.311260       13.822218
  F           13.460158        5.117469       14.500459
  F           10.799475        6.831770       18.034716
  F           11.789763        5.072215       18.954338
  F           12.750601        6.125102       17.294474
  O           11.535113        2.845745       14.010904
  O           12.958171        1.507857       15.611853
  O            9.422049        4.278251       17.293815
  O           10.538913        5.439392       15.355006
  N           11.659312        3.388836       16.541033
  C           13.810486        3.853916       14.857950
  C           11.549308        5.711667       17.776444
  S           -7.520692      -12.340441       14.552515
  S           -7.356899       -9.713320       15.644144
  F           -8.560045      -13.501526       16.752295
  F           -6.941028      -14.630250       15.780483
  F           -6.473232      -12.854221       16.997028
  F           -7.883192       -8.415053       17.899711
  F           -9.672837       -9.334167       16.964399
  F           -8.233815      -10.585905       18.036453
  O           -6.153382      -12.267483       14.054303
  O           -8.535343      -13.067388       13.800350
  O           -7.654540       -8.485869       14.914849
  O           -5.996381       -9.965706       16.104474
  N           -8.167147      -10.953562       15.018819
  C           -7.364652      -13.370378       16.110433
  C           -8.345842       -9.510154       17.213933
  S           14.038842       16.952234       15.842033
  S           16.017609       15.287451       17.039209
  F           12.021536       15.172582       16.017310
  F           12.170973       16.223792       14.090583
  F           13.580590       14.601927       14.575996
  F           16.270277       12.854345       18.071790
  F           14.807732       14.129437       19.147668
  F           14.275514       13.241506       17.220168
  O           14.929428       17.296273       14.741320
  O           13.093773       17.936733       16.353232
  O           17.042626       15.745682       17.970048
  O           16.409521       14.775290       15.731269
  N           14.727977       16.245972       17.101027
  C           12.904530       15.658359       15.099435
  C           15.295051       13.807622       17.917583
  S            2.151482       -4.541687       17.863140
  S            0.589527       -6.126083       16.082624
  F            3.661463       -6.568084       18.801798
  F            2.912916       -5.177714       20.333530
  F            1.558661       -6.665597       19.436148
  F            0.332467       -8.652068       15.305843
  F            2.331480       -7.789494       14.878855
  F            1.806939       -8.377863       16.919837
  O            0.962582       -3.894107       18.401872
  O            3.396046       -3.794675       17.733704
  O            0.170163       -5.714571       14.747750
  O           -0.414023       -6.340446       17.118746
  N            1.941831       -5.368003       16.509615
  C            2.584828       -5.816062       19.167136
  C            1.313928       -7.819925       15.783186
  S           -2.235028       18.124918        7.297222
  S           -0.355746       18.379659        5.170333
  F           -1.513772       15.630221        8.020883
  F           -3.683388       15.978008        7.913801
  F           -2.512244       15.728961        6.064614
  F            1.557698       16.981542        3.972808
  F            1.952332       17.370199        6.121207
  F            0.492702       15.849625        5.534468
  O           -3.321309       18.609693        6.455759
  O           -2.211623       18.446144        8.718485
  O            0.388440       19.593514        4.854361
  O           -1.331648       17.864429        4.217041
  N           -0.757772       18.351591        6.727035
  C           -2.487850       16.268015        7.311980
  C            0.980067       17.076889        5.214112
  S          -13.743766       -5.705061       15.195861
  S          -16.483462       -4.922948       15.144700
  F          -12.730203       -3.215350       14.992306
  F          -11.763541       -4.721599       13.713076
  F          -13.737751       -3.911265       13.166318
  F          -17.965453       -2.727201       14.964531
  F          -16.649332       -2.767660       16.750195
  F          -15.804098       -2.342819       14.777375
  O          -13.973282       -6.738496       14.194657
  O          -12.766927       -5.918033       16.256120
  O          -17.537681       -5.519927       15.956694
  O          -16.521032       -5.069770       13.694306
  N          -15.055245       -5.081238       15.866417
  C          -12.969335       -4.308903       14.214419
  C          -16.728112       -3.094881       15.430774
  S          -11.399588      -11.914289       -0.212300
  S          -10.994990      -10.168685        2.003421
  F          -12.152040       -9.998851       -1.953656
  F          -13.380002      -11.823819       -1.989071
  F          -13.616754      -10.364945       -0.355447
  F          -11.170868       -7.591268        2.616656
  F           -9.706028       -8.024532        1.007638
  F          -11.849988       -8.053416        0.572286
  O          -12.178245      -12.839319        0.600772
  O          -10.543653      -12.419535       -1.278049
  O           -9.908551      -10.283604        2.969618
  O          -12.371770      -10.368727        2.440542
  N          -10.567392      -10.810277        0.592303
  C          -12.704022      -10.963921       -1.164918
  C          -10.922328       -8.369150        1.513609
  S           -8.158299       12.443410       15.278727
  S           -8.272609       11.099219       12.768681
  F          -10.741229       12.041657       15.937875
  F           -9.989987       14.074998       16.313126
  F          -10.463916       13.434271       14.259361
  F          -10.012411        9.807431       11.234263
  F           -9.696132        8.857446       13.214138
  F          -10.915832       10.666481       13.050880
  O           -7.480519       13.588776       14.685579
  O           -7.841178       12.030190       16.639758
  O           -7.222714       10.240445       12.232656
  O           -8.598139       12.348152       12.089851
  N           -8.217464       11.124485       14.375558
  C           -9.933834       13.020917       15.440566
  C           -9.804234       10.051534       12.568677
  S           17.653703        0.615407        4.705391
  S           20.470619        0.442445        4.311286
  F           17.663552       -0.280919        7.247813
  F           16.096181       -1.138571        5.964290
  F           18.181602       -1.820362        5.766116
  F           22.664591       -0.273857        5.624093
  F           21.576307        1.414746        6.565722
  F           20.810008       -0.625305        6.760419
  O           17.389939       -0.063841        3.443596
  O           16.755121        1.662610        5.174044
  O           21.273304        1.417682        3.582105
  O           20.336724       -0.913351        3.791189
  N           19.151763        1.134816        4.917071
  C           17.402745       -0.728721        5.987018
  C           21.421024        0.234778        5.904122
  S           22.686533       -2.596762       16.370603
  S           23.667345       -3.645725       13.909316
  F           24.959233       -1.325123       17.067148
  F           23.988213       -2.451481       18.688287
  F           25.119249       -3.517047       17.126744
  F           25.883148       -3.657920       12.446396
  F           25.035889       -1.631561       12.760131
  F           26.116264       -2.628693       14.380455
  O           22.147623       -3.893166       16.760459
  O           21.992776       -1.372456       16.749411
  O           22.898255       -3.733168       12.673214
  O           24.099019       -4.868198       14.577023
  N           23.115039       -2.453373       14.836132
  C           24.279346       -2.472195       17.350223
  C           25.254907       -2.838764       13.350763
  S           15.652979       18.677156        4.660069
  S           17.500053       20.755234        5.284698
  F           14.019457       19.103120        6.761870
  F           14.493077       16.992022        6.363622
  F           15.987159       18.297436        7.321069
  F           17.898442       22.634999        7.117138
  F           15.993828       22.868324        6.003399
  F           16.173284       21.336488        7.555239
  O           16.731192       17.718917        4.454376
  O           14.443129       18.601544        3.851202
  O           18.134212       21.630964        4.305906
  O           18.317524       19.826575        6.056675
  N           16.090892       20.214052        4.730512
  C           15.015351       18.258026        6.371790
  C           16.846038       21.959082        6.552190
  S            5.416016      -10.582223       -6.157927
  S            6.239399      -13.249251       -5.584120
  F            7.899017       -9.552868       -6.364177
  F            6.478313       -8.332908       -5.209643
  F            7.355630      -10.146379       -4.318167
  F            8.463717      -14.662454       -5.259573
  F            8.271379      -13.757603       -7.276169
  F            8.829593      -12.511608       -5.566542
  O            4.463409      -10.591032       -5.055414
  O            5.110576       -9.853754       -7.382574
  O            5.598979      -14.451422       -6.105409
  O            6.201506      -12.976216       -4.152118
  N            6.007140      -12.007657       -6.579224
  C            6.869982       -9.618619       -5.472597
  C            8.044455      -13.552465       -5.949302
  S           22.930154        8.905187       11.959258
  S           25.338895        9.946148       13.070389
  F           23.238484        6.398476       12.901988
  F           22.587230        6.530972       10.804855
  F           24.685672        6.938393       11.337436
  F           27.412490        9.152602       14.526601
  F           25.465424        8.959507       15.572573
  F           26.021458        7.520503       14.021116
  O           23.224754        9.489790       10.657519
  O           21.552287        8.813463       12.424866
  O           25.481034       11.271425       13.662448
  O           26.068343        9.620300       11.850413
  N           23.817090        9.438188       13.179107
  C           23.400206        7.103506       11.746596
  C           26.087339        8.832655       14.367881
  S            0.720194      -15.011438       15.520037
  S           -0.951417      -15.129483       13.215252
  F           -0.735730      -13.163778       16.836792
  F            1.439191      -12.835198       16.874350
  F            0.284612      -12.378885       15.054509
  F           -3.173753      -14.034398       12.260225
  F           -3.475118      -15.150613       14.153807
  F           -2.532081      -13.176630       14.185511
  O            1.918725      -14.890927       14.700235
  O            0.766703      -15.741104       16.780650
  O           -1.287385      -16.348713       12.488824
  O           -0.158158      -14.096070       12.559958
  N           -0.607761      -15.462132       14.750498
  C            0.399490      -13.254397       16.087649
  C           -2.619157      -14.334213       13.479289
  S          -20.750187       12.473792        4.237203
  S          -18.249683       11.692835        5.358735
  F          -22.202389       12.087155        6.475288
  F          -23.117348       11.319982        4.627601
  F          -21.455727       10.226066        5.573886
  F          -17.235335       10.829301        7.655575
  F          -18.159340       12.841745        7.792301
  F          -19.426021       11.060324        7.697472
  O          -20.539056       11.632575        3.066369
  O          -21.454613       13.743013        4.108427
  O          -16.972358       12.341012        5.084141
  O          -18.464244       10.314674        4.933003
  N          -19.464228       12.726680        5.154338
  C          -21.928915       11.468492        5.291811
  C          -18.277660       11.610407        7.223124
  S          -17.091526        0.130812        8.920289
  S          -16.632887        2.786525        9.846079
  F          -19.765462        0.165251        9.261303
  F          -18.762003       -1.665769        9.954187
  F          -18.633967        0.182374       11.146272
  F          -17.981756        4.868393       10.792886
  F          -18.576750        4.283777        8.737013
  F          -19.239972        3.092879       10.448395
  O          -16.018786       -0.393793        9.755209
  O          -17.356932       -0.458981        7.614370
  O          -15.678097        3.721430        9.261765
  O          -16.425284        2.300346       11.205176
  N          -17.125761        1.720704        8.747519
  C          -18.643330       -0.303575        9.877075
  C          -18.193808        3.804223        9.952552
  S            6.227453       -9.148406       10.363833
  S            5.494484      -11.898775       10.227899
  F            3.716007       -8.191716       10.575458
  F            5.012883       -7.100569        9.172901
  F            4.169658       -9.054934        8.604991
  F            3.321584      -13.424625       10.246825
  F            3.586010      -12.230859       12.098152
  F            2.876714      -11.266864       10.266610
  O            7.115925       -9.281863        9.216714
  O            6.568089       -8.239580       11.450903
  O            6.216913      -12.988506       10.874179
  O            5.439345      -11.834780        8.772056
  N            5.726016      -10.518501       11.019714
  C            4.695153       -8.348130        9.640065
  C            3.728395      -12.211847       10.744077
  S           -6.947665       19.339969        0.524847
  S           -7.227703       16.677300        1.500565
  F           -4.268178       19.464346        0.793701
  F           -5.357184       21.245530        1.487314
  F           -5.346937       19.412175        2.708705
  F           -5.736464       14.691460        2.440091
  F           -5.230386       15.276644        0.360703
  F           -4.592368       16.530543        2.036294
  O           -8.026633       19.815326        1.380965
  O           -6.751129       19.923280       -0.796078
  O           -8.141907       15.680047        0.955762
  O           -7.427300       17.172210        2.857708
  N           -6.826209       17.752123        0.373936
  C           -5.398966       19.877723        1.432910
  C           -5.608353       15.752613        1.579205
  S           25.419599       -9.936677        7.484185
  S           23.222318       -8.236648        6.850066
  F           23.934814      -12.027591        8.315388
  F           25.654644      -11.538897        9.597190
  F           23.841781      -10.288704        9.657513
  F           20.567565       -8.246255        6.897630
  F           21.438970       -9.804594        5.580572
  F           21.465404      -10.067630        7.752447
  O           26.087666       -8.873116        8.222832
  O           26.203062      -10.908611        6.732354
  O           23.158751       -7.350337        5.693559
  O           23.246347       -7.668114        8.192751
  N           24.198755       -9.480167        6.556868
  C           24.658511      -10.994065        8.831369
  C           21.594881       -9.146186        6.762242
  S           13.397111       11.493633       14.247878
  S           13.371921       13.019897       11.841608
  F           15.442897       12.814305       15.404592
  F           15.533303       10.622992       15.576714
  F           16.041178       11.602901       13.670163
  F           14.664749       15.041890       10.705735
  F           13.663261       15.584158       12.609778
  F           15.522212       14.430793       12.641077
  O           13.353804       10.240027       13.506479
  O           12.716753       11.608034       15.531523
  O           12.169098       13.443402       11.133827
  O           14.286050       12.076788       11.207946
  N           13.064236       12.812581       13.406243
  C           15.199570       11.651466       14.736199
  C           14.354242       14.601848       11.968087
  S          -12.849512        4.507492       -5.234301
  S          -14.494574        4.278189       -2.918823
  F          -14.854691        4.344918       -7.028802
  F          -13.076110        3.142359       -7.508549
  F          -14.479201        2.465997       -5.950678
  F          -17.051381        3.985779       -2.265140
  F          -16.628979        5.850450       -3.390746
  F          -16.691093        3.930473       -4.438011
  O          -11.921843        3.503385       -4.730046
  O          -12.355717        5.628589       -6.023623
  O          -14.305387        5.028173       -1.682365
  O          -14.325979        2.829680       -2.915581
  N          -13.892605        5.089110       -4.170131
  C          -13.880092        3.563629       -6.483002
  C          -16.307813        4.531726       -3.281325
  S          -10.593608        2.985137        3.606948
  S          -10.947562        1.270025        1.358980
  F           -7.996320        3.537099        3.141287
  F           -8.491044        3.085542        5.236758
  F           -8.361287        1.458406        3.757338
  F           -9.562242        0.281319       -0.679013
  F           -9.699593        2.495695       -0.688140
  F           -8.344443        1.489218        0.703802
  O          -11.231496        2.024343        4.497481
  O          -10.763267        4.415007        3.831470
  O          -12.137718        1.231850        0.516861
  O          -10.597484        0.105818        2.164388
  N          -10.783598        2.716755        2.041491
  C           -8.765154        2.743266        3.939333
  C           -9.564747        1.402538        0.112470
  S          -20.221433       19.463548       -3.310576
  S          -19.528300       17.215388       -1.702598
  F          -18.225153       21.058294       -2.450893
  F          -20.196258       22.025590       -2.587771
  F          -19.752864       20.653069       -0.922635
  F          -17.721956       16.489878        0.103176
  F          -16.849008       17.006251       -1.870078
  F          -17.534026       18.592441       -0.527810
  O          -21.621021       19.371329       -2.915956
  O          -19.867968       19.899158       -4.655577
  O          -19.592473       15.825137       -2.138695
  O          -20.410532       17.677558       -0.637385
  N          -19.313864       18.193638       -2.960683
  C          -19.559122       20.860810       -2.251695
  C          -17.815786       17.339173       -0.970824
  S            6.231859       -3.327668       -1.615991
  S            5.743928       -1.286743       -3.543891
  F            6.819566       -1.663569        0.421847
  F            8.170968       -3.386138        0.207078
  F            8.332924       -1.676610       -1.172914
  F            5.750034        1.360882       -3.744171
  F            4.292082        0.584535       -2.262930
  F            6.425211        0.629726       -1.778521
  O            7.086667       -4.060079       -2.541167
  O            5.395405       -4.049403       -0.665641
  O            4.684555       -1.320339       -4.545737
  O            7.138463       -1.324131       -3.968729
  N            5.338399       -2.168653       -2.261894
  C            7.450665       -2.454261       -0.491758
  C            5.537786        0.404859       -2.782633
  S           30.947265       12.029992       11.922200
  S           30.625314       14.259683       10.177185
  F           28.376661       11.921201       12.726917
  F           29.864866       11.706066       14.332724
  F           29.458623       13.688388       13.461828
  F           28.736868       15.929306        9.342800
  F           28.331518       13.806322        8.841759
  F           28.041069       14.522136       10.888752
  O           32.126836       12.624289       12.537422
  O           30.860320       10.585234       11.752392
  O           31.270401       14.402571        8.876978
  O           30.966016       15.180614       11.255341
  N           30.457546       12.706404       10.557861
  C           29.587166       12.368045       13.166418
  C           28.838035       14.637198        9.794250
  S           24.000145       -8.238327       13.458514
  S           22.431178       -6.914149       11.482369
  F           21.966964       -9.626206       14.557319
  F           23.340407       -8.689206       15.997922
  F           21.859348       -7.461239       14.924771
  F           19.912763       -6.763028       10.654836
  F           20.783113       -8.796989       10.487790
  F           20.173145       -8.024984       12.441985
  O           24.640148       -6.989831       13.851868
  O           24.750602       -9.487093       13.491922
  O           22.855485       -6.662451       10.109887
  O           22.204559       -5.790422       12.383755
  N           23.187244       -8.200738       12.081358
  C           22.713359       -8.510311       14.793592
  C           20.741729       -7.675173       11.258484
  S           -6.501245        5.469072       -1.514712
  S           -5.423110        7.556164        0.098336
  F           -7.204970        3.859611        0.530236
  F           -6.214740        2.847167       -1.153229
  F           -5.030994        4.049665        0.263047
  F           -5.025009        8.146130        2.656367
  F           -7.162553        7.870933        2.129507
  F           -5.854959        6.129621        2.341551
  O           -5.329917        5.472347       -2.381346
  O           -7.820044        5.190328       -2.068599
  O           -5.582388        8.981863       -0.164551
  O           -4.096472        6.954696        0.028485
  N           -6.645509        6.724302       -0.533709
  C           -6.216366        3.990377       -0.399126
  C           -5.901628        7.412672        1.896656
  S          -23.084914        5.131898        8.774330
  S          -22.208192        2.425452        8.937907
  F          -24.287429        4.899893        6.372760
  F          -23.054616        6.704207        6.626292
  F          -22.095805        4.751002        6.281668
  F          -22.285358        0.177082        7.527607
  F          -24.289904        0.939792        8.095479
  F          -23.171682        1.899848        6.478444
  O          -21.767709        5.628689        9.150154
  O          -24.283752        5.839981        9.204595
  O          -22.214942        1.617340       10.151993
  O          -20.938022        2.776129        8.313163
  N          -23.334896        3.570215        9.013985
  C          -23.127807        5.367592        6.915611
  C          -23.041976        1.309742        7.695523
  S           -1.705866      -13.690431       -2.460066
  S           -1.418132      -12.025156       -4.754476
  F           -3.793155      -12.356421       -1.396560
  F           -2.218563      -12.915146        0.034571
  F           -1.906455      -11.228726       -1.348061
  F           -2.519948       -9.873689       -5.853228
  F           -3.920871      -11.581220       -5.643079
  F           -3.376341      -10.390563       -3.890153
  O           -0.277262      -13.628629       -2.180162
  O           -2.455083      -14.907357       -2.174606
  O           -1.102435      -12.500098       -6.096810
  O           -0.464602      -11.178197       -4.047331
  N           -2.155320      -13.175268       -3.906225
  C           -2.443822      -12.472521       -1.241730
  C           -2.892668      -10.918429       -5.045032
  S           12.867009       -0.660949       12.083091
  S           13.893058       -3.003770       13.339540
  F           10.319199       -1.523405       11.903532
  F           11.100972       -0.545959       10.094365
  F           11.712412       -2.603573       10.589804
  F           13.066436       -5.378738       14.191764
  F           12.076361       -3.674474       15.210413
  F           11.495112       -4.218462       13.172483
  O           13.953331       -0.651210       11.112069
  O           12.311757        0.594614       12.571945
  O           14.888321       -3.011946       14.405599
  O           14.222741       -3.581868       12.041956
  N           13.069349       -1.622753       13.345141
  C           11.429381       -1.386563       11.124479
  C           12.556070       -4.117000       14.015338
  S          -16.209311       -7.461251        5.926523
  S          -14.733378       -7.010107        8.322006
  F          -17.606386       -5.157259        6.011412
  F          -18.786370       -6.943498        5.504816
  F          -18.162178       -6.586254        7.587087
  F          -14.485709       -5.194001       10.243070
  F          -13.970351       -4.429647        8.225007
  F          -16.066105       -4.715846        8.784321
  O          -16.554366       -8.814987        6.340539
  O          -15.978404       -7.163452        4.518787
  O          -13.326529       -7.344628        8.511653
  O          -15.750256       -7.702604        9.104963
  N          -15.048469       -6.750381        6.766695
  C          -17.764860       -6.481850        6.291582
  C          -14.819815       -5.241763        8.912778
  S          -14.348551        2.204417        4.440296
  S          -15.819194        3.268276        2.243557
  F          -12.437501        1.014263        2.957451
  F          -13.228809       -0.204922        4.608837
  F          -14.414757        0.070815        2.772920
  F          -15.748105        3.326570       -0.410047
  F          -13.973587        4.252023        0.547571
  F          -14.169767        2.073947        0.481030
  O          -15.560321        1.678565        5.055247
  O          -13.262768        2.703954        5.274118
  O          -16.442978        4.586319        2.216145
  O          -16.655504        2.074530        2.196959
  N          -14.568678        3.255099        3.254383
  C          -13.575004        0.697430        3.638521
  C          -14.867764        3.229104        0.638325
  S          -18.986012      -14.963002        8.603577
  S          -16.315725      -15.498735        9.441914
  F          -19.315264      -12.741458       10.094799
  F          -21.012719      -14.140601       10.121225
  F          -19.192879      -14.590151       11.278455
  F          -14.454672      -14.503149       11.052924
  F          -15.064007      -13.114721        9.433236
  F          -16.372894      -13.424521       11.158858
  O          -19.383187      -16.346206        8.831773
  O          -19.574555      -14.204461        7.507240
  O          -15.248603      -15.981712        8.572961
  O          -16.802254      -16.346224       10.524349
  N          -17.411101      -14.683141        8.592978
  C          -19.645387      -14.063934       10.109939
  C          -15.517255      -14.052452       10.310379
  S           -8.810559       -4.470764        3.089724
  S           -8.213059       -1.688829        2.934532
  F           -6.268914       -5.290609        3.457552
  F           -7.428811       -6.474131        2.010636
  F           -6.656754       -4.489270        1.447298
  F           -6.125536       -0.051283        3.038247
  F           -6.430227       -1.222458        4.897796
  F           -5.572487       -2.182063        3.128511
  O           -9.640040       -4.405433        1.893577
  O           -9.163664       -5.375704        4.176058
  O           -9.024926       -0.626511        3.517154
  O           -8.074456       -1.777036        1.485525
  N           -8.416925       -3.064295        3.742163
  C           -7.201672       -5.203145        2.467368
  C           -6.496508       -1.274185        3.538721
  S           -7.751374      -12.626595        6.441153
  S           -8.908299      -13.021113        3.867026
  F           -7.971768      -15.188401        7.251083
  F           -8.559744      -13.685409        8.746059
  F           -9.901606      -14.152150        7.062417
  F           -9.957443      -14.960467        2.387746
  F           -7.836129      -15.309043        2.936315
  F           -9.413852      -15.607507        4.422465
  O           -8.589306      -11.460585        6.688869
  O           -6.391399      -12.673983        6.962635
  O           -8.445443      -12.387879        2.637443
  O          -10.231802      -12.700086        4.388462
  N           -7.706023      -13.143037        4.927875
  C           -8.598246      -13.988360        7.411016
  C           -9.025222      -14.820477        3.385218
  S           24.088761        1.448617       14.318495
  S           23.498107        3.863528       12.925806
  F           21.536499        0.844630       14.941846
  F           22.981413        0.585587       16.580374
  F           22.313248        2.604694       16.006044
  F           21.411283        5.359912       12.250479
  F           21.348105        3.310967       11.401809
  F           20.879885        3.635199       13.514289
  O           25.142643        2.097005       15.087910
  O           24.226248        0.053341       13.920974
  O           24.160703        4.306698       11.704469
  O           23.657439        4.635761       14.152542
  N           23.552269        2.261175       13.049359
  C           22.649438        1.382074       15.516888
  C           21.689321        4.039394       12.500499
  S           29.189098       -0.800923        4.744159
  S           27.194317        0.999692        5.692254
  F           27.666098       -3.020450        4.891039
  F           29.714892       -3.244531        5.660379
  F           28.197522       -2.182015        6.852747
  F           24.675672        0.980753        6.532573
  F           24.920502        0.282472        4.440953
  F           25.470968       -1.028681        6.103720
  O           30.183475       -0.250677        5.656035
  O           29.588597       -1.272339        3.424353
  O           26.970003        2.344949        5.175475
  O           27.655564        0.822826        7.064327
  N           27.855041        0.063216        4.564340
  C           28.650771       -2.385478        5.587732
  C           25.479403        0.263148        5.682488
  S          -11.266160       22.111703       -3.050773
  S          -11.862390       22.797245       -0.349885
  F          -10.222046       19.686296       -2.507972
  F           -9.080590       20.888980       -3.953752
  F           -8.982126       21.359798       -1.803932
  F          -11.649780       21.786421        2.096152
  F          -12.923700       20.576245        0.741526
  F          -10.745883       20.514023        0.541094
  O          -10.634686       23.403461       -3.286727
  O          -12.006226       21.453284       -4.119654
  O          -13.063206       23.499771        0.087830
  O          -10.559829       23.435909       -0.201379
  N          -12.141390       21.997458       -1.716719
  C           -9.814088       20.953971       -2.799040
  C          -11.795065       21.335119        0.808207
  S           -7.604878       18.106537       13.076410
  S           -6.188443       16.416799       11.271210
  F           -7.727944       16.327931       15.098495
  F           -9.599170       17.413135       14.697870
  F           -8.962163       15.780133       13.363472
  F           -5.175544       13.965136       11.155227
  F           -4.278207       15.223606       12.746908
  F           -6.274540       14.371311       13.021095
  O           -8.572798       18.468484       12.049182
  O           -7.204539       19.083560       14.080838
  O           -5.123023       16.856333       10.377462
  O           -7.442618       15.927351       10.710763
  N           -6.279221       17.376548       12.558212
  C           -8.513087       16.828339       14.102857
  C           -5.439266       14.922898       12.102183
  S           32.498186        0.269342        8.359241
  S           32.295336        3.076945        8.802489
  F           29.884382       -0.128129        7.832505
  F           30.800429       -1.613056        9.172468
  F           30.294059        0.393123        9.928727
  F           30.467850        5.003086        8.820992
  F           30.683979        4.001261        6.853241
  F           29.622477        2.996996        8.481613
  O           33.275632        0.087416        9.578073
  O           32.766286       -0.558607        7.190334
  O           33.274348        4.064667        8.363128
  O           32.082619        2.858626       10.228568
  N           32.336935        1.778681        7.854589
  C           30.776075       -0.281768        8.852029
  C           30.682971        3.798378        8.199715
  S          -10.404111       14.993107       10.728568
  S           -9.767182       17.388616        9.322826
  F          -12.081628       14.003418        8.864739
  F          -12.794540       13.840514       10.939558
  F          -12.859177       15.781037        9.898748
  F          -10.350920       18.623257        7.045772
  F           -9.387836       16.644650        6.762942
  F          -11.491879       16.763347        7.351027
  O          -10.656171       15.729447       11.960373
  O           -9.820144       13.658938       10.780487
  O           -8.442998       17.997334        9.267202
  O          -10.856907       18.094187        9.987118
  N           -9.651554       15.804472        9.573525
  C          -12.122519       14.650880       10.063603
  C          -10.274367       17.340345        7.527288
  S           -9.975645        7.401358       -0.535518
  S          -12.174477        9.213040       -0.592036
  F          -10.875114        5.796036       -2.505621
  F          -10.072432        4.749216       -0.745075
  F          -12.065848        5.683184       -0.660871
  F          -14.462074        9.590351       -1.886102
  F          -12.675449        9.659609       -3.199717
  F          -13.421859        7.737436       -2.468246
  O          -10.051029        7.284328        0.914894
  O           -8.683424        7.349670       -1.207244
  O          -12.068939       10.659513       -0.438173
  O          -12.873852        8.430178        0.420196
  N          -10.807249        8.605535       -1.181407
  C          -10.804982        5.835105       -1.144847
  C          -13.228476        9.037146       -2.122288
  S           -3.044672       18.063383       13.025252
  S           -4.728810       20.240345       12.287169
  F           -0.745120       19.470263       13.037672
  F           -0.627473       17.502529       12.061027
  F           -1.598929       19.190314       11.031102
  F           -4.568414       22.827398       11.711410
  F           -3.897359       22.330629       13.766967
  F           -2.607651       21.883888       12.056994
  O           -3.642266       17.199739       12.015265
  O           -2.603739       17.504904       14.297022
  O           -6.063130       20.483130       12.823584
  O           -4.568676       19.914029       10.874905
  N           -3.836455       19.416872       13.341364
  C           -1.428120       18.598691       12.242672
  C           -3.900625       21.902449       12.474371
  S           21.572381       -5.067333        8.385272
  S           24.039187       -3.917604        9.229811
  F           21.937369       -4.627722        5.750707
  F           19.928611       -4.143722        6.505883
  F           21.618474       -2.791557        6.917109
  F           26.184159       -2.734300        8.205628
  F           25.886976       -4.812395        7.487565
  F           24.637983       -3.195306        6.705280
  O           20.828609       -4.323914        9.393838
  O           21.152914       -6.411619        8.010222
  O           24.887399       -4.447404       10.291387
  O           23.400495       -2.617631        9.399387
  N           23.161321       -5.091238        8.568246
  C           21.263007       -4.099014        6.810828
  C           25.244798       -3.661026        7.828316
  S            9.474393       12.435500       -0.836278
  S            6.677387       12.589555       -0.313522
  F           10.268458       13.300649        1.590322
  F           11.343772       14.187038       -0.111932
  F            9.300527       14.853630        0.371697
  F            5.010721       13.271321        1.637756
  F            6.348556       11.580577        2.161196
  F            7.128642       13.624476        2.131644
  O            9.321169       13.132274       -2.106751
  O           10.479561       11.390256       -0.691979
  O            5.688755       11.616563       -0.764065
  O            6.633685       13.952669       -0.829877
  N            8.123162       11.900967       -0.167526
  C           10.113698       13.765967        0.318441
  C            6.280937       12.769787        1.501379
  S            7.112859        3.712103       16.884068
  S            8.161397        1.381782       18.145188
  F            4.515096        3.056930       17.183713
  F            5.054929        3.840288       15.200135
  F            5.590234        1.776833       15.755737
  F            7.318470       -0.851982       19.307014
  F            6.635929        0.994642       20.330014
  F            5.687754        0.364671       18.461584
  O            8.021317        3.564578       15.754460
  O            6.738011        5.040164       17.352538
  O            9.316180        1.362132       19.035799
  O            8.229280        0.691406       16.862462
  N            7.451543        2.824411       18.170954
  C            5.487945        3.046763       16.228929
  C            6.878099        0.433366       19.113266
  S            5.607596       -9.595112       17.390778
  S            8.391095       -9.320724       16.845712
  F            5.619791      -12.282519       17.603148
  F            3.956549      -11.448871       16.429133
  F            5.977637      -11.556005       15.559179
  F           10.559751      -10.823388       16.547383
  F            9.629901      -10.992627       18.554657
  F            8.716087      -11.994269       16.837511
  O            5.257866       -8.716136       16.282553
  O            4.804801       -9.593448       18.607017
  O            9.245178       -8.262957       17.373694
  O            8.139871       -9.394897       15.411139
  N            7.146184       -9.586068       17.828322
  C            5.290671      -11.310542       16.705879
  C            9.366824      -10.866000       17.224653
  S          -18.252488       10.025827        0.782231
  S          -16.529962        7.770808        0.521377
  F          -19.996740        9.278225       -1.132470
  F          -19.412018       11.398435       -1.182095
  F          -18.022402        9.852247       -1.911041
  F          -16.298986        5.546707       -0.910438
  F          -18.159787        5.639501        0.294227
  F          -17.982630        6.821603       -1.538307
  O          -17.124459       10.947674        0.753529
  O          -19.419950       10.323940        1.601914
  O          -15.891832        7.074375        1.632623
  O          -15.707680        8.483587       -0.449402
  N          -17.887110        8.484588        1.005527
  C          -18.947566       10.130230       -0.955064
  C          -17.293608        6.375699       -0.455372
  S           25.206064        6.547926        8.673817
  S           27.199363        4.765351        9.658415
  F           23.562483        4.639112        7.713361
  F           23.873568        6.358642        6.376913
  F           25.444818        4.829796        6.593478
  F           27.704247        2.162513        9.801221
  F           25.851839        2.768459       10.861326
  F           25.869946        2.638448        8.677362
  O           26.208034        7.378128        8.018153
  O           24.013737        7.157433        9.248775
  O           27.925338        4.934520       10.911985
  O           27.920538        4.837883        8.393006
  N           25.764772        5.487878        9.733497
  C           24.495964        5.528416        7.270754
  C           26.614530        2.995636        9.756408
  S            6.800346       16.602247        4.799520
  S            7.845527       19.247429        4.975184
  F            4.660184       17.238509        3.288798
  F            4.246108       15.869308        4.960169
  F            4.555068       18.016771        5.342318
  F            7.286171       21.710481        4.156304
  F            7.624938       20.277172        2.497006
  F            5.743047       20.235034        3.612192
  O            6.942726       16.402130        6.235749
  O            7.002563       15.488042        3.882254
  O            9.261497       19.591626        4.914750
  O            7.098534       19.484468        6.204991
  N            7.564156       17.870491        4.193771
  C            4.974487       16.967478        4.587223
  C            7.083405       20.419077        3.738279
  S           23.011435        3.772838        4.348572
  S           23.378399        4.678482        1.671746
  F           20.418727        4.485906        4.540426
  F           21.655878        4.994292        6.287039
  F           21.800112        6.193628        4.444789
  F           22.011803        5.846729       -0.282143
  F           21.181813        3.883201        0.332741
  F           20.866425        5.646323        1.589268
  O           24.230566        4.438420        4.788793
  O           22.613047        2.505405        4.947422
  O           24.161621        3.985048        0.655475
  O           23.814948        5.984996        2.150347
  N           22.823690        3.638617        2.765690
  C           21.651065        4.928749        4.919090
  C           21.770520        5.023161        0.788885
  S            8.985599       -4.938049       16.405986
  S            6.298925       -5.641472       17.044131
  F            8.756825       -5.312664       13.746149
  F           10.586536       -6.135945       14.648379
  F            8.661523       -7.174145       14.912121
  F            4.068258       -6.437181       15.843698
  F            4.775291       -4.443327       15.175070
  F            5.783135       -6.253790       14.472641
  O            9.508668       -5.797209       17.460177
  O            9.659088       -3.687456       16.080177
  O            5.474849       -4.970771       18.043207
  O            6.688084       -7.032120       17.247271
  N            7.415351       -4.638895       16.466060
  C            9.244834       -5.948239       14.848893
  C            5.180203       -5.687905       15.550870
  S           -4.545993       19.599286       -4.209268
  S           -2.925020       21.937611       -4.367185
  F           -2.505456       17.846089       -4.036301
  F           -4.119359       17.263493       -5.413092
  F           -2.672324       18.816694       -6.001947
  F           -0.363103       22.634838       -4.390018
  F           -0.985797       21.597463       -2.530310
  F           -0.677135       20.454192       -4.370035
  O           -5.355644       20.029224       -5.341828
  O           -5.156541       18.857593       -3.113439
  O           -3.223412       23.206391       -3.712774
  O           -2.919557       21.862116       -5.823511
  N           -3.598061       20.716132       -3.566724
  C           -3.388997       18.327916       -4.955730
  C           -1.149091       21.631116       -3.881737
  S          -20.350956       19.297277        8.803246
  S          -17.568634       19.800199        8.448274
  F          -21.176215       21.782772        8.163973
  F          -22.143728       20.907229        9.935131
  F          -20.083974       21.677008       10.069100
  F          -15.932620       21.780022        7.774609
  F          -17.378502       21.239956        6.180820
  F          -18.043033       22.397080        7.914715
  O          -20.117317       18.659635       10.092393
  O          -21.416589       18.817688        7.932534
  O          -16.620853       18.866727        7.850414
  O          -17.432532       20.163348        9.854052
  N          -19.054305       19.529554        7.895764
  C          -20.953788       21.010614        9.265087
  C          -17.223374       21.385540        7.525772
  S           15.828576      -14.946930       13.888445
  S           18.106472      -15.449290       12.251658
  F           16.845385      -12.787264       15.141181
  F           15.818283      -14.225673       16.451026
  F           17.835465      -14.672925       15.686805
  F           20.529345      -14.467618       11.786818
  F           18.891033      -13.037897       11.346094
  F           19.465682      -13.438384       13.418850
  O           15.750305      -16.346163       14.287313
  O           14.610405      -14.164383       13.722916
  O           18.055646      -15.876520       10.858106
  O           18.660720      -16.345286       13.259930
  N           16.778614      -14.630223       12.641086
  C           16.639161      -14.116796       15.360197
  C           19.300957      -14.016088       12.200059
  S          -21.917300        8.393056        3.017891
  S          -19.771511        6.552958        2.657507
  F          -23.885329        6.551139        2.977766
  F          -24.282240        8.363660        1.795870
  F          -22.896299        6.830034        1.034130
  F          -19.360969        3.948806        2.341420
  F          -20.328977        4.468900        4.268820
  F          -21.493740        4.496364        2.416928
  O          -21.397280        9.272602        1.979116
  O          -22.590459        8.954456        4.182111
  O          -18.479551        6.634689        3.329262
  O          -19.842741        6.719433        1.210501
  N          -20.913743        7.261982        3.539735
  C          -23.306234        7.474014        2.158558
  C          -20.273433        4.778257        2.943917
  S           13.599058       11.495780       -3.810048
  S           12.029006        9.132584       -4.075548
  F           12.923551       12.003621       -1.250127
  F           12.908707       13.754579       -2.581885
  F           11.270732       12.284232       -2.672495
  F           10.369795        7.626238       -2.651468
  F           12.413548        7.750270       -1.797011
  F           11.036940        9.438227       -1.590409
  O           13.089910       12.029485       -5.066632
  O           14.973197       11.763253       -3.405177
  O           12.443195        7.930696       -4.790396
  O           10.900071        9.911851       -4.570383
  N           13.311027        9.944918       -3.544258
  C           12.613394       12.419162       -2.510794
  C           11.441656        8.456395       -2.438077
  S          -20.299595       -7.758198       13.523907
  S          -19.405843       -6.618909       11.069630
  F          -22.429619       -6.135415       13.835326
  F          -21.233138       -6.460388       15.652599
  F          -20.497705       -5.113075       14.072416
  F          -20.064728       -4.691209        9.366718
  F          -21.627346       -6.249806        9.593458
  F          -21.342686       -4.749707       11.160495
  O          -18.957235       -7.707857       14.088361
  O          -21.197594       -8.852773       13.869192
  O          -18.869886       -7.375593        9.943896
  O          -18.542242       -5.690360       11.789772
  N          -20.399658       -7.532401       11.943470
  C          -21.155367       -6.281019       14.297098
  C          -20.685507       -5.527340       10.260643
  S          -14.625798       20.002284       10.385389
  S          -12.807164       22.072435        9.659236
  F          -12.749396       18.235248       11.175393
  F          -14.355930       17.393177        9.930557
  F          -12.761613       18.601177        9.007530
  F          -10.196098       22.549422        9.589367
  F          -10.971891       22.144928       11.628224
  F          -10.694972       20.496938       10.216000
  O          -15.354283       20.140332        9.131066
  O          -15.336608       19.656769       11.609762
  O          -13.020134       23.494547        9.902822
  O          -12.755255       21.576263        8.288933
  N          -13.610277       21.187640       10.735286
  C          -13.554781       18.490056       10.105542
  C          -11.082543       21.795380       10.316841
  S           17.321532       11.579259       -1.196086
  S           15.365548        9.681477       -0.363740
  F           18.890089        9.820246       -2.504866
  F           19.963691       11.255126       -1.228875
  F           18.895246        9.555209       -0.322342
  F           14.852191        7.082580       -0.543369
  F           14.923414        8.112715       -2.507079
  F           16.779701        7.658691       -1.441720
  O           17.412343       12.141461        0.145091
  O           17.470586       12.440864       -2.361908
  O           13.927539        9.922933       -0.333343
  O           16.084446        9.455258        0.884708
  N           16.072995       10.616017       -1.464598
  C           18.836358       10.482210       -1.314460
  C           15.491316        8.055161       -1.270824
  S          -13.317622       12.362719       13.390708
  S          -13.764767       15.120959       13.949656
  F          -15.912536       11.712626       13.057234
  F          -14.745095       10.293296       14.266464
  F          -15.386953       12.214661       15.132182
  F          -15.768988       16.847065       14.181436
  F          -15.615197       15.928171       12.167884
  F          -16.433297       14.774735       13.837384
  O          -12.428567       12.228014       14.537229
  O          -13.064320       11.599776       12.175193
  O          -12.929358       16.216262       13.470597
  O          -13.836866       14.842160       15.379232
  N          -13.670646       13.860866       12.955152
  C          -14.929378       11.623391       13.997228
  C          -15.485452       15.688777       13.502054
