        2399
  Built with Packmol                                             
  Ti          -2.855441        2.229755       11.246400
  Ti           7.975036        5.110976        1.881588
  Ti           1.241250       -1.706436        9.426417
  Ti           2.752440        7.455698        3.653386
  Ti           1.753864        9.134007        1.748999
  Ti           3.129451       -1.960779       11.379785
  Ti          -1.906242        0.493870        9.354922
  Ti           5.987220        5.413529        3.729051
  H            3.754491        1.533189        8.602241
  H           -0.186252       -4.222307        6.483198
  H            4.786307       10.856196        4.661866
  H           -2.353563        6.126849       11.026946
  H            8.783818        1.204924        2.202274
  H           -6.815340        1.473136       10.863946
  H           11.357185        7.115275        2.082244
  H            4.105056       -5.995319       10.993862
  H           -2.304659        8.544108        2.071053
  H            4.727684        3.049654        6.848996
  H            0.035867        3.681430        8.401220
  H           -3.665336       -1.693995        6.360589
  H            2.248323        7.497205       -0.124086
  H            6.099510        4.868281        0.181652
  H            3.639358       -2.627888        5.868686
  H            1.029000        9.292718        7.272349
  H           -5.978856        3.882496        8.999012
  H           10.729794        3.026651        4.187587
  H           -3.677750        2.435055        5.665173
  H           -1.346210       10.961867        4.102241
  H            2.146109       12.236841        2.604467
  H            8.625987       -0.813916        3.404762
  H            4.845063        7.135828        2.314757
  H            0.160550        0.141959       10.720043
  H            7.364193       -0.025926        9.769448
  H            5.883069       -0.494990       10.516784
  H            7.938314        4.407710        8.670546
  H            7.368596        4.766292        7.052003
  H            6.875380       -4.980756        9.579418
  H            5.596233       -3.880175       10.036813
  H            1.425195        1.874323        9.361458
  H            1.008323        5.203049        6.646973
  H            6.031760        8.869380        3.866525
  H           -7.731962        8.890218        4.689364
  C            8.553073        4.369740        4.745117
  C           -3.815986        2.491148        8.399367
  C            3.821751       -2.717141        8.501695
  C            0.816322        9.426210        4.612746
  C            9.449095        3.765425        5.740308
  C           -4.747890        3.116163        7.422320
  C            4.761950       -3.331489        7.554506
  C           -0.073496       10.073008        5.612538
  C            9.200332        3.840338        7.146730
  C           -4.531496        2.996185        6.034299
  C            5.891402       -4.091792        8.007572
  C           -1.168225       10.845965        5.167611
  C            0.180998        9.902249        6.967423
  C            4.514243       -3.199354        6.170583
  C           10.582770        3.066439        5.264601
  C           -5.848054        3.808578        7.921002
  C            2.924977        4.216078        6.650019
  C            1.843075        2.527811        8.597691
  C            6.470568        9.512288        4.627853
  C           -1.867744       -2.873623        6.521957
  C            8.764846        1.283992        0.058179
  C            2.295114       13.075580        0.083188
  C           11.249281        7.047107       -0.067827
  C           -2.109052        8.589544       -0.087215
  C            3.499155        5.112520        5.617977
  C           -1.256933       -1.981851        7.536115
  C            8.628990        2.738849        0.034982
  C            2.202361       11.642063        0.045700
  C            9.951446        6.430279       -0.020963
  C           -0.706742        9.003887       -0.062753
  C            1.597294        4.398121        7.081602
  C            3.162817        2.337892        8.169008
  C            5.769511       10.639236        5.075943
  C           -1.171243       -4.011621        6.072589
  C            8.804195        0.614878        1.287859
  C           -2.342636        6.715246       11.940841
  C           11.904581        7.321910        1.166133
  C           -7.376828        1.293757       11.779304
  C            7.737945        9.211994        5.142878
  C           -3.143621       -2.579527        6.003644
  C            3.705306        3.179589        7.197444
  C            1.059848        3.553593        8.053957
  C            7.308935        0.249396       11.793799
  C           -2.806243        8.359124        1.125256
  C            4.146699       -6.522481       11.942914
  C            2.308891       13.826772        1.312468
  N            2.363948       13.227937        2.550629
  N            6.729903        0.066554       10.554829
  N            8.119448        4.486580        7.678019
  N            6.222410       -4.250040        9.324967
  O            7.376747        4.774832        5.110912
  O           -3.046995        1.540283        8.001084
  O            4.203207       -2.592658        9.722805
  O            0.750449        9.855877        3.413146
  O            1.586781        8.468994        4.999201
  O            2.651328       -2.348700        8.096181
  O            8.964947        4.450494        3.533371
  O           -3.858000        2.927396        9.599082
  O            6.292442        4.195622        2.534358
  O           -1.353778        2.054229       10.099438
  O            7.231229        6.482910        2.984337
  O           -3.105958        0.329551       10.592107
  O            1.500552       -2.878399       10.686834
  O            3.268988        9.017012        2.914910
  O            2.454501       -0.616911       10.222657
  O            1.562756        7.259902        2.397478
  O            4.720279        4.932652        5.263729
  O           -1.914597       -0.946915        7.914344
  O            3.871775       -3.732640       11.988892
  O            2.119252       10.940626        1.140895
  O            4.673921       -0.944457       11.983764
  O           -0.116683        9.104896        1.080821
  O           -0.095110       -2.276397        7.993933
  O            2.757324        6.033407        5.124635
  O            9.412111        6.130103        1.127024
  O           -4.742224        2.169711       11.914840
  O            8.616546        3.375778        1.156429
  O           -2.474026        3.952051       11.996107
  O            4.484231        6.587072        3.035431
  O           -0.217709       -0.416738       10.016450
  O            6.938339        5.361952        0.102630
  O            2.370688        8.464002       -0.064115
  N            2.363059        4.586123       11.641469
  N            1.489408        3.087240       12.966990
  C           -6.246380       -8.828250       10.598021
  C           -4.789278       -8.689945       11.068554
  C          -10.529557        4.599805       11.090753
  C            2.301075        3.266184       11.908502
  C            8.073073       -9.357019       12.603399
  C            1.008679        4.315727       13.381668
  C           -4.416080       11.884697       -1.650466
  C            1.154130        1.793039       13.564150
  H          -12.834383        5.187464        9.624599
  H           -6.693390       -7.848114       10.391792
  H           -0.123349       -1.097963       -1.057928
  H           -4.288499       -8.021295       10.347334
  H          -10.977477        3.934281       11.842726
  H          -10.615842        4.069400       10.131165
  H            2.802976        2.476178       11.365087
  H           -3.422620       -0.659364       -0.618464
  H            0.329015        4.406565       14.220647
  H           -4.305476       12.424431       -0.699599
  H           -3.904670       12.492719       -2.411730
  H           -3.878578       10.930862       -1.553581
  H            0.132331        1.512025       13.268699
  H            1.881446        1.040165       13.238308
  H            1.208292        1.901042       14.654502
  S          -15.070362       -2.880752        5.584953
  S          -17.216986       -4.501109        6.526600
  F          -13.435422       -3.322193        7.682453
  F          -13.554962       -1.227867        7.019760
  F          -15.204395       -2.115048        8.179662
  F          -17.845679       -6.033522        8.601816
  F          -16.066498       -6.740811        7.480805
  F          -15.902518       -5.018199        8.819703
  O          -15.974987       -1.779575        5.281414
  O          -13.906335       -3.124394        4.742694
  O          -18.039908       -5.366285        5.689125
  O          -17.822875       -3.351909        7.189058
  N          -15.763920       -4.293763        5.869836
  C          -14.287602       -2.369348        7.209138
  C          -16.720737       -5.632526        7.925584
  S          -14.740765       12.697034       -1.067595
  S          -12.710425       14.607725       -1.656858
  F          -16.606719       13.745643       -2.706509
  F          -17.336910       13.167869       -0.713358
  F          -16.151000       15.007319       -0.964621
  F          -12.327104       16.767668       -3.152777
  F          -12.787058       14.942605       -4.327509
  F          -14.384115       15.985096       -3.255338
  O          -14.524174       12.841887        0.365994
  O          -15.110437       11.401956       -1.624225
  O          -11.292780       14.300228       -1.807931
  O          -13.150912       15.449583       -0.550576
  N          -13.609010       13.321744       -2.009746
  C          -16.278376       13.720769       -1.383738
  C          -13.077624       15.618995       -3.181987
  S          -22.559063       -3.340371       12.097286
  S          -23.349949       -3.954953        9.429508
  F          -20.620443       -5.206604       12.259568
  F          -21.926719       -5.065182       14.024022
  F          -22.651291       -6.045887       12.189272
  F          -22.734306       -5.630443        7.463857
  F          -21.058494       -4.303915        8.059159
  F          -21.607684       -6.005802        9.319675
  O          -23.942061       -3.342991       12.555961
  O          -21.595290       -2.418851       12.685217
  O          -23.719810       -2.969400        8.420063
  O          -24.351571       -4.894731        9.919593
  N          -22.351093       -3.309045       10.511554
  C          -21.909374       -5.007151       12.655835
  C          -22.114418       -5.024617        8.527951
  S            9.348049        8.885381       14.326398
  S           10.069696       11.415525       15.420861
  F            6.687987        9.180578       14.649415
  F            7.484246        7.214587       15.232944
  F            7.788784        8.961633       16.539916
  F            8.933517       13.565526       16.487004
  F            8.309088       13.175203       14.394124
  F            7.500992       11.957384       16.022261
  O           10.348192        8.199907       15.134428
  O            9.040413        8.408773       12.984040
  O           11.125251       12.278815       14.903535
  O           10.206311       10.827047       16.748130
  N            9.483085       10.477636       14.253819
  C            7.746133        8.558806       15.242609
  C            8.622745       12.583680       15.579819
  S           15.227341      -13.072699       -2.788797
  S           14.751472      -12.547892       -5.548938
  F           14.956761      -10.521662       -1.960301
  F           16.667055      -11.604081       -1.098375
  F           16.756683      -10.870481       -3.173680
  F           14.219361      -10.510522       -7.166357
  F           12.671621      -10.838869       -5.611012
  F           14.575791       -9.901777       -5.079105
  O           16.409264      -13.867085       -3.097152
  O           14.377477      -13.433374       -1.661249
  O           13.980696      -13.406071       -6.441422
  O           16.179029      -12.363111       -5.782498
  N           14.270624      -12.738015       -4.026318
  C           15.936652      -11.426085       -2.243116
  C           14.010805      -10.862530       -5.856327
  S           13.735917       -6.862094       12.796598
  S           11.004355       -6.076175       12.593753
  F           14.756380       -4.367155       12.759967
  F           15.808908       -5.822328       11.489413
  F           13.874139       -4.989222       10.844669
  F            9.533789       -3.873716       12.402245
  F           10.727912       -3.986113       14.268751
  F           11.702129       -3.484102       12.375126
  O           13.575546       -7.854807       11.742143
  O           14.640219       -7.117802       13.910408
  O            9.899372       -6.703968       13.309285
  O           11.063896       -6.165325       11.139408
  N           12.381517       -6.264212       13.402333
  C           14.571621       -5.428787       11.925130
  C           10.737917       -4.260679       12.935084
  S           -4.681223       18.558524       17.219910
  S           -1.976896       19.319391       16.742468
  F           -5.706543       19.752793       15.031338
  F           -6.855917       20.056496       16.882380
  F           -4.981804       21.166140       16.551498
  F           -0.531446       20.681597       14.980329
  F           -1.569454       18.924328       14.110299
  F           -2.695617       20.742486       14.571806
  O           -4.605111       18.991222       18.609173
  O           -5.491330       17.402710       16.857224
  O           -0.816021       18.468247       16.977025
  O           -2.154420       20.530059       17.535803
  N           -3.283280       18.427422       16.453525
  C           -5.588105       19.962970       16.372960
  C           -1.687393       19.942234       15.007021
  S           28.321499       19.657528       15.753187
  S           25.477320       19.524728       15.868355
  F           28.722871       17.004480       15.493099
  F           30.056104       18.011985       16.923859
  F           27.963416       17.593633       17.470423
  F           23.523972       17.727469       15.802353
  F           24.758511       17.767084       13.959325
  F           25.537620       16.833672       15.778298
  O           28.372917       20.531825       16.917675
  O           29.288964       19.817593       14.675174
  O           24.570557       20.474973       15.234391
  O           25.518772       19.429257       17.322927
  N           26.880290       19.472123       15.084364
  C           28.772521       17.976313       16.447681
  C           24.798720       17.876104       15.316031
  S           27.692765       17.892766       12.731698
  S           27.866933       15.051330       12.604596
  F           27.274064       18.273310       10.095928
  F           28.727725       19.644905       11.015304
  F           29.298747       17.563164       10.575551
  F           27.745467       13.087058       10.822197
  F           25.879163       14.278747       10.960734
  F           27.623801       15.094629        9.922704
  O           28.903199       17.976001       13.538540
  O           26.603106       18.835856       12.948370
  O           27.309034       14.135390       13.592977
  O           29.312429       15.125956       12.426872
  N           27.048534       16.435439       12.590481
  C           28.280530       18.350452       11.012022
  C           27.238542       14.350994       10.992710
  S           17.853177       -1.020492       18.780795
  S           15.546508       -1.779038       17.289442
  F           19.631276       -2.362129       17.262317
  F           19.923495       -2.561516       19.433608
  F           18.304001       -3.668355       18.430991
  F           14.887765       -3.233139       15.167717
  F           16.251241       -1.546247       14.701092
  F           17.028867       -3.344398       15.675197
  O           17.206990       -1.363755       20.040830
  O           18.781788        0.100803       18.716760
  O           14.421243       -0.901586       16.987859
  O           15.344826       -2.939175       18.149686
  N           16.889498       -0.922059       17.507841
  C           18.973648       -2.485853       18.449907
  C           15.960280       -2.506814       15.621312
  S           16.704217       -2.678566       -0.929350
  S           18.606491       -1.443570       -2.654571
  F           14.540120       -2.107806       -2.432122
  F           14.293491       -1.758658       -0.274131
  F           15.456665       -0.342102       -1.496215
  F           18.702303       -0.110613       -4.948936
  F           17.896586       -2.168101       -5.148862
  F           16.651950       -0.583719       -4.295899
  O           17.268556       -2.017788        0.240252
  O           16.157860       -4.024829       -0.816261
  O           19.931132       -1.975303       -2.954041
  O           18.482853       -0.185953       -1.926748
  N           17.597446       -2.630279       -2.255467
  C           15.178906       -1.659997       -1.314280
  C           17.921041       -1.066326       -4.349082
  S           -6.036609        1.729770       16.385020
  S           -3.468183        0.702220       17.068819
  F           -7.247981       -0.665767       16.137258
  F           -7.709867        0.780247       14.544978
  F           -5.766827       -0.257685       14.564574
  F           -2.242939       -1.625242       17.431809
  F           -3.929373       -1.280296       18.831580
  F           -4.328585       -1.830126       16.751857
  O           -5.462654        2.628341       15.391934
  O           -7.205227        2.139385       17.153309
  O           -2.574424        1.282783       18.064427
  O           -3.073761        0.693217       15.664908
  N           -4.998953        1.063214       17.403721
  C           -6.710555        0.314733       15.357550
  C           -3.505663       -1.100709       17.550030
  S           18.024874       20.182345       17.492453
  S           16.067382       22.175593       16.930815
  F           16.879543       19.286160       19.762359
  F           19.058652       19.569035       19.867804
  F           17.714147       21.312879       19.934199
  F           13.821012       23.159472       17.948593
  F           13.689380       21.009586       17.416546
  F           14.761390       21.626467       19.221313
  O           19.113792       21.123997       17.267457
  O           18.182675       18.780678       17.126187
  O           15.558494       22.495325       15.601944
  O           16.838820       23.171459       17.665490
  N           16.581528       20.653076       16.988525
  C           17.900453       20.095049       19.360373
  C           14.505558       21.970061       17.931808
  S           -7.727003       -1.273853       10.997457
  S           -5.185440       -2.358740       10.301952
  F           -8.951351       -3.642347       11.395720
  F          -10.117998       -2.172624       10.247460
  F           -8.450722       -3.249227        9.291317
  F           -3.994833       -4.713452       10.005553
  F           -4.743224       -4.348021       12.061952
  F           -6.144015       -4.870361       10.464493
  O           -7.709280       -0.377681        9.848703
  O           -8.343060       -0.848203       12.247663
  O           -3.900293       -1.805422       10.713455
  O           -5.548998       -2.362510        8.889712
  N           -6.333182       -1.970437       11.359138
  C           -8.856354       -2.665528       10.449702
  C           -5.015926       -4.164973       10.740483
  S           12.564667       12.860419        0.848790
  S           12.224055       11.524300        3.342586
  F           15.243241       13.111599        1.020719
  F           14.181676       14.911037        0.331693
  F           14.144708       14.355195        2.463070
  F           13.667618       10.655719        5.394844
  F           14.205434        9.704997        3.463707
  F           14.850647       11.751014        3.893177
  O           11.486540       13.793192        1.149871
  O           12.785442       12.415362       -0.521211
  O           11.296395       10.424408        3.580871
  O           12.020489       12.798307        4.022350
  N           12.657215       11.573840        1.794797
  C           14.114273       13.854171        1.200080
  C           13.824555       10.873981        4.048993
  S           16.000369       -2.495902        9.512847
  S           16.060804       -1.219343        6.965889
  F           13.337247       -2.911433        9.563029
  F           14.196680       -2.152410       11.440503
  F           13.904517       -0.793965        9.731012
  F           14.406845       -0.483261        5.023553
  F           14.428553       -2.671076        5.391524
  F           13.377170       -1.339569        6.773050
  O           16.825604       -1.451810       10.106086
  O           16.132539       -3.876041        9.961701
  O           17.094251       -1.418498        5.956226
  O           15.909285        0.088350        7.593260
  N           15.939976       -2.512155        7.914452
  C           14.267555       -2.057374       10.076118
  C           14.484578       -1.451023        5.993592
  S           -0.482696       18.483493        8.041150
  S            1.650890       16.679115        7.482330
  F            1.039466       20.706164        8.141952
  F           -0.454316       20.527111        9.747010
  F            1.387510       19.320281        9.812844
  F            4.281588       16.694075        7.122790
  F            3.173845       17.911479        5.635094
  F            3.461112       18.664492        7.669149
  O           -0.998576       17.618466        9.094084
  O           -1.400458       19.259190        7.216694
  O            1.571339       15.551591        6.560669
  O            1.844889       16.432901        8.906534
  N            0.601478       17.824507        7.066942
  C            0.434600       19.819541        8.982303
  C            3.216568       17.541200        6.944758
  S           -5.414709        5.753331       -4.211795
  S           -5.474495        7.014631       -1.657231
  F           -5.409448        3.222635       -3.282840
  F           -3.990442        3.617574       -4.916884
  F           -3.546754        4.317281       -2.875648
  F           -5.507048        6.379741        0.920737
  F           -7.261465        5.619350       -0.204534
  F           -5.319171        4.633148       -0.409055
  O           -4.332296        6.617856       -4.663516
  O           -6.437087        5.310047       -5.150924
  O           -6.248948        8.207058       -1.332525
  O           -4.017634        7.071628       -1.626888
  N           -6.157128        6.209656       -2.870393
  C           -4.544492        4.149828       -3.783157
  C           -5.920252        5.844196       -0.273430
  S           18.756831       10.980933        9.300293
  S           17.102927        9.213323       10.803758
  F           17.976348       10.109002        6.871715
  F           20.144067       10.404672        7.102421
  F           19.168487        8.643073        7.995788
  F           15.327472        7.276254       10.422194
  F           14.714352        9.226769        9.560808
  F           16.232693        8.014966        8.554278
  O           19.921089       10.656246       10.114023
  O           18.587373       12.327959        8.770648
  O           16.389586        9.572437       12.024117
  O           18.173077        8.224245       10.859578
  N           17.344388       10.511904        9.886633
  C           19.014824        9.969693        7.743674
  C           15.775223        8.400269        9.774357
  S           19.467339        2.807647       -4.423728
  S           21.694552        4.571393       -4.202432
  F           20.662414        1.040917       -6.072324
  F           18.601467        1.579956       -6.621495
  F           20.251765        2.986575       -7.010125
  F           24.184321        4.819796       -5.090922
  F           23.846361        2.982309       -3.894331
  F           23.114548        3.097404       -5.953003
  O           18.559154        3.915296       -4.690913
  O           19.007179        1.651082       -3.665882
  O           22.106753        5.246413       -2.977061
  O           21.211185        5.358674       -5.330775
  N           20.910027        3.209699       -3.861781
  C           19.776051        2.075395       -6.121000
  C           23.288669        3.817470       -4.813917
  S           29.342793      -14.325749       -1.346201
  S           30.789772      -12.273673       -2.693600
  F           29.686437      -16.211754       -3.241538
  F           27.648011      -16.071770       -2.426138
  F           28.368851      -14.564867       -3.862357
  F           32.124520      -11.879640       -4.954850
  F           32.994150      -13.469155       -3.674383
  F           31.179498      -13.866015       -4.830441
  O           28.231306      -13.424398       -1.071908
  O           29.702162      -15.358141       -0.382488
  O           31.682453      -11.318747       -2.046813
  O           29.566742      -11.799064       -3.330432
  N           30.697701      -13.631639       -1.837337
  C           28.738383      -15.334868       -2.805171
  C           31.827041      -12.916205       -4.105956
  S           -8.452805       20.271793       11.323348
  S           -7.804032       17.515432       11.004259
  F           -7.606191       20.472894       13.874859
  F           -9.542831       21.429751       13.458322
  F           -9.409607       19.238077       13.636948
  F           -6.769260       15.499382       12.388042
  F           -5.378513       17.209072       12.132708
  F           -7.019024       17.338990       13.574505
  O           -9.781616       20.070720       10.760403
  O           -7.737948       21.518859       11.083503
  O           -7.237740       16.925120        9.796807
  O           -9.141886       17.127927       11.436232
  N           -7.416321       19.072548       11.108198
  C           -8.765308       20.339842       13.169950
  C           -6.679484       16.868231       12.345916
  S           18.004938       14.170592       -3.861188
  S           20.337440       14.705469       -2.314064
  F           18.121377       11.486534       -3.638296
  F           17.677712       12.234620       -5.658985
  F           19.730909       12.341778       -4.867788
  F           22.230033       13.407702       -0.978415
  F           20.186397       13.060678       -0.187508
  F           20.828627       12.072583       -2.030912
  O           18.444897       15.071204       -4.918736
  O           16.586570       14.043858       -3.551528
  O           20.476038       15.803766       -1.364522
  O           21.165541       14.682114       -3.514196
  N           18.792977       14.287416       -2.474059
  C           18.420138       12.470903       -4.532674
  C           20.914097       13.230937       -1.325760
  S           32.082455        3.215180        0.431666
  S           30.209643        5.356076        0.260224
  F           30.295650        1.237208        0.028726
  F           31.738711        0.872565        1.648684
  F           30.058223        2.262835        1.958856
  F           27.612487        5.756665       -0.119739
  F           28.617144        4.757132       -1.826785
  F           28.163139        3.626194       -0.009702
  O           32.660908        3.759134        1.653378
  O           32.928130        2.524475       -0.533466
  O           30.461925        6.636158       -0.391574
  O           29.994015        5.311992        1.701811
  N           31.125004        4.202360       -0.385367
  C           30.972999        1.836519        1.048616
  C           28.571106        4.838449       -0.468322
  S           14.002207        0.414849       -5.562751
  S           12.984420        0.721079       -2.918780
  F           15.103598        2.869515       -5.732918
  F           13.981690        2.226990       -7.512845
  F           12.905249        2.887187       -5.707710
  F           12.887436        2.529318       -0.976891
  F           14.949885        1.920402       -1.522725
  F           13.829091        3.276649       -2.823243
  O           12.728572       -0.106777       -6.041118
  O           15.252762       -0.085422       -6.119133
  O           12.990093       -0.318706       -1.896083
  O           11.713947        1.210773       -3.440997
  N           14.174354        0.483350       -3.973899
  C           13.991574        2.196596       -6.143691
  C           13.710694        2.186920       -2.020247
  S          -12.085047        0.198084        2.675003
  S          -12.355402        2.295388        4.585100
  F          -14.410742       -1.030481        3.265918
  F          -12.686070       -2.372958        3.015085
  F          -12.901223       -1.183775        4.856999
  F          -14.044725        3.135067        6.453574
  F          -14.918944        3.101372        4.414698
  F          -14.646879        1.232631        5.519559
  O          -10.716759       -0.071261        3.097277
  O          -12.462909        0.041971        1.276228
  O          -11.978010        3.685717        4.357823
  O          -11.639705        1.508676        5.582835
  N          -12.716703        1.572711        3.194801
  C          -13.075464       -1.156562        3.509410
  C          -14.085885        2.444438        5.268280
  S            2.215925       -6.920777       -0.570585
  S            0.812128       -9.213067       -1.516636
  F            1.027647       -6.833728        1.847642
  F            1.217936       -4.890919        0.833278
  F           -0.317823       -6.330385        0.183298
  F           -1.044514      -10.932414       -0.712402
  F            0.782928      -10.944098        0.545663
  F           -0.664376       -9.314083        0.733534
  O            1.948914       -6.192308       -1.803919
  O            3.472052       -6.719604        0.140327
  O            1.401248      -10.283157       -2.313467
  O           -0.221875       -8.366250       -2.100033
  N            1.934182       -8.494727       -0.616239
  C            0.960398       -6.220853        0.631906
  C           -0.065664      -10.145592       -0.158917
  S           12.879937       -1.174920       13.168302
  S           11.649344       -0.289316       10.755503
  F           10.828817       -0.525045       14.792486
  F           12.821193        0.033027       15.539916
  F           11.869425        1.215639       13.943464
  F            9.388330        0.823138        9.918648
  F            9.102493       -1.153827       10.884212
  F            9.503367        0.614299       12.108941
  O           14.116658       -0.474268       12.847859
  O           12.922682       -2.445402       13.880880
  O           11.741451       -0.973829        9.470959
  O           12.244540        1.032823       10.911398
  N           11.836098       -1.330888       11.966282
  C           12.047701       -0.047384       14.412597
  C            9.815090        0.005393       10.934892
  S           20.232017       14.815483       17.960284
  S           17.983412       13.155993       17.403403
  F           18.825956       17.080972       18.357722
  F           20.633768       17.311244       17.125470
  F           18.823048       16.394059       16.269224
  F           15.339730       13.314646       17.214078
  F           16.119618       13.829590       19.226295
  F           16.309752       15.258619       17.580496
  O           20.947027       14.315535       16.793286
  O           20.962926       15.164291       19.171823
  O           17.828363       11.779187       17.858880
  O           18.104260       13.433415       15.976852
  N           18.942625       13.976768       18.399380
  C           19.579990       16.479007       17.394798
  C           16.359415       13.936514       17.890175
  S           12.951179        4.472403       16.857551
  S           12.372297        5.764209       14.384419
  F           10.407290        3.783331       17.424310
  F           11.544871        4.615468       19.113425
  F           10.781834        5.947029       17.532978
  F           10.297703        6.337349       12.829543
  F           10.611549        4.161265       13.127146
  F            9.730194        5.368245       14.725065
  O           13.769741        5.592539       17.302890
  O           13.308028        3.110570       17.234100
  O           13.197279        5.679314       13.184714
  O           12.219341        7.045281       15.064179
  N           12.573888        4.459949       15.303114
  C           11.331233        4.725824       17.765174
  C           10.664578        5.376793       13.738564
  S          -14.720172       -9.606192        9.374663
  S          -12.856397      -11.741023        9.673149
  F          -13.197910       -7.726949       10.565702
  F          -15.314259       -7.728896       11.166299
  F          -13.943265       -9.266340       11.947153
  F          -10.441033      -12.202963       10.674494
  F          -10.455214      -10.696424        9.045829
  F          -11.165019      -10.155027       11.043327
  O          -15.811434      -10.427960        9.881534
  O          -14.972410       -8.614429        8.337116
  O          -12.592801      -12.765954        8.669592
  O          -13.458675      -12.117957       10.946646
  N          -13.383799      -10.390550        8.977588
  C          -14.257598       -8.538142       10.843514
  C          -11.142414      -11.158053       10.126944
  S           21.761278        5.301459        2.917058
  S           20.138088        7.603905        3.346299
  F           22.818432        5.228816        5.395879
  F           24.256227        4.913779        3.760902
  F           23.501878        6.937864        4.193489
  F           19.559423        9.352760        5.258555
  F           19.027194        7.261759        5.775136
  F           21.117174        7.906028        5.837011
  O           22.274249        5.840915        1.664492
  O           21.550075        3.867006        3.063539
  O           18.784995        7.779623        2.831169
  O           21.208046        8.473738        2.871754
  N           20.478536        6.042084        3.521068
  C           23.148336        5.626897        4.134591
  C           19.952190        8.042131        5.150994
  S          -14.221875       -6.864052        2.232103
  S          -14.303738       -4.356125        0.881603
  F          -15.405303       -6.008984        4.498325
  F          -13.642539       -7.291261        4.795109
  F          -13.389108       -5.188145        4.190321
  F          -15.113141       -1.859284        1.282498
  F          -16.752986       -3.350982        1.372792
  F          -15.359585       -3.153987        3.048070
  O          -12.818722       -7.054373        1.888572
  O          -15.119285       -8.010033        2.303544
  O          -14.594435       -4.180481       -0.536756
  O          -12.982451       -4.012232        1.394000
  N          -14.982965       -5.704256        1.435613
  C          -14.162266       -6.292169        4.015814
  C          -15.448758       -3.125317        1.692505
  S           27.926787       14.868688       -2.476361
  S           29.845549       16.867075       -3.143485
  F           25.761909       16.283105       -3.238028
  F           25.560608       15.236920       -1.313287
  F           26.754922       17.083215       -1.447096
  F           29.954078       19.326509       -4.138206
  F           29.072551       17.841899       -5.531494
  F           27.898283       18.590688       -3.844088
  O           28.531988       14.660408       -1.167383
  O           27.334535       13.747742       -3.194999
  O           31.145692       16.606809       -3.750925
  O           29.777885       17.413948       -1.793313
  N           28.800980       15.704907       -3.522928
  C           26.433121       15.937274       -2.103115
  C           29.148401       18.218857       -4.225239
  S           26.773345       -0.805181        4.440477
  S           26.829450        0.450079        6.998098
  F           24.802939        0.721683        3.414029
  F           24.621061       -1.432138        3.004600
  F           24.128379       -0.642051        5.001128
  F           25.608405        2.392963        8.333881
  F           26.659480        3.092583        6.509551
  F           24.753388        2.032647        6.335544
  O           26.752164       -2.132109        5.042047
  O           27.476349       -0.583215        3.183402
  O           28.039051        0.741190        7.759159
  O           25.866686       -0.514517        7.516993
  N           27.150392        0.399300        5.423248
  C           24.986518       -0.516068        3.954790
  C           25.917838        2.078321        7.034329
  S           14.203279       21.359343        6.458869
  S           12.956107       19.772281        8.470348
  F           13.008004       20.157769        4.362456
  F           15.163221       20.526245        4.119724
  F           14.462175       18.878484        5.402888
  F           11.232172       17.765365        8.694861
  F           10.373851       19.571631        7.734081
  F           11.722754       18.269055        6.606833
  O           15.517009       21.169381        7.059785
  O           13.872034       22.620647        5.808400
  O           12.477060       20.274830        9.752944
  O           14.061479       18.821686        8.436660
  N           12.954644       20.942829        7.367829
  C           14.201169       20.156612        5.021628
  C           11.493172       18.802826        7.835129
  S          -17.236836       10.134712       -4.404359
  S          -15.716391        7.788228       -3.854349
  F          -19.237292        8.882259       -5.707028
  F          -18.516436       10.728293       -6.662107
  F          -17.330508        8.877012       -6.801483
  F          -15.806459        5.166908       -4.267427
  F          -17.505474        5.936680       -3.066092
  F          -17.458562        6.262325       -5.229119
  O          -16.058351       10.838361       -4.893363
  O          -18.278803       10.861540       -3.690393
  O          -15.004618        7.527286       -2.608402
  O          -14.963697        7.959391       -5.091591
  N          -16.956054        8.780490       -3.600603
  C          -18.118099        9.613221       -5.973961
  C          -16.682226        6.212563       -4.115046
  S           24.768913       -4.802227        3.921493
  S           26.803996       -5.452396        5.807220
  F           23.540743       -2.952425        5.450295
  F           22.193082       -4.357401        4.425842
  F           23.322374       -5.006777        6.202385
  F           27.595304       -4.784578        8.252198
  F           27.636363       -3.097122        6.812331
  F           25.729881       -3.789109        7.632948
  O           24.474424       -6.209676        3.686036
  O           24.662326       -3.840484        2.831809
  O           28.197917       -5.720675        5.472399
  O           25.978789       -6.518442        6.363270
  N           26.130757       -4.496733        4.703050
  C           23.395626       -4.254256        5.073030
  C           26.944659       -4.207366        7.190562
  S           -3.560595       19.803541       -1.739264
  S           -5.023262       17.385071       -1.376140
  F           -1.252439       18.632997       -2.494013
  F           -1.033971       20.273577       -1.044730
  F           -1.760879       18.302858       -0.380678
  F           -4.683654       14.758506       -1.565579
  F           -4.388655       15.833894       -3.483631
  F           -2.841861       15.908844       -1.938076
  O           -4.005180       20.318886       -0.450917
  O           -3.360837       20.712201       -2.860939
  O           -6.420853       17.190913       -1.745109
  O           -4.635738       17.335894        0.028858
  N           -4.350445       18.525545       -2.288483
  C           -1.817986       19.206454       -1.394260
  C           -4.185721       15.901737       -2.138876
  S           28.052674       -8.728943       17.846785
  S           25.675882       -8.362148       19.375368
  F           27.987512      -11.423951       17.856226
  F           29.961993      -10.538964       18.253557
  F           28.417474      -10.543539       19.824395
  F           23.793189       -9.797143       20.578001
  F           23.901633      -10.130170       18.387170
  F           25.403695      -11.021241       19.705022
  O           28.784927       -7.778344       18.673368
  O           28.339179       -8.831412       16.421605
  O           24.675761       -7.329514       19.129355
  O           26.448790       -8.336286       20.611716
  N           26.462464       -8.722309       18.019896
  C           28.620447      -10.395608       18.488725
  C           24.644263       -9.911935       19.507450
  S            6.818886       13.264185       10.539356
  S            4.696703       13.956258       12.310690
  F            8.439840       12.223679       12.425426
  F            9.430458       13.545587       10.972536
  F            8.190299       14.402634       12.578950
  F            4.086542       13.839473       14.892188
  F            4.423078       11.851129       13.967179
  F            6.126516       13.139488       14.441899
  O            6.786160       14.579721        9.913762
  O            7.136267       12.084317        9.745064
  O            3.276963       13.812569       12.009384
  O            5.261247       15.287127       12.502245
  N            5.564586       12.900707       11.463149
  C            8.284990       13.368625       11.702050
  C            4.846896       13.145045       13.984875
  S           -1.850674       13.456063       12.889272
  S           -4.329487       14.105928       11.642912
  F           -2.232696       10.787579       12.914958
  F           -1.433187       11.631691       14.782553
  F           -3.563074       11.883870       14.279481
  F           -6.503925       12.908661       10.700342
  F           -4.636962       12.305476        9.664471
  F           -5.085123       11.520904       11.657089
  O           -2.050013       14.469498       13.917031
  O           -0.509785       13.167909       12.396622
  O           -4.509641       15.141331       10.631686
  O           -4.971031       14.250918       12.944454
  N           -2.820784       13.549992       11.620871
  C           -2.309582       11.858454       13.754879
  C           -5.171761       12.628260       10.874410
  S           29.340250        4.787002        4.669372
  S           30.779878        2.391332        5.224787
  F           31.495669        6.277680        4.037351
  F           30.028660        7.268768        5.343216
  F           31.385807        5.741283        6.166645
  F           33.274975        1.484090        5.263104
  F           32.611857        2.178342        3.262930
  F           33.132215        3.635464        4.809847
  O           28.577395        4.668609        5.905135
  O           28.717407        5.345341        3.476038
  O           30.339614        1.049188        4.861588
  O           30.889173        2.757294        6.632174
  N           30.152351        3.482692        4.224349
  C           30.640919        6.072507        5.079204
  C           32.537686        2.432017        4.598707
  S          -15.211375       13.995472        2.107894
  S          -12.579508       15.058262        1.854915
  F          -16.397188       16.321232        2.780274
  F          -17.008723       14.582862        3.981835
  F          -15.052681       15.534033        4.331501
  F          -11.289470       17.366282        2.097637
  F          -12.865251       17.388305        0.535959
  F          -13.418643       17.490717        2.650244
  O          -14.733542       12.885191        2.921544
  O          -16.322247       13.800827        1.184965
  O          -11.619717       14.675642        0.825595
  O          -12.297585       14.751384        3.252398
  N          -14.084875       14.830068        1.337683
  C          -15.940248       15.178174        3.365745
  C          -12.547676       16.922721        1.775528
  S           32.019731       18.580768        3.586563
  S           31.048301       16.062221        2.673601
  F           31.232600       19.991877        1.428647
  F           33.263111       20.442121        2.145554
  F           32.875741       18.590409        1.016750
  F           29.800441       15.003913        0.582455
  F           28.617017       16.561344        1.629509
  F           30.278265       17.139656        0.328455
  O           33.309061       18.004420        3.945068
  O           31.453376       19.659827        4.385684
  O           30.402506       15.061333        3.515187
  O           32.336424       15.763553        2.058663
  N           30.847230       17.534038        3.289279
  C           32.359734       19.431246        1.951536
  C           29.871419       16.210501        1.232600
  S          -21.300550       10.385449        5.469481
  S          -19.130472       10.736132        3.656187
  F          -21.167836        7.694415        5.559651
  F          -23.197416        8.520499        5.364602
  F          -21.848995        8.481148        3.622963
  F          -17.366293        9.290658        2.296649
  F          -17.207441        9.048992        4.496370
  F          -18.830868        8.071644        3.402658
  O          -22.149180       11.284598        4.698487
  O          -21.414529       10.337800        6.921534
  O          -18.135164       11.798844        3.740441
  O          -20.043987       10.693297        2.520286
  N          -19.742482       10.417729        5.108701
  C          -21.897014        8.681543        4.966329
  C          -18.082166        9.203884        3.464373
  S           14.851294       -9.681892        9.536686
  S           13.224690       -8.644986        7.439250
  F           17.028740       -8.195699        8.973334
  F           17.433840      -10.314511        9.404825
  F           16.587288       -9.726194        7.457949
  F           13.353892       -6.898413        5.443540
  F           13.648100       -5.985833        7.444302
  F           15.260714       -7.140346        6.520448
  O           14.502905      -11.053548        9.189905
  O           15.071896       -9.313069       10.929174
  O           11.801855       -8.346504        7.555627
  O           13.666990       -9.706059        6.541972
  N           13.943215       -8.543760        8.874244
  C           16.556244       -9.461204        8.790582
  C           13.912903       -7.083471        6.683235
  S          -13.568092        9.119458       13.313955
  S          -15.863728       10.714604       13.866961
  F          -12.815771        8.798079       15.882638
  F          -11.183212        9.273687       14.486857
  F          -12.572263       10.853437       15.141091
  F          -17.161450       11.757674       15.935291
  F          -17.069049        9.541213       15.969519
  F          -15.303047       10.718283       16.501188
  O          -13.116064       10.046436       12.284655
  O          -13.336879        7.688641       13.162222
  O          -17.140153       10.611532       13.168957
  O          -15.072896       11.933822       13.745685
  N          -15.075098        9.314261       13.813719
  C          -12.491636        9.543421       14.788310
  C          -16.371039       10.669353       15.662541
  S           18.994206      -11.443599       13.452494
  S           16.147945      -11.381325       13.575654
  F           19.248663      -14.069036       14.009039
  F           20.645293      -12.750325       15.081458
  F           18.537036      -12.870285       15.709117
  F           14.099245      -13.006200       14.036821
  F           15.320452      -13.591651       12.279463
  F           16.061033      -13.973155       14.302561
  O           19.101738      -10.262692       14.299235
  O           19.960953      -11.669017       12.385579
  O           15.289579      -10.619175       12.675971
  O           16.194891      -11.035350       14.991532
  N           17.540139      -11.743976       12.857313
  C           19.358186      -12.858562       14.626218
  C           15.376563      -13.080514       13.540313
  S           24.583842       12.602039        4.376167
  S           22.124360       13.542542        5.465503
  F           23.515699       11.511146        2.154359
  F           25.020006       10.268780        3.170844
  F           22.988103       10.445301        4.003494
  F           19.530400       13.567991        4.899116
  F           20.779645       14.614209        3.393386
  F           20.732688       12.427470        3.447237
  O           24.974103       12.011250        5.649642
  O           25.593326       13.179068        3.497703
  O           21.947274       14.819180        6.148094
  O           21.952202       12.299051        6.207598
  N           23.351482       13.620495        4.429247
  C           23.979505       11.134457        3.379569
  C           20.727206       13.539562        4.227974
  S           -8.485901       -6.738033        7.242568
  S          -10.677898       -5.353743        8.425420
  F           -9.685622       -9.150396        7.149927
  F           -7.602568       -9.173043        7.857053
  F           -9.213316       -8.476094        9.188536
  F          -13.142980       -5.819886        9.294986
  F          -12.869914       -6.233180        7.132342
  F          -12.093932       -7.636317        8.620962
  O           -7.548355       -6.162464        8.197974
  O           -8.066793       -6.994939        5.870682
  O          -11.100074       -4.002715        8.073872
  O          -10.154457       -5.620388        9.760157
  N           -9.930569       -6.053596        7.185485
  C           -8.775950       -8.468218        7.901779
  C          -12.275387       -6.316307        8.354545
  S           12.880036      -13.360758        6.451377
  S           12.714468      -12.269446        3.824236
  F           15.550357      -13.730475        6.441332
  F           14.380957      -15.409674        7.249075
  F           14.467746      -15.069420        5.074268
  F           14.288601      -11.667116        1.772561
  F           14.776120      -10.548814        3.625703
  F           15.351675      -12.650827        3.432807
  O           11.777860      -14.276983        6.189053
  O           13.055539      -12.789323        7.780430
  O           11.847369      -11.164233        3.432138
  O           12.488037      -13.596462        3.263549
  N           13.072235      -12.180060        5.389402
  C           14.399973      -14.443440        6.278697
  C           14.372857      -11.755137        3.139578
  S            9.415647       16.886521        4.159131
  S           12.157658       17.078901        3.407723
  F            9.742164       14.877178        5.926428
  F            8.016529       14.660949        4.579177
  F           10.053695       14.274090        3.835275
  F           14.494998       15.939035        3.944021
  F           13.550277       16.901933        5.705480
  F           12.797635       14.982633        4.972850
  O            8.987216       16.886840        2.766465
  O            8.593221       17.527094        5.177465
  O           12.869060       18.326990        3.156178
  O           11.946878       16.137063        2.314504
  N           10.932867       17.320196        4.421329
  C            9.318776       15.079531        4.646604
  C           13.301735       16.180905        4.577430
  S          -17.305344       -4.511901       15.384702
  S          -16.037042       -2.415124       13.930335
  F          -17.946511       -6.006197       13.234494
  F          -19.544640       -5.794866       14.731483
  F          -19.076759       -4.125447       13.372358
  F          -15.469957       -1.734472       11.427298
  F          -14.528566       -3.639315       12.065863
  F          -16.661991       -3.580730       11.584204
  O          -18.084614       -3.560051       16.165595
  O          -16.841166       -5.751527       15.994281
  O          -14.825662       -1.720710       14.351574
  O          -17.295126       -1.682429       13.846701
  N          -16.085218       -3.896963       14.552884
  C          -18.525432       -5.129812       14.103375
  C          -15.653415       -2.878165       12.163432
  S            6.098804      -14.438401        0.023155
  S            8.164987      -15.639168        1.575346
  F            5.759720      -12.286637        1.611343
  F            3.899536      -13.240715        0.926430
  F            5.095080      -14.172731        2.524902
  F            9.546798      -15.204232        3.800541
  F            9.813317      -13.624874        2.265288
  F            7.970496      -13.707302        3.441785
  O            5.370841      -15.697550       -0.064514
  O            6.079659      -13.503208       -1.094329
  O            9.335879      -16.314440        1.027520
  O            7.181390      -16.403900        2.333196
  N            7.609057      -14.541403        0.540170
  C            5.176965      -13.491301        1.351853
  C            8.909994      -14.473899        2.828596
  S           -6.238016      -11.227456       14.803674
  S           -3.422144      -11.465262       15.170505
  F           -6.167201      -11.096180       12.111991
  F           -7.506297       -9.643844       13.080080
  F           -5.326801       -9.324094       13.105533
  F           -1.188164      -11.555760       13.738301
  F           -2.594931      -13.213751       13.297299
  F           -2.993204      -11.206067       12.524308
  O           -6.327832      -10.185960       15.818708
  O           -7.325917      -12.182798       14.637799
  O           -2.778095      -12.326101       16.156025
  O           -3.292621      -10.017238       15.284803
  N           -4.865507      -12.048233       14.767291
  C           -6.295304      -10.273681       13.191453
  C           -2.512235      -11.887975       13.596688
  S           18.216345       -6.305695        6.921472
  S           16.060757       -5.582927        5.203538
  F           20.141486       -5.053672        5.509495
  F           20.659015       -7.078087        6.197653
  F           19.295794       -6.807490        4.488413
  F           15.615978       -4.231083        2.961941
  F           16.459381       -2.990104        4.596276
  F           17.749913       -4.369559        3.492392
  O           17.788957       -7.698459        6.946423
  O           18.819436       -5.704448        8.104055
  O           14.727488       -5.198724        5.652843
  O           16.235662       -6.808181        4.432321
  N           17.154452       -5.261503        6.337668
  C           19.640926       -6.306608        5.703771
  C           16.502530       -4.218119        4.009529
  S           22.197104       11.099089       19.901633
  S           23.733666       12.840856       18.250731
  F           21.266369        9.552210       17.899558
  F           19.766296       10.137154       19.398650
  F           20.448668       11.593044       17.892713
  F           24.325279       13.213419       15.689236
  F           24.975921       11.243100       16.474676
  F           22.864483       11.598579       16.024793
  O           21.599866       12.223680       20.609924
  O           22.479748        9.856428       20.608475
  O           25.050730       13.367221       18.590402
  O           22.603670       13.753998       18.124661
  N           23.473007       11.442064       18.999846
  C           20.857752       10.578122       18.698739
  C           23.987315       12.178158       16.524459
  S           -7.637162       11.800213       16.777565
  S           -7.093639        9.065176       16.190707
  F          -10.322192       11.560689       16.803018
  F           -9.554470       13.319239       15.727027
  F           -9.432572       11.321399       14.806772
  F           -8.385129        6.789312       15.740634
  F           -8.766363        7.645379       17.751659
  F           -9.723768        8.521370       15.990141
  O           -6.718306       12.252126       15.740959
  O           -7.784689       12.565980       18.008646
  O           -6.005621        8.286673       16.771436
  O           -7.092200        9.349580       14.760419
  N           -7.528127       10.255935       17.180175
  C           -9.323304       11.993814       15.982788
  C           -8.573307        7.955201       16.439831
  S           27.616173       -3.476141       16.744517
  S           25.465658       -5.341108       16.876561
  F           29.228979       -5.004696       15.218154
  F           30.218942       -4.009656       16.912120
  F           28.950077       -5.777059       17.257604
  F           24.828145       -7.769940       16.013764
  F           25.200251       -6.315292       14.380379
  F           26.881762       -7.166173       15.491888
  O           27.573751       -3.256521       18.184323
  O           27.957394       -2.379732       15.847201
  O           24.051322       -4.990747       16.813347
  O           26.011070       -5.916787       18.100380
  N           26.356319       -4.237532       16.118552
  C           29.067713       -4.640466       16.521796
  C           25.607375       -6.711839       15.617777
  S           -6.018280       21.697710        8.794995
  S           -4.013921       21.980921       10.800634
  F           -5.811166       19.020367        8.557624
  F           -5.938245       20.116738        6.654607
  F           -4.058495       20.112569        7.803353
  F           -2.317009       20.493592       12.200066
  F           -4.446517       19.973638       12.542493
  F           -3.450851       19.349239       10.697037
  O           -5.448153       22.783368        8.007991
  O           -7.460843       21.492652        8.821140
  O           -4.093569       22.889856       11.938434
  O           -2.992450       22.190803        9.781242
  N           -5.485979       21.572971       10.298283
  C           -5.411995       20.156224        7.918373
  C           -3.543865       20.360878       11.599403
  S           15.394144        2.146165        4.909158
  S           17.656489        0.987012        3.621366
  F           13.679214        1.780714        2.861509
  F           13.575887        3.757676        3.820987
  F           15.235704        3.279001        2.453885
  F           18.322560       -0.137442        1.310085
  F           16.737566       -1.234498        2.408572
  F           16.253754        0.619214        1.351875
  O           16.168881        3.308579        5.323467
  O           14.336912        1.627972        5.767911
  O           18.644004        0.135497        4.274689
  O           18.058116        2.290464        3.105301
  N           16.241443        0.896898        4.379824
  C           14.433820        2.766647        3.424231
  C           17.208402        0.005040        2.098713
  S           -4.984223       -4.085211        1.370211
  S           -6.455168       -6.523125        1.255551
  F           -3.394646       -4.608877       -0.743180
  F           -2.365384       -3.769681        1.010680
  F           -2.990823       -5.881994        1.003183
  F           -6.576647       -8.756153       -0.175845
  F           -6.990352       -6.921679       -1.353113
  F           -4.936798       -7.415403       -0.782077
  O           -4.764514       -4.232564        2.803071
  O           -5.165087       -2.760485        0.790460
  O           -7.888640       -6.645635        1.494810
  O           -5.515164       -7.158917        2.171397
  N           -6.093000       -5.046130        0.733007
  C           -3.356047       -4.630476        0.619242
  C           -6.225879       -7.441204       -0.353200
  S           -4.999268       18.309883       -5.222012
  S           -2.520794       16.989363       -5.705381
  F           -6.458527       16.068266       -4.885682
  F           -7.398428       17.611572       -6.140451
  F           -5.767885       16.371512       -6.950806
  F           -1.528362       14.532575       -5.876659
  F           -2.393088       15.005719       -3.888999
  F           -3.711313       14.576710       -5.581679
  O           -4.814630       19.176848       -6.378453
  O           -5.666600       18.814473       -4.028791
  O           -1.225559       17.434817       -5.204350
  O           -2.776123       16.988511       -7.141146
  N           -3.705011       17.499958       -4.744831
  C           -6.205106       17.012897       -5.835208
  C           -2.548168       15.184728       -5.229916
  S           23.862682       -7.234421       -2.253716
  S           21.742707       -9.093695       -2.664883
  F           25.719199       -8.601743       -3.650562
  F           26.411153       -7.793740       -1.724949
  F           25.125716       -9.582121       -1.774310
  F           21.283056      -11.416113       -3.867032
  F           21.894578       -9.800106       -5.258783
  F           23.386065      -10.769879       -3.985229
  O           23.586466       -7.166528       -0.824671
  O           24.329873       -6.051591       -2.965311
  O           20.352631       -8.732561       -2.918584
  O           22.091431       -9.796647       -1.435711
  N           22.729646       -7.920684       -3.150405
  C           25.345767       -8.375272       -2.359279
  C           22.102374      -10.325739       -4.019959
  S           19.829460        1.908620        6.756679
  S           21.557662       -0.001236        5.537655
  F           19.366749        3.344774        4.522677
  F           19.778350        4.535268        6.326274
  F           21.425490        3.518655        5.274363
  F           22.613514       -0.562589        3.166974
  F           20.396109       -0.632616        3.191903
  F           21.429860        1.295638        3.180683
  O           20.759053        2.112725        7.859980
  O           18.392415        1.976885        6.988973
  O           21.567033       -1.428925        5.835502
  O           22.723332        0.810854        5.866798
  N           20.109317        0.629751        5.837466
  C           20.126309        3.394256        5.653504
  C           21.483894        0.030303        3.672960
  S           14.427592       12.916150       12.251027
  S           13.328208       10.371484       11.590511
  F           12.073651       14.116174       12.786108
  F           13.470454       15.305770       11.572247
  F           12.358245       13.637711       10.659193
  F           10.970956        9.163032       11.408664
  F           11.439208        9.896290       13.449615
  F           10.820986       11.306600       11.895344
  O           15.261423       12.916461       11.056122
  O           14.914129       13.524771       13.482523
  O           13.913243        9.087616       11.959988
  O           13.246224       10.747526       10.183925
  N           13.762785       11.513139       12.636217
  C           12.999447       14.038121       11.788630
  C           11.549356       10.182309       12.122884
  S           26.783240       -2.545838       10.238107
  S           25.700448       -5.134392       10.735303
  F           29.281105       -3.383858        9.667317
  F           29.167042       -1.629270       10.989461
  F           28.724827       -3.637741       11.779136
  F           26.455800       -7.679675       10.767546
  F           26.675142       -6.712108        8.783079
  F           28.111386       -6.279711       10.375927
  O           26.199236       -2.016615       11.463642
  O           26.894625       -1.700212        9.056485
  O           24.370795       -5.575469       10.329632
  O           26.019669       -5.019574       12.153586
  N           26.231666       -3.969856        9.761958
  C           28.578188       -2.830350       10.695756
  C           26.797012       -6.515923       10.125022
  S           17.561898        5.372472        7.800674
  S           16.550659        6.760969        5.526971
  F           15.431339        3.751688        8.118770
  F           16.206734        4.645048        9.973581
  F           15.013276        5.860933        8.577022
  F           14.400760        6.812635        3.969623
  F           15.468542        4.867964        3.947113
  F           14.223142        5.412605        5.661545
  O           17.931140        6.620812        8.455183
  O           18.380969        4.180993        7.982937
  O           17.346543        7.166775        4.374155
  O           15.955656        7.778501        6.385582
  N           17.206604        5.480235        6.244739
  C           15.961722        4.890150        8.648629
  C           15.089059        5.908476        4.739250
  S           11.644838       -3.082013       -2.182980
  S            9.612087       -1.376164       -3.221369
  F           10.142454       -5.319722       -2.129065
  F           11.364106       -4.974975       -0.332298
  F            9.525817       -3.805744       -0.658925
  F            7.070743       -1.476445       -3.983984
  F            8.407576       -2.791245       -5.169982
  F            7.809935       -3.376271       -3.148225
  O           11.982369       -2.120828       -1.141216
  O           12.686532       -3.904937       -2.784137
  O            9.827006       -0.328781       -4.213283
  O            9.194882       -1.015093       -1.871487
  N           10.722290       -2.530207       -3.367545
  C           10.601104       -4.353048       -1.284474
  C            8.156830       -2.313045       -3.919940
  S           12.123007       16.154886       17.011672
  S           11.765956       14.510468       19.311380
  F           10.669585       14.623899       15.335053
  F           12.577470       15.350061       14.515103
  F           12.558656       13.693826       15.967558
  F           10.569651       12.250250       20.025758
  F            9.166473       13.808350       19.300619
  F           10.394025       12.692080       17.874438
  O           13.559524       16.240411       17.240098
  O           11.402367       17.291600       16.452851
  O           11.552956       15.005045       20.666784
  O           12.982419       13.769873       18.997772
  N           11.256533       15.586099       18.230066
  C           11.971676       14.877438       15.648789
  C           10.397165       13.257736       19.109895
  S           -6.851996      -11.107199       -0.218655
  S           -8.758132       -9.984195        1.577386
  F           -8.029527      -13.524435       -0.413068
  F           -5.844764      -13.570757       -0.159453
  F           -7.147137      -13.127578        1.561160
  F          -10.985004      -10.657664        2.857052
  F          -11.165868      -10.751688        0.647786
  F          -10.088005      -12.321530        1.725162
  O           -5.739619      -10.638365        0.597363
  O           -6.726275      -11.152684       -1.669808
  O           -9.252753       -8.613360        1.520329
  O           -7.966455      -10.417150        2.722991
  N           -8.281128      -10.474570        0.122142
  C           -6.987486      -12.922442        0.227172
  C          -10.329262      -10.984627        1.696586
  S          -18.047342       -2.198240       10.339097
  S          -20.152866       -0.352884        9.808362
  F          -19.029232       -4.198776        8.822142
  F          -18.277045       -4.810681       10.796843
  F          -20.221095       -3.789038       10.623604
  F          -22.420838       -0.199406        8.436206
  F          -20.635143       -0.547772        7.166427
  F          -21.475589       -2.187528        8.346165
  O          -18.126108       -1.945514       11.771926
  O          -16.760429       -2.479113        9.715651
  O          -19.974837        1.079240        9.597602
  O          -20.888873       -0.823015       10.976217
  N          -18.818714       -1.154376        9.404157
  C          -18.955002       -3.824585       10.130815
  C          -21.216853       -0.853653        8.358988
  S          -10.532028      -12.528335       -3.834783
  S           -8.558497      -11.872528       -5.782948
  F           -9.018518      -11.939828       -1.682957
  F          -10.155422      -13.817478       -1.536214
  F           -8.340019      -13.720004       -2.780362
  F           -6.055618      -10.997321       -5.923218
  F           -7.440979       -9.574629       -4.933708
  F           -6.745739      -11.350154       -3.860823
  O          -10.824336      -13.795657       -4.491689
  O          -11.597190      -11.783296       -3.175945
  O           -8.824880      -11.192863       -7.045560
  O           -8.079599      -13.249902       -5.793457
  N           -9.669059      -11.484961       -4.686509
  C           -9.441155      -13.023570       -2.393615
  C           -7.133610      -10.893041       -5.080222
  S          -10.001670        2.913608       -0.607987
  S          -10.366042        5.229429       -2.228005
  F           -7.454303        2.439985       -1.352305
  F           -8.748930        0.662804       -1.280045
  F           -8.921999        2.088010       -2.950951
  F           -9.026932        6.720524       -3.969695
  F           -8.105920        6.666803       -1.951959
  F           -7.907636        4.948172       -3.291332
  O          -11.262269        2.341702       -1.062838
  O           -9.548076        2.690097        0.758767
  O          -11.092443        6.427046       -1.821618
  O          -10.879882        4.411320       -3.320379
  N           -9.777628        4.461501       -0.943564
  C           -8.715168        1.991263       -1.611191
  C           -8.762456        5.922934       -2.884575
  S           22.387371      -13.624632        4.481599
  S           21.965219      -10.819629        4.209572
  F           25.038205      -13.472521        4.947808
  F           24.430552      -15.042158        3.531245
  F           24.469975      -12.933923        2.893371
  F           23.330766       -8.543755        4.285371
  F           23.389018       -9.679574        6.190347
  F           24.599432      -10.333507        4.489112
  O           21.635836      -13.901500        3.264384
  O           22.336085      -14.556634        5.600734
  O           20.807421      -10.095769        4.722040
  O           22.182367      -10.904343        2.770029
  N           22.231033      -12.147851        5.076120
  C           24.174324      -13.758133        3.932777
  C           23.398325       -9.799934        4.834036
  S          -12.918998       16.296521       18.317085
  S          -13.721067       19.025804       18.149901
  F          -11.224169       16.366089       16.221823
  F          -12.541253       14.605562       16.295920
  F          -13.339621       16.555817       15.653887
  F          -13.270564       21.188178       16.676384
  F          -11.459794       20.416835       17.700373
  F          -12.237601       19.390186       15.931775
  O          -14.301672       15.849847       18.425576
  O          -11.863691       15.588895       19.030747
  O          -13.947346       19.901346       19.294156
  O          -14.839234       18.667065       17.285251
  N          -12.674850       17.863678       18.524904
  C          -12.487718       15.954626       16.525624
  C          -12.604908       20.051176       17.060716
  S           24.315836       19.548837       -1.232771
  S           24.250741       22.063827        0.105452
  F           21.973799       18.641440       -0.253536
  F           23.618233       17.180193       -0.237774
  F           23.562801       18.796590        1.257981
  F           22.710604       23.434688        1.778408
  F           21.721185       22.951331       -0.147682
  F           21.969955       21.399399        1.374341
  O           25.692186       19.312294       -0.817100
  O           23.852269       19.075602       -2.530798
  O           24.677753       23.330973       -0.476867
  O           24.985328       21.506470        1.235208
  N           23.778274       21.043570       -1.044151
  C           23.313605       18.501428       -0.045044
  C           22.570552       22.477202        0.805172
  S           23.209944      -12.304966        0.506676
  S           24.457515       -9.825999        1.153621
  F           25.248457      -13.277195       -0.965275
  F           23.250133      -13.560221       -1.840633
  F           24.212605      -11.579594       -1.902741
  F           26.723657       -8.515906        0.708288
  F           27.004109      -10.440035        1.776692
  F           26.592656      -10.431553       -0.372160
  O           21.975002      -11.634596        0.121193
  O           23.163065      -13.615766        1.141756
  O           24.375485       -9.163074        2.450116
  O           23.860020       -9.194602       -0.017255
  N           24.262756      -11.413824        1.316758
  C           24.031988      -12.685660       -1.133916
  C           26.290136       -9.814826        0.800213
  S           27.053641        2.853352       15.212614
  S           26.479768        2.824603       12.421540
  F           25.448431        0.785775       15.857466
  F           25.328519        2.515236       17.211807
  F           24.357856        2.590676       15.235645
  F           25.001459        1.489482       10.665943
  F           26.501533        0.228725       11.706461
  F           24.680298        0.847687       12.749014
  O           26.848294        4.294022       15.285941
  O           28.060793        2.214596       16.050083
  O           27.459689        3.049929       11.365093
  O           25.394204        3.779414       12.612586
  N           27.193139        2.243610       13.740359
  C           25.458580        2.148251       15.898792
  C           25.626966        1.260173       11.865835
  S           -0.816006      -14.058909       16.025494
  S            0.678082      -11.632650       15.990567
  F           -2.439098      -13.367708       18.063930
  F           -1.633704      -15.412293       18.167190
  F           -0.350560      -13.693240       18.668680
  F            0.810050       -9.310433       17.271175
  F           -1.136799       -9.662857       16.267190
  F           -0.663672      -10.703228       18.132856
  O            0.399877      -14.861024       15.989255
  O           -2.018423      -14.522300       15.344920
  O            1.131389      -10.948302       14.785048
  O            1.658899      -12.197723       16.909971
  N           -0.636757      -12.506342       15.684634
  C           -1.328163      -14.121312       17.827168
  C           -0.131083      -10.260851       16.963677
  S           15.633502        1.832872       13.283231
  S           17.034494        4.305426       13.492884
  F           16.585097        1.168683       10.849976
  F           14.426163        0.847579       11.124836
  F           15.210184        2.884076       10.823036
  F           18.722253        5.807745       12.098405
  F           19.525306        3.801911       12.602534
  F           18.039630        4.017328       11.010902
  O           14.381543        2.455655       13.692880
  O           15.929582        0.460342       13.673382
  O           17.650567        4.815418       14.712497
  O           15.908158        5.018910       12.902188
  N           16.955465        2.699724       13.527694
  C           15.463496        1.690829       11.422277
  C           18.402928        4.480057       12.235739
  S            8.882067       17.369198       12.290087
  S            9.177309       20.192639       12.042570
  F            6.900128       17.446356       14.115839
  F            8.490904       15.984244       14.529737
  F            8.841445       18.129167       14.889622
  F            8.149031       22.435664       13.023158
  F            6.672105       21.175336       11.949532
  F            7.332719       20.615670       13.958834
  O           10.320386       17.186006       12.434144
  O            8.082689       16.366077       11.598377
  O            9.424649       20.899954       10.791322
  O           10.194693       20.199907       13.087314
  N            8.411742       18.805727       11.766677
  C            8.246317       17.242899       14.048523
  C            7.751237       21.144954       12.779414
  S           28.888133       -7.135885       13.153586
  S           30.910775       -5.266972       12.421236
  F           30.173351       -9.322801       12.240888
  F           28.035190       -9.219935       11.733599
  F           29.489146       -7.970795       10.647894
  F           33.298024       -5.209193       11.260301
  F           33.243249       -6.415796       13.121354
  F           32.379753       -7.211887       11.275401
  O           27.845948       -6.310032       12.557858
  O           28.608547       -7.912905       14.354333
  O           31.317423       -4.119175       13.223916
  O           30.273974       -5.051560       11.127135
  N           30.307442       -6.426813       13.357447
  C           29.174324       -8.472246       11.871221
  C           32.539967       -6.077218       12.005597
  S           10.404506       -7.801904        2.777268
  S           10.186096       -6.056058        5.018823
  F            9.216173       -6.149800        1.009268
  F            8.567286       -8.249174        0.903311
  F            7.844997       -6.950751        2.529806
  F            9.248647       -3.649387        5.634610
  F           10.850075       -3.613852        4.099496
  F            8.827687       -4.247845        3.556419
  O            9.887110       -8.926620        3.545637
  O           11.418562       -8.020206        1.753669
  O           11.213135       -5.873062        6.038037
  O            8.905869       -6.650662        5.384987
  N           10.845747       -6.521177        3.628046
  C            8.928282       -7.247424        1.764578
  C            9.761676       -4.302242        4.541831
  S           14.889761       12.200005        8.067841
  S           14.361172       14.991949        8.282068
  F           17.338766       12.454478        6.970105
  F           16.051963       10.935624        6.033690
  F           15.704098       13.074486        5.637014
  F           15.509043       17.323649        7.738348
  F           16.644178       16.091412        9.192814
  F           16.687829       15.588777        7.063875
  O           13.584619       11.952926        7.468982
  O           15.488592       11.207926        8.951527
  O           13.688619       15.630631        9.407613
  O           13.727795       14.995139        6.968509
  N           15.082671       13.633516        8.750931
  C           16.055251       12.182419        6.600343
  C           15.886688       16.044566        8.062253
  S           15.810614        9.615824       18.927703
  S           14.879874       10.925209       16.574092
  F           14.420445        7.336010       18.557182
  F           14.382589        8.126439       20.609850
  F           13.159643        9.071255       19.039875
  F           13.261422       10.491735       14.514291
  F           14.952052        9.059961       14.633464
  F           13.250958        8.860118       15.994814
  O           15.537018       10.791173       19.744265
  O           16.952310        8.763042       19.232686
  O           15.699520       11.760062       15.703291
  O           13.777262       11.524360       17.316977
  N           15.790373        9.847062       17.345016
  C           14.360326        8.484946       19.288267
  C           14.049922        9.764806       15.370694
  S          -11.097785       -1.021170       -5.644584
  S           -8.479452       -1.604408       -4.683119
  F          -10.722904        1.635633       -5.905872
  F          -12.630132        1.051255       -4.978167
  F          -10.760543        0.949716       -3.817384
  F           -6.209048       -0.360640       -4.092889
  F           -6.807008       -0.158072       -6.219816
  F           -7.831556        1.009735       -4.679212
  O          -11.711777       -1.809533       -4.584126
  O          -11.707921       -0.973297       -6.967143
  O           -7.694507       -2.775673       -5.056074
  O           -8.926834       -1.446463       -3.304164
  N           -9.524747       -1.230078       -5.846291
  C          -11.297275        0.744540       -5.049016
  C           -7.275512       -0.201905       -4.942031
  S           -4.713486      -13.299247        8.671959
  S           -2.093893      -13.152852        7.559955
  F           -4.315140      -11.448052       10.590761
  F           -5.368772      -13.262530       11.251957
  F           -3.192527      -13.310693       10.913239
  F            0.199012      -11.865262        7.927065
  F           -1.504226      -10.528118        7.443912
  F           -1.324590      -11.391237        9.446333
  O           -4.664779      -14.755003        8.710369
  O           -5.972264      -12.616473        8.401744
  O           -1.786861      -13.211716        6.135399
  O           -1.636766      -14.222003        8.440048
  N           -3.580624      -12.587214        7.795368
  C           -4.362680      -12.802504       10.444643
  C           -1.141937      -11.650178        8.125001
  S           29.216902       -2.016245       -5.000572
  S           28.914092        0.688479       -4.156164
  F           31.911433       -2.042111       -4.921602
  F           31.023234       -2.975358       -6.704803
  F           31.086383       -0.780866       -6.522301
  F           30.398719        2.776754       -3.459704
  F           30.665848        1.015261       -2.137511
  F           31.583825        1.042009       -4.123344
  O           28.285523       -1.823325       -6.104379
  O           29.274872       -3.297106       -4.307927
  O           27.882455        1.167914       -3.243497
  O           28.918838        1.144486       -5.541317
  N           29.227799       -0.865875       -3.889128
  C           30.897373       -1.932587       -5.825947
  C           30.475109        1.406819       -3.427648
  S           22.480201       -1.091884        8.669235
  S           19.757998       -1.799792        9.126104
  F           23.379596       -3.610782        8.332118
  F           24.642249       -2.333515        9.602532
  F           22.760446       -3.162016       10.393415
  F           18.218702       -3.958049        9.276304
  F           19.187443       -3.692685        7.298039
  F           20.354316       -4.423087        8.998584
  O           22.492542       -0.209774        9.828891
  O           23.257302       -0.752668        7.484005
  O           18.606778       -1.062886        8.617423
  O           19.993389       -1.865125       10.563788
  N           21.037064       -1.576059        8.177595
  C           23.344987       -2.636392        9.284756
  C           19.368119       -3.559412        8.641076
  S          -18.450561        3.255033        3.405110
  S          -17.439153        3.094178        0.745894
  F          -20.856995        4.269670        2.736534
  F          -19.887655        5.231459        4.461351
  F          -19.189505        5.666645        2.417753
  F          -18.185133        3.626480       -1.746140
  F          -19.462521        2.118033       -0.738531
  F          -19.670305        4.237725       -0.237871
  O          -17.230671        3.895975        3.878538
  O          -19.179393        2.338690        4.272774
  O          -16.625510        2.000844        0.226569
  O          -16.863225        4.428990        0.860773
  N          -18.367300        2.583528        1.955653
  C          -19.654341        4.680607        3.229389
  C          -18.766411        3.273683       -0.553985
  S           22.412477       14.748833       10.954493
  S           24.337898       16.770177       10.382501
  F           20.847418       16.279524       12.527701
  F           21.245644       14.257047       13.296242
  F           22.803215       15.810369       13.415641
  F           24.840790       19.314694       10.950479
  F           22.916203       19.003568        9.891436
  F           23.088452       18.509341       12.015818
  O           23.455134       13.783522       11.277163
  O           21.180463       14.307682       10.313207
  O           24.973227       16.975404        9.085839
  O           25.146087       16.353816       11.522714
  N           22.899003       16.074923       10.203788
  C           21.806549       15.316814       12.634516
  C           23.753956       18.485119       10.831400
  S           28.690203       19.725893        8.185846
  S           25.940830       19.122804        7.741459
  F           29.065200       21.072992        5.881044
  F           30.661570       19.650439        6.398345
  F           28.743472       18.916119        5.601622
  F           24.046591       19.504903        5.920492
  F           24.851788       21.387632        6.774538
  F           26.020298       20.265583        5.303987
  O           28.979646       18.346555        8.555605
  O           29.398644       20.821268        8.835451
  O           24.904192       19.146913        8.767079
  O           26.297847       17.858825        7.107812
  N           27.141253       20.120918        8.126799
  C           29.305987       19.844190        6.419765
  C           25.183340       20.131711        6.366018
  S            4.946169       -6.427269        4.630352
  S            4.974171       -9.108444        3.665588
  F            2.372621       -5.923700        4.005309
  F            3.787231       -4.320176        3.488351
  F            3.681581       -6.140604        2.252238
  F            3.356535      -10.866933        2.507559
  F            2.662690      -10.203149        4.507653
  F            2.441425       -8.881124        2.778427
  O            6.187332       -6.115746        3.933544
  O            4.657993       -5.814009        5.920541
  O            5.655395      -10.222591        4.314977
  O            5.423440       -8.655172        2.354362
  N            4.581081       -7.980640        4.742284
  C            3.626510       -5.679615        3.529560
  C            3.265461       -9.793230        3.357528
  S           21.041042       -5.078654       16.094207
  S           22.047319       -3.174476       14.228258
  F           22.834646       -7.010297       15.529281
  F           20.753965       -7.698743       15.720233
  F           21.402122       -6.632162       13.904912
  F           23.967384       -2.931473       12.410467
  F           24.727495       -3.277107       14.465990
  F           23.873025       -4.934986       13.322204
  O           19.672856       -4.869016       15.639024
  O           21.308955       -5.366604       17.497428
  O           22.152124       -1.740487       14.472767
  O           21.134989       -3.665341       13.201944
  N           22.109943       -3.990476       15.612439
  C           21.541015       -6.678589       15.256078
  C           23.744462       -3.607800       13.583698
  S           26.590221      -10.371077       12.950676
  S           28.079466      -12.469685       11.726648
  F           26.459340      -11.499526       15.395442
  F           24.575650      -10.622590       14.672706
  F           25.274439      -12.552162       13.871746
  F           29.144113      -14.825287       12.333055
  F           29.980993      -13.141552       13.510797
  F           27.996856      -13.930685       13.987662
  O           25.637699      -10.343010       11.848411
  O           26.948777       -9.137646       13.639013
  O           29.154917      -12.277001       10.760535
  O           26.847932      -13.130969       11.311148
  N           27.941336      -11.184561       12.683263
  C           25.686023      -11.325110       14.286519
  C           28.840539      -13.643766       12.961890
  S           24.302033        4.825844        9.288853
  S           23.138349        7.191649       10.370082
  F           22.418032        4.413750        7.405206
  F           23.031305        2.617426        8.517308
  F           21.698623        4.097667        9.458552
  F           21.026286        8.761083       10.014928
  F           22.358976        8.649554        8.244644
  F           21.023548        6.981713        8.715672
  O           24.480921        4.252847       10.616538
  O           25.278805        4.560958        8.240296
  O           23.885837        8.364181       10.809999
  O           22.392470        6.405226       11.345693
  N           23.958311        6.387470        9.244608
  C           22.773840        3.956993        8.639275
  C           21.824158        7.929761        9.269349
  S            6.111220       -5.746739       -3.965394
  S            5.487423       -5.128460       -1.254516
  F            5.984920       -3.212070       -4.874738
  F            4.995930       -4.708535       -6.148373
  F            4.034629       -4.036945       -4.283444
  F            4.911860       -3.031738        0.269474
  F            6.919729       -2.924990       -0.668328
  F            5.130979       -2.529548       -1.864542
  O            5.137505       -6.830422       -3.989599
  O            7.350996       -5.860435       -4.722857
  O            6.106985       -5.753512       -0.091524
  O            4.066778       -5.334212       -1.511509
  N            6.480923       -5.174598       -2.518067
  C            5.231079       -4.347491       -4.848390
  C            5.628366       -3.307942       -0.868029
  S           26.790352        1.413817        2.055175
  S           25.905300       -0.577593        0.219087
  F           24.423724        2.688436        2.259689
  F           26.173408        4.003458        2.038382
  F           25.382388        2.914878        0.294142
  F           23.709944       -1.305263       -1.085127
  F           23.496602       -1.373181        1.122198
  F           23.463237        0.549373        0.078357
  O           27.971784        1.695358        1.250173
  O           26.858404        1.498448        3.508422
  O           26.301978       -1.980646        0.253498
  O           26.302302        0.255650       -0.909943
  N           25.999507        0.073126        1.686542
  C           25.624683        2.817701        1.627913
  C           24.046174       -0.677988        0.088355
  S           18.965668        9.467382       15.747850
  S           18.860121       11.809547       14.128167
  F           18.924860        7.705229       13.708105
  F           17.604339        7.206891       15.395569
  F           17.031988        8.791083       13.975765
  F           18.741529       12.504669       11.568322
  F           20.567119       11.359147       12.095018
  F           18.648953       10.326964       11.889666
  O           17.905576        9.964573       16.615076
  O           20.046704        8.662406       16.302011
  O           19.603655       13.037452       14.386048
  O           17.403682       11.820731       14.200783
  N           19.621628       10.543241       14.762446
  C           18.084251        8.241615       14.637524
  C           19.230751       11.473199       12.330106
  S          -11.994875        9.358733       -5.617526
  S          -12.923355       11.039581       -3.512074
  F          -11.121657        7.363577       -4.028738
  F           -9.753518        7.922835       -5.658180
  F           -9.927798        9.203264       -3.874022
  F          -13.078039       11.076935       -0.861651
  F          -14.201384        9.406508       -1.794485
  F          -12.020077        9.313518       -1.652416
  O          -11.291075       10.465722       -6.251809
  O          -12.607974        8.318422       -6.433359
  O          -14.145861       11.833771       -3.554912
  O          -11.630293       11.710784       -3.448101
  N          -13.044960        9.761232       -4.479942
  C          -10.632665        8.422329       -4.734487
  C          -13.065212       10.152575       -1.876036
  S           -2.213068       14.291629        5.573256
  S            0.134156       14.514167        3.972860
  F           -1.999366       16.714636        6.735484
  F           -2.514221       15.068905        8.101553
  F           -0.448504       15.290845        7.368990
  F            2.100072       16.229151        3.478826
  F            0.088047       17.011287        2.966547
  F            0.721894       16.907992        5.058077
  O           -1.828446       12.963491        6.032810
  O           -3.618850       14.615407        5.366696
  O            0.256405       14.039674        2.599176
  O            0.935131       13.895257        5.022622
  N           -1.398249       14.857688        4.318495
  C           -1.755001       15.402308        7.011586
  C            0.783452       16.260677        3.864962
  S           16.642420        5.231923       17.897600
  S           16.776252        2.535561       16.985477
  F           19.305209        5.597510       18.105706
  F           18.125471        6.361246       19.798213
  F           18.486688        4.198021       19.590676
  F           18.579259        0.670368       16.419535
  F           18.754784        2.488154       15.159673
  F           19.458219        2.520483       17.231161
  O           15.634101        4.892639       18.893217
  O           16.607821        6.529033       17.234252
  O           15.914251        1.956632       15.961324
  O           16.695799        2.044732       18.356326
  N           16.914974        4.123904       16.776536
  C           18.225328        5.336213       18.895474
  C           18.483109        2.039429       16.416252
  S           -4.601738        3.768308        2.650153
  S           -4.098889        1.900476        0.557643
  F           -2.091174        4.742352        2.775499
  F           -3.025494        4.323126        4.722535
  F           -2.270300        2.667665        3.480673
  F           -2.103493        1.063418       -0.981121
  F           -2.579381        3.215556       -1.234578
  F           -1.482392        2.538341        0.533167
  O           -5.286378        2.759197        3.447672
  O           -5.044905        5.156033        2.689421
  O           -5.014506        1.609045       -0.539540
  O           -3.787152        0.860427        1.531158
  N           -4.342805        3.387765        1.118187
  C           -2.903428        3.869438        3.436118
  C           -2.482963        2.207285       -0.324498
  S           14.902904       10.053158       -0.709334
  S           17.651445       10.466875       -1.337515
  F           15.278544        7.836808        0.778651
  F           13.601484        7.731777       -0.641241
  F           15.673809        7.540325       -1.363672
  F           20.025750        9.367941       -0.884649
  F           18.989711       10.037893        0.959313
  F           18.349587        8.205975       -0.051256
  O           14.511921       10.225576       -2.102344
  O           14.024077       10.511375        0.359039
  O           18.308592       11.767671       -1.393926
  O           17.515040        9.675451       -2.554748
  N           16.390125       10.512961       -0.341182
  C           14.879926        8.193909       -0.475038
  C           18.805935        9.468097       -0.263680
  S           19.524438       18.237803        0.266146
  S           17.122630       19.436670        1.222329
  F           18.608272       15.702529        0.286847
  F           20.632667       15.967682        1.106099
  F           18.874434       16.562329        2.292735
  F           14.675097       18.749109        1.988431
  F           15.126985       18.225535       -0.119666
  F           15.959489       17.024477        1.508623
  O           20.330699       18.980518        1.226038
  O           20.054392       17.939228       -1.058136
  O           16.575783       20.703326        0.749427
  O           17.588019       19.322492        2.599641
  N           18.019087       18.745804        0.080049
  C           19.387763       16.533998        1.034647
  C           15.649526       18.293858        1.135895
  S           -8.698892       13.894548        2.491159
  S           -6.629397       12.256502        3.565517
  F           -7.567955       14.233983        0.067696
  F           -8.408564       16.057486        0.966511
  F           -6.492843       15.249392        1.694584
  F           -4.294655       11.208940        2.857237
  F           -5.994083       10.519363        1.608703
  F           -5.166911       12.524177        1.319851
  O           -8.708721       14.739133        3.678448
  O           -9.938938       13.626252        1.774204
  O           -6.842795       11.098546        4.426153
  O           -5.944587       13.430428        4.094239
  N           -7.911556       12.508896        2.628447
  C           -7.727552       14.902369        1.244956
  C           -5.470075       11.593085        2.261917
  S           27.025940       17.573375        3.607701
  S           28.383241       19.982693        2.919828
  F           25.364479       17.563243        1.484766
  F           24.415985       17.086709        3.411662
  F           24.945988       19.169262        2.926727
  F           28.370503       21.853857        1.036042
  F           28.837566       19.824523        0.270494
  F           26.778225       20.351287        0.788727
  O           26.834171       18.020327        4.981211
  O           27.251949       16.162219        3.322606
  O           29.815110       20.209355        3.079427
  O           27.437907       20.765849        3.706989
  N           28.075093       18.414588        2.741434
  C           25.357527       17.879191        2.810768
  C           28.074744       20.519323        1.159038
  S            4.772069       -9.385684       -1.725471
  S            3.959721      -11.775182       -3.048588
  F            7.423052       -9.828725       -1.933821
  F            6.750061       -9.116628        0.035863
  F            6.401799      -11.208618       -0.560278
  F            5.020190      -13.919670       -4.200387
  F            5.590318      -12.011519       -5.178304
  F            6.516549      -12.588618       -3.281996
  O            3.837453       -9.619553       -0.632369
  O            5.056716       -8.026067       -2.166084
  O            2.843632      -11.874758       -3.982144
  O            3.900120      -12.485455       -1.776356
  N            4.552704      -10.280570       -3.033078
  C            6.419750       -9.928507       -1.016445
  C            5.349225      -12.606076       -3.977251
  S          -15.992988        7.313308        6.932214
  S          -13.306705        7.911356        6.192975
  F          -16.104941        4.919689        5.697119
  F          -17.869937        6.200459        5.407167
  F          -16.005786        6.624668        4.312597
  F          -11.294337        6.853190        4.821580
  F          -11.931723        5.624824        6.555727
  F          -13.140847        5.654565        4.732525
  O          -16.448394        8.634465        6.519633
  O          -16.609645        6.650838        8.074400
  O          -12.325650        8.554842        7.059319
  O          -13.766987        8.598050        4.991640
  N          -14.409300        7.133073        7.067215
  C          -16.504067        6.209120        5.506804
  C          -12.376997        6.426537        5.549178
  S            9.311983        9.286145        8.157339
  S           10.632889        6.798346        8.588983
  F           11.183122       10.324451        6.517776
  F           10.426597       11.701677        8.057442
  F           11.852813       10.113171        8.601177
  F           12.858382        5.532023        7.886367
  F           11.542379        6.034720        6.172354
  F           12.746262        7.595387        7.122044
  O            9.075713        9.459879        9.584597
  O            8.331042        9.762045        7.190388
  O            9.968126        5.502658        8.668836
  O           11.307404        7.335492        9.765043
  N            9.769724        7.823237        7.700006
  C           10.780058       10.400442        7.817744
  C           12.010713        6.480301        7.370800
  S           18.973160       -7.391806       13.676867
  S           18.214179       -7.914199       16.373402
  F           16.489500       -7.557820       12.641842
  F           18.050666       -8.590925       11.486374
  F           17.282720       -9.482619       13.348693
  F           16.040790       -8.436384       17.806500
  F           15.982813       -6.465569       16.789182
  F           15.650765       -8.299038       15.642418
  O           20.056813       -8.363391       13.746098
  O           19.126048       -6.181254       12.880055
  O           18.777482       -7.249840       17.543194
  O           18.433352       -9.343081       16.181383
  N           18.326095       -6.968990       15.077335
  C           17.622136       -8.307670       12.755913
  C           16.375925       -7.762716       16.658702
  S           14.955046       -7.498756        0.049192
  S           15.199164       -7.762296       -2.777680
  F           12.316310       -6.947056        0.059679
  F           13.538097       -5.677902        1.377305
  F           13.550851       -5.343848       -0.800156
  F           13.707017       -7.604690       -4.968279
  F           13.052081       -9.187486       -3.558234
  F           12.615117       -7.087726       -3.125798
  O           16.122949       -6.629952        0.114416
  O           14.672725       -8.427411        1.136213
  O           16.018675       -8.760167       -3.455728
  O           15.535282       -6.348766       -2.902472
  N           14.751104       -8.289668       -1.326179
  C           13.514586       -6.305014        0.160021
  C           13.553103       -7.924141       -3.642441
  S           24.981064        9.916319       -1.951609
  S           27.062139        8.589534       -0.527172
  F           24.407977       11.708005       -0.020590
  F           22.658586       10.775123       -0.974014
  F           23.849804        9.644794        0.494471
  F           28.306368        8.695342        1.816066
  F           28.519091       10.546611        0.611923
  F           26.637556       10.123677        1.645308
  O           24.356281        8.649407       -2.308898
  O           24.940017       11.039353       -2.879419
  O           28.304482        8.107852       -1.120181
  O           26.107304        7.633125        0.020720
  N           26.470309        9.820642       -1.375608
  C           23.931291       10.536160       -0.528232
  C           27.659311        9.549084        0.958147
  S           22.539897       -9.309398       11.903990
  S           22.830572      -12.111681       12.331734
  F           21.868013       -9.484366        9.299117
  F           23.335059       -7.916836        9.778989
  F           23.957858      -10.028852        9.711148
  F           22.637831      -14.400106       10.999056
  F           20.739545      -13.254368       11.077831
  F           22.344487      -12.621516        9.732249
  O           23.813234       -9.032072       12.555741
  O           21.432614       -8.370763       12.032866
  O           22.406346      -12.821544       13.533076
  O           24.249228      -12.037028       12.002411
  N           21.952310      -10.781295       12.120872
  C           22.948569       -9.196099       10.078510
  C           22.091574      -13.141614       10.961828
  S          -18.890325        3.503466       16.823100
  S          -16.370478        4.819846       17.017433
  F          -18.469725        2.436167       14.383556
  F          -20.455371        3.336911       14.676001
  F          -18.694222        4.623157       14.364519
  F          -14.148254        5.170166       15.607092
  F          -14.558085        3.048086       16.108316
  F          -15.701233        4.039569       14.528093
  O          -19.601006        4.704678       17.241547
  O          -19.383297        2.188752       17.213263
  O          -15.567064        4.910567       18.231265
  O          -16.933992        6.031936       16.434419
  N          -17.307732        3.513771       17.055628
  C          -19.124271        3.481656       14.963793
  C          -15.135753        4.227708       15.749226
  S          -12.112198       18.758316        5.441629
  S           -9.884160       17.054879        5.946012
  F          -13.987490       17.064368        6.380366
  F          -14.491309       18.050400        4.479429
  F          -13.043368       16.390444        4.512709
  F           -9.350742       14.646053        6.927383
  F          -10.313477       16.008797        8.389738
  F          -11.506484       15.084454        6.805675
  O          -11.652150       19.034189        4.086887
  O          -12.794233       19.793710        6.207466
  O           -8.587630       17.500862        6.443208
  O           -9.985720       16.488683        4.605967
  N          -11.046246       18.064142        6.411499
  C          -13.467208       17.487617        5.193640
  C          -10.293595       15.631364        7.081570
  S           18.373065       -4.554921        0.362735
  S           18.146318       -7.104401        1.615328
  F           21.023995       -4.272658        0.763111
  F           19.821798       -2.480543        1.190542
  F           19.835142       -4.165681        2.609423
  F           19.659998       -8.900536        2.853365
  F           20.265331       -8.524068        0.752353
  F           20.748489       -7.064062        2.308588
  O           17.225651       -4.040800        1.099073
  O           18.624149       -4.111754       -1.002651
  O           17.308987       -8.198474        1.136813
  O           17.844964       -6.473321        2.894991
  N           18.569595       -6.142015        0.398618
  C           19.840533       -3.846441        1.288381
  C           19.795215       -7.935652        1.886774
  S          -11.637079       -8.465422       15.226685
  S          -14.326894       -7.603052       14.850565
  F          -10.594283       -7.055900       13.178946
  F           -9.883802       -9.131889       13.337510
  F          -11.894201       -8.710427       12.541420
  F          -15.753134       -6.041602       13.245018
  F          -14.176653       -4.958090       14.368903
  F          -13.636905       -6.205318       12.654253
  O          -12.050307       -9.859029       15.327553
  O          -10.513720       -7.976724       16.015962
  O          -15.258947       -7.281847       15.925368
  O          -14.594320       -8.743673       13.982187
  N          -12.808997       -7.381876       15.333062
  C          -10.983993       -8.328051       13.475447
  C          -14.469706       -6.121359       13.724638
  S           10.067780        3.191393       -3.545615
  S            9.776435        1.779137       -6.003439
  F            7.449921        3.191427       -2.902014
  F            8.483916        5.108973       -2.596192
  F            7.935243        4.462087       -4.629315
  F            7.878143        0.690961       -7.507576
  F            8.042123       -0.215368       -5.489139
  F            7.096761        1.742253       -5.736005
  O           10.907109        4.203050       -4.174226
  O           10.313712        2.791177       -2.166098
  O           10.694941        0.757838       -6.493734
  O            9.638382        3.033982       -6.733452
  N            9.824783        1.859900       -4.398175
  C            8.392996        4.024007       -3.426966
  C            8.111120        0.955324       -6.181145
  S           -9.692206       11.374936       -0.034325
  S          -11.269489       11.743099        2.310219
  F           -9.559152        8.687295        0.127817
  F           -7.659470        9.686093       -0.355158
  F           -8.434415        9.724561        1.706655
  F          -12.401363       10.314759        4.241222
  F          -13.163075        9.831154        2.214320
  F          -11.198618        9.104853        2.847032
  O           -8.757213       12.414082        0.376815
  O           -9.998688       11.183792       -1.446152
  O          -12.353465       12.709601        2.444242
  O          -10.067326       11.891926        3.122172
  N          -11.073579       11.322597        0.770566
  C           -8.798520        9.785577        0.398679
  C          -12.048836       10.162013        2.923657
  S           16.668422        3.013965       -0.385674
  S           17.900312        5.030429        1.206988
  F           18.168880        3.429310       -2.586474
  F           16.016070        3.175654       -2.961608
  F           16.778215        5.073131       -2.141967
  F           19.808023        6.869355        1.036536
  F           20.543786        4.795739        0.751619
  F           19.451112        5.799641       -0.856229
  O           15.335713        3.479120       -0.024301
  O           16.914961        1.593243       -0.596596
  O           18.206141        4.902029        2.627226
  O           16.913545        6.010526        0.768451
  N           17.870225        3.585567        0.501862
  C           16.929619        3.723144       -2.100628
  C           19.511323        5.644837        0.492378
  S           -4.651541      -10.219836        4.091149
  S           -6.628851      -11.813412        5.383826
  F           -4.268316      -11.877520        2.000065
  F           -2.429092      -11.071053        2.898131
  F           -3.538132      -12.682503        3.911222
  F           -7.913120      -14.114563        5.059140
  F           -8.270038      -12.658569        3.423568
  F           -6.374481      -13.746389        3.525755
  O           -3.912006      -10.048150        5.334807
  O           -4.695643       -9.141686        3.111675
  O           -7.814651      -11.291892        6.053892
  O           -5.601787      -12.494305        6.163657
  N           -6.135131      -10.799830        4.237254
  C           -3.682383      -11.543103        3.184548
  C           -7.330945      -13.145464        4.281000
  S           18.633303       17.447761        8.462769
  S           19.864390       17.798441        5.916852
  F           20.252572       19.137816        9.800337
  F           19.850432       17.230637       10.820437
  F           21.255607       17.301541        9.125282
  F           21.860931       19.141513        4.794333
  F           20.302001       20.445135        5.684678
  F           21.737680       19.417369        6.976750
  O           18.654966       15.997483        8.323850
  O           17.530202       18.099564        9.157063
  O           19.150229       17.877675        4.647682
  O           20.759681       16.675652        6.170646
  N           18.921809       18.279873        7.127429
  C           20.082823       17.800651        9.597047
  C           20.993093       19.283304        5.848058
  S           30.388293        6.371631       13.083542
  S           27.995650        7.896950       13.346043
  F           29.216846        4.175029       12.049104
  F           30.710819        3.783206       13.615684
  F           28.712541        4.535056       14.158545
  F           25.387560        7.676481       12.899581
  F           26.622805        7.484978       11.066576
  F           26.506531        5.824140       12.486093
  O           30.798487        6.696985       14.443306
  O           31.388243        6.221460       12.034127
  O           27.881395        9.324980       13.072599
  O           27.806300        7.406678       14.706335
  N           29.191909        7.250490       12.487681
  C           29.705968        4.632855       13.236247
  C           26.561408        7.178558       12.391902
  S          -19.196004        8.430063       13.750325
  S          -19.678967       11.120245       12.944151
  F          -21.373813        8.205953       15.323325
  F          -19.516820        7.399136       16.183719
  F          -19.848145        9.576011       16.116397
  F          -21.438470       13.071004       13.329836
  F          -22.314868       11.252025       12.410244
  F          -21.838665       11.277647       14.545544
  O          -17.804539        8.726502       14.065006
  O          -19.562414        7.126183       13.212401
  O          -19.453632       11.642918       11.601343
  O          -18.877964       11.620237       14.055464
  N          -19.968277        9.539237       12.894692
  C          -20.031437        8.418675       15.427867
  C          -21.411820       11.698831       13.326226
  S           13.921996       18.698320       15.574644
  S           13.869117       19.021821       18.405333
  F           15.000852       16.227833       15.587732
  F           15.868214       17.614793       14.116787
  F           16.386868       17.800855       16.249736
  F           14.526193       17.700796       20.612868
  F           12.991528       16.672043       19.384503
  F           15.088712       16.647108       18.761504
  O           14.522852       20.012883       15.390333
  O           12.977289       18.181788       14.592583
  O           12.789236       19.655245       19.153482
  O           15.188802       19.641871       18.381134
  N           13.316762       18.406338       17.026269
  C           15.371325       17.524648       15.389806
  C           14.127324       17.421128       19.329796
  S            7.567568        2.377078       15.941291
  S            9.941337        1.283970       17.077331
  F            6.526542        0.025508       15.132718
  F            6.397066        1.656029       13.661565
  F            8.316464        0.632338       14.009499
  F           11.126337       -1.065091       17.434756
  F            9.151690       -0.904167       18.433396
  F            9.262126       -1.193194       16.267478
  O            8.325155        3.394577       15.224470
  O            6.240140        2.682903       16.459102
  O           10.561164        1.740341       18.316135
  O           10.649420        1.451161       15.813496
  N            8.363468        1.593771       17.086609
  C            7.196602        1.097636       14.623096
  C            9.853720       -0.564916       17.317055
  S           32.304085        4.266462        8.811206
  S           30.444996        6.423998        8.715908
  F           30.642504        2.507528        9.999780
  F           32.683771        2.559411       10.818432
  F           31.256763        4.165003       11.307124
  F           27.943387        6.981190        9.409847
  F           28.110800        5.332055        7.935149
  F           28.599917        4.973854       10.037383
  O           33.345730        5.128565        9.354187
  O           32.652188        3.183423        7.900398
  O           30.300785        7.353519        7.601328
  O           30.914397        6.914352       10.006578
  N           31.026424        5.014367        8.205401
  C           31.676729        3.338236       10.313554
  C           28.685906        5.888964        9.036629
  S           29.500423       -7.734258        4.881663
  S           31.780697       -6.163041        5.553883
  F           28.097729       -7.175417        7.114946
  F           28.083922       -9.290988        6.511772
  F           29.868199       -8.428533        7.473864
  F           32.661660       -4.593880        7.506241
  F           30.802922       -3.857856        6.544071
  F           30.718631       -5.534119        7.947626
  O           30.334788       -8.874637        4.526071
  O           28.266523       -7.474750        4.151000
  O           32.543065       -5.351740        4.611715
  O           32.412799       -7.312945        6.190108
  N           30.263511       -6.338601        5.050833
  C           28.867718       -8.170716        6.590877
  C           31.462696       -4.974890        6.957697
  S           20.706259        5.958266       14.716084
  S           22.432310        8.131786       14.070479
  F           21.980063        5.242751       16.981667
  F           21.411157        3.573526       15.666492
  F           23.136114        4.844530       15.154469
  F           24.592550        9.357479       15.009150
  F           22.858236        9.429639       16.390944
  F           24.013564        7.583587       16.180608
  O           20.783844        5.434447       13.358635
  O           19.470848        5.833016       15.478839
  O           21.995902        9.409357       13.518705
  O           23.276545        7.252317       13.270219
  N           21.249914        7.448818       14.919731
  C           21.881663        4.859649       15.677174
  C           23.522279        8.648692       15.494662
  S           -9.646044       -5.432927       -1.045701
  S          -11.071554       -7.424598       -2.502208
  F          -10.080729       -6.494538        1.393856
  F          -10.354535       -4.315563        1.264425
  F          -11.889501       -5.671619        0.453202
  F          -12.465445       -9.643974       -2.076170
  F          -10.356122       -9.775297       -1.400951
  F          -11.814483       -8.648986       -0.221317
  O          -10.319837       -4.359999       -1.765356
  O           -8.258179       -5.275714       -0.629965
  O          -10.654552       -7.980093       -3.784639
  O          -12.296572       -6.637468       -2.422382
  N           -9.798678       -6.896127       -1.673815
  C          -10.549522       -5.494362        0.595086
  C          -11.435797       -8.950463       -1.490978
  S          -13.571680       13.690175        9.663116
  S          -16.179828       14.566740       10.404364
  F          -14.085903       11.051848        9.868568
  F          -12.176273       11.699485       10.748073
  F          -14.069530       12.101969       11.800060
  F          -18.531610       13.564337       11.121562
  F          -17.885698       12.950556        9.089696
  F          -16.971693       12.031855       10.852510
  O          -12.945214       14.626206       10.587486
  O          -12.927856       13.373422        8.394700
  O          -16.887642       15.688466        9.797877
  O          -15.781218       14.639222       11.805246
  N          -15.124337       13.936672        9.367693
  C          -13.487500       12.053866       10.572859
  C          -17.451935       13.201859       10.355733
  S          -16.928303        0.006963       18.328065
  S          -19.067828       -1.808042       18.826506
  F          -17.706396        0.692138       15.839589
  F          -15.555242        0.290416       16.064993
  F          -16.990040       -1.380068       16.002314
  F          -21.221063       -2.788949       17.621738
  F          -21.281054       -0.588248       17.896920
  F          -20.024732       -1.461520       16.332956
  O          -15.941683       -0.955802       18.800017
  O          -16.728939        1.431810       18.559981
  O          -19.765749       -1.946896       20.099581
  O          -18.273371       -2.919146       18.315722
  N          -18.452660       -0.329901       18.676834
  C          -16.801558       -0.115147       16.462254
  C          -20.468715       -1.641229       17.604536
  S            1.408663       -9.530893        7.957742
  S            1.084178       -6.744920        7.454435
  F            4.033866       -9.410598        8.558780
  F            3.457619      -11.067503        7.231280
  F            3.593115       -9.015475        6.441399
  F            2.509790       -4.504968        7.436775
  F            2.432062       -5.493909        9.421306
  F            3.712634       -6.305445        7.843815
  O            0.715968       -9.880410        6.724420
  O            1.269892      -10.373606        9.138546
  O           -0.077817       -5.955304        7.846057
  O            1.375948       -6.944177        6.039592
  N            1.263897       -8.009752        8.430978
  C            3.217892       -9.750644        7.521135
  C            2.510854       -5.717143        8.080369
  S           24.981525        6.797812        6.734958
  S           26.674288        5.896634        4.627191
  F           24.129637        9.029430        5.485330
  F           24.681452        9.298305        7.597878
  F           26.249646        9.095316        6.064041
  F           27.453982        6.625974        2.196100
  F           25.269609        6.274328        2.361222
  F           26.148009        8.104445        3.177319
  O           26.028069        6.586697        7.726548
  O           23.585381        6.570432        7.085386
  O           26.827431        4.505816        4.215768
  O           27.809494        6.605632        5.206192
  N           25.234121        6.131458        5.302845
  C           25.023010        8.648369        6.441796
  C           26.358413        6.772552        3.009627
  S           13.872408       -4.572829       -5.658518
  S           11.577254       -6.214907       -6.053613
  F           12.528010       -2.245759       -5.446989
  F           14.329008       -2.169250       -6.708024
  F           12.487440       -3.109110       -7.468538
  F            8.936715       -6.004336       -6.236037
  F            9.748890       -5.339032       -4.281516
  F            9.959097       -4.061994       -6.045579
  O           14.563174       -5.189551       -6.783493
  O           14.623642       -4.140449       -4.487016
  O           11.391874       -7.543027       -5.480180
  O           11.691211       -6.064209       -7.499613
  N           12.566548       -5.336909       -5.139200
  C           13.257189       -2.947583       -6.360166
  C            9.978320       -5.353478       -5.623644
  S           19.742325       -0.564517       13.215224
  S           21.605753        1.586312       13.362955
  F           18.854011       -0.005232       10.732181
  F           17.284735       -0.494682       12.194188
  F           18.258740        1.480763       12.239216
  F           22.479270        3.620665       11.897199
  F           22.840877        1.637362       10.970831
  F           20.831972        2.503891       10.951971
  O           19.199936       -0.244475       14.529173
  O           19.823428       -1.951528       12.775518
  O           22.931341        1.502927       13.965414
  O           20.595065        2.449724       13.962659
  N           21.128683        0.141374       12.843058
  C           18.479157        0.155649       12.032855
  C           21.955328        2.366963       11.704068
  S            5.529278       17.818760       10.031758
  S            3.805780       17.779937       12.300744
  F            5.902895       20.488371       10.000187
  F            5.517696       19.578836        8.034476
  F            3.862462       19.875195        9.457664
  F            2.696671       19.454551       14.037296
  F            4.914870       19.470405       14.079124
  F            3.844016       20.468588       12.453137
  O            4.626375       16.961577        9.274739
  O            6.970537       17.706288        9.847794
  O            3.832219       16.769758       13.352378
  O            2.634010       17.893149       11.440075
  N            5.249268       17.909273       11.604075
  C            5.173678       19.531507        9.359245
  C            3.827980       19.378401       13.264041
  S           -8.456360       22.070464        4.178702
  S          -11.272523       22.331704        4.526880
  F           -8.563175       21.163833        1.642166
  F           -7.164834       20.088905        2.957013
  F           -9.332591       19.734215        3.124689
  F          -13.529366       21.946185        3.182223
  F          -12.182097       23.441165        2.248247
  F          -11.732551       21.306625        2.079204
  O           -8.318745       21.370069        5.448972
  O           -7.401593       22.964558        3.718505
  O          -11.928511       23.424098        5.236422
  O          -11.354790       20.975934        5.057666
  N           -9.854357       22.809947        3.938813
  C           -8.393212       20.692620        2.909929
  C          -12.218642       22.257153        2.919763
  S            6.486490      -12.439069        5.701332
  S            7.719473       -9.925620        5.169750
  F            8.395360      -13.347620        7.374101
  F            7.684476      -14.808863        5.891177
  F            9.053741      -13.194189        5.282050
  F            9.900854       -8.556703        5.816054
  F            8.606039       -9.037857        7.552243
  F            9.861758      -10.591535        6.659952
  O            6.253950      -12.676073        4.282591
  O            5.524323      -12.910815        6.688962
  O            7.009985       -8.657800        5.041873
  O            8.410218      -10.484266        4.013290
  N            6.893941      -10.944560        6.100338
  C            7.992951      -13.487855        6.079283
  C            9.087508       -9.513071        6.370502
  S          -22.346924        8.372914       10.508082
  S          -22.998841        6.579751       12.624641
  F          -21.213034        6.525602        8.905229
  F          -20.104903        8.418596        9.073372
  F          -20.048273        6.955789       10.719604
  F          -22.772397        4.009398       13.250802
  F          -23.982592        4.377306       11.428035
  F          -21.802002        4.535045       11.343904
  O          -21.764842        9.331197       11.438645
  O          -23.048726        8.841079        9.319799
  O          -24.231269        6.619969       13.403486
  O          -21.724379        6.853401       13.278459
  N          -23.231153        7.212959       11.164911
  C          -20.852729        7.511093        9.775367
  C          -22.885815        4.785185       12.124359
  S          -20.288383       10.506939       -0.918009
  S          -21.489880        7.924238       -0.997438
  F          -17.878960        9.731782       -1.846029
  F          -17.817323       11.106539       -0.129667
  F          -18.330412        8.985512        0.172128
  F          -20.882597        5.420953       -1.641517
  F          -20.718554        6.840579       -3.338620
  F          -19.173116        6.802891       -1.790354
  O          -20.771523       10.739687        0.436789
  O          -20.194253       11.613870       -1.861176
  O          -22.863392        7.654368       -1.406988
  O          -21.085975        7.669837        0.380515
  N          -20.947194        9.270330       -1.689725
  C          -18.490210       10.041986       -0.667768
  C          -20.510905        6.692230       -2.001075
  S           -6.855068       -7.173890       15.720269
  S           -5.117522       -5.012759       15.063995
  F           -9.062403       -5.668827       16.080635
  F           -8.728192       -7.212908       17.611572
  F           -7.525609       -5.367172       17.623669
  F           -5.173657       -2.371898       14.794236
  F           -6.523310       -3.437807       13.392563
  F           -7.081282       -3.221201       15.497006
  O           -5.892886       -7.718650       16.669225
  O           -7.702767       -8.068893       14.943032
  O           -4.082044       -5.055722       14.037820
  O           -4.738198       -4.863710       16.464177
  N           -6.294191       -6.054794       14.724367
  C           -8.098591       -6.295490       16.813105
  C           -6.030898       -3.435504       14.662082
  S          -16.013726       19.987684        6.576648
  S          -14.550043       19.701514        9.004814
  F          -14.089046       21.316116        5.235649
  F          -16.118023       22.134837        5.006299
  F          -14.992086       22.479275        6.868213
  F          -12.188380       20.336095       10.039182
  F          -12.055029       19.008357        8.266687
  F          -12.498851       21.135296        8.009621
  O          -17.193381       20.458826        7.290450
  O          -16.161422       19.174053        5.376685
  O          -14.554623       18.511050        9.847352
  O          -15.110596       20.947272        9.515188
  N          -14.876178       19.315485        7.478265
  C          -15.253493       21.561548        5.900464
  C          -12.729017       20.060319        8.808231
  S           11.001280      -10.183970       -0.853062
  S            9.171833      -12.368754       -0.862687
  F           13.240613      -11.683893       -0.908066
  F           13.280864      -10.002405        0.509902
  F           12.131678      -11.820747        0.985401
  F            9.179566      -15.023746       -0.894723
  F           10.136127      -14.110183       -2.675960
  F           11.194985      -14.143628       -0.761637
  O           10.297356       -9.540692        0.248645
  O           11.625723       -9.376258       -1.892962
  O            7.915932      -12.403110       -1.603381
  O            9.148773      -12.384385        0.595338
  N           10.221469      -11.380008       -1.574289
  C           12.481387      -10.978662       -0.022415
  C            9.970295      -13.989800       -1.329794
  S          -10.422611       -4.459912       14.521233
  S          -12.053064       -2.948740       16.303993
  F          -10.729175       -2.827659       12.397751
  F          -10.899141       -4.975504       11.953311
  F          -12.557942       -3.918338       12.945213
  F          -13.524040       -0.738408       16.331028
  F          -11.380001       -0.374361       15.891736
  F          -12.686779       -1.209010       14.348161
  O          -11.091751       -5.700845       14.889216
  O           -9.001464       -4.463139       14.198665
  O          -11.761588       -2.724416       17.715310
  O          -13.226568       -3.727519       15.925831
  N          -10.696668       -3.209658       15.480680
  C          -11.203777       -4.011973       12.877653
  C          -12.419420       -1.228199       15.680257
  S           31.141636       -3.541004        1.855046
  S           28.888371       -4.243759        0.258430
  F           29.771256       -3.197810        4.151061
  F           31.263301       -1.640918        3.715694
  F           29.346055       -1.667352        2.630998
  F           26.261537       -4.560624        0.480705
  F           27.435093       -5.936866        1.765669
  F           27.215550       -3.834167        2.329042
  O           31.607798       -2.586751        0.857465
  O           32.101896       -4.298237        2.647649
  O           28.885158       -5.273634       -0.774256
  O           28.690438       -2.848194       -0.115515
  N           30.007961       -4.559341        1.368682
  C           30.322984       -2.458542        3.147451
  C           27.378900       -4.669815        1.270110
  S           -3.773371       14.452915        1.767222
  S           -5.240677       16.386470        3.260080
  F           -1.344095       15.538625        2.199953
  F           -1.724737       14.904253        0.128158
  F           -2.636781       16.754265        0.901930
  F           -4.831568       18.587629        4.687524
  F           -3.818117       16.793408        5.509774
  F           -3.000929       17.800442        3.747668
  O           -4.691419       14.559622        0.640779
  O           -3.158031       13.172045        2.090409
  O           -6.380389       16.088490        4.119940
  O           -5.433988       17.196347        2.062857
  N           -4.274058       15.107187        3.138360
  C           -2.300068       15.479094        1.230044
  C           -4.158669       17.437373        4.359345
