        2399
  Built with Packmol                                             
  Ti          -2.855441        2.229755       11.246400
  Ti           7.975036        5.110976        1.881588
  Ti           1.241250       -1.706436        9.426417
  Ti           2.752440        7.455698        3.653386
  Ti           1.753864        9.134007        1.748999
  Ti           3.129451       -1.960779       11.379785
  Ti          -1.906242        0.493870        9.354922
  Ti           5.987220        5.413529        3.729051
  H            3.754491        1.533189        8.602241
  H           -0.186252       -4.222307        6.483198
  H            4.786307       10.856196        4.661866
  H           -2.353563        6.126849       11.026946
  H            8.783818        1.204924        2.202274
  H           -6.815340        1.473136       10.863946
  H           11.357185        7.115275        2.082244
  H            4.105056       -5.995319       10.993862
  H           -2.304659        8.544108        2.071053
  H            4.727684        3.049654        6.848996
  H            0.035867        3.681430        8.401220
  H           -3.665336       -1.693995        6.360589
  H            2.248323        7.497205       -0.124086
  H            6.099510        4.868281        0.181652
  H            3.639358       -2.627888        5.868686
  H            1.029000        9.292718        7.272349
  H           -5.978856        3.882496        8.999012
  H           10.729794        3.026651        4.187587
  H           -3.677750        2.435055        5.665173
  H           -1.346210       10.961867        4.102241
  H            2.146109       12.236841        2.604467
  H            8.625987       -0.813916        3.404762
  H            4.845063        7.135828        2.314757
  H            0.160550        0.141959       10.720043
  H            7.364193       -0.025926        9.769448
  H            5.883069       -0.494990       10.516784
  H            7.938314        4.407710        8.670546
  H            7.368596        4.766292        7.052003
  H            6.875380       -4.980756        9.579418
  H            5.596233       -3.880175       10.036813
  H            1.425195        1.874323        9.361458
  H            1.008323        5.203049        6.646973
  H            6.031760        8.869380        3.866525
  H           -7.731962        8.890218        4.689364
  C            8.553073        4.369740        4.745117
  C           -3.815986        2.491148        8.399367
  C            3.821751       -2.717141        8.501695
  C            0.816322        9.426210        4.612746
  C            9.449095        3.765425        5.740308
  C           -4.747890        3.116163        7.422320
  C            4.761950       -3.331489        7.554506
  C           -0.073496       10.073008        5.612538
  C            9.200332        3.840338        7.146730
  C           -4.531496        2.996185        6.034299
  C            5.891402       -4.091792        8.007572
  C           -1.168225       10.845965        5.167611
  C            0.180998        9.902249        6.967423
  C            4.514243       -3.199354        6.170583
  C           10.582770        3.066439        5.264601
  C           -5.848054        3.808578        7.921002
  C            2.924977        4.216078        6.650019
  C            1.843075        2.527811        8.597691
  C            6.470568        9.512288        4.627853
  C           -1.867744       -2.873623        6.521957
  C            8.764846        1.283992        0.058179
  C            2.295114       13.075580        0.083188
  C           11.249281        7.047107       -0.067827
  C           -2.109052        8.589544       -0.087215
  C            3.499155        5.112520        5.617977
  C           -1.256933       -1.981851        7.536115
  C            8.628990        2.738849        0.034982
  C            2.202361       11.642063        0.045700
  C            9.951446        6.430279       -0.020963
  C           -0.706742        9.003887       -0.062753
  C            1.597294        4.398121        7.081602
  C            3.162817        2.337892        8.169008
  C            5.769511       10.639236        5.075943
  C           -1.171243       -4.011621        6.072589
  C            8.804195        0.614878        1.287859
  C           -2.342636        6.715246       11.940841
  C           11.904581        7.321910        1.166133
  C           -7.376828        1.293757       11.779304
  C            7.737945        9.211994        5.142878
  C           -3.143621       -2.579527        6.003644
  C            3.705306        3.179589        7.197444
  C            1.059848        3.553593        8.053957
  C            7.308935        0.249396       11.793799
  C           -2.806243        8.359124        1.125256
  C            4.146699       -6.522481       11.942914
  C            2.308891       13.826772        1.312468
  N            2.363948       13.227937        2.550629
  N            6.729903        0.066554       10.554829
  N            8.119448        4.486580        7.678019
  N            6.222410       -4.250040        9.324967
  O            7.376747        4.774832        5.110912
  O           -3.046995        1.540283        8.001084
  O            4.203207       -2.592658        9.722805
  O            0.750449        9.855877        3.413146
  O            1.586781        8.468994        4.999201
  O            2.651328       -2.348700        8.096181
  O            8.964947        4.450494        3.533371
  O           -3.858000        2.927396        9.599082
  O            6.292442        4.195622        2.534358
  O           -1.353778        2.054229       10.099438
  O            7.231229        6.482910        2.984337
  O           -3.105958        0.329551       10.592107
  O            1.500552       -2.878399       10.686834
  O            3.268988        9.017012        2.914910
  O            2.454501       -0.616911       10.222657
  O            1.562756        7.259902        2.397478
  O            4.720279        4.932652        5.263729
  O           -1.914597       -0.946915        7.914344
  O            3.871775       -3.732640       11.988892
  O            2.119252       10.940626        1.140895
  O            4.673921       -0.944457       11.983764
  O           -0.116683        9.104896        1.080821
  O           -0.095110       -2.276397        7.993933
  O            2.757324        6.033407        5.124635
  O            9.412111        6.130103        1.127024
  O           -4.742224        2.169711       11.914840
  O            8.616546        3.375778        1.156429
  O           -2.474026        3.952051       11.996107
  O            4.484231        6.587072        3.035431
  O           -0.217709       -0.416738       10.016450
  O            6.938339        5.361952        0.102630
  O            2.370688        8.464002       -0.064115
  N            2.363059        4.586123       11.641469
  N            1.489408        3.087240       12.966990
  C           -6.246380       -8.828250       10.598021
  C           -4.789278       -8.689945       11.068554
  C          -10.529557        4.599805       11.090753
  C            2.301075        3.266184       11.908502
  C            8.073073       -9.357019       12.603399
  C            1.008679        4.315727       13.381668
  C           -4.416080       11.884697       -1.650466
  C            1.154130        1.793039       13.564150
  H          -12.834383        5.187464        9.624599
  H           -6.693390       -7.848114       10.391792
  H           -0.123349       -1.097963       -1.057928
  H           -4.288499       -8.021295       10.347334
  H          -10.977477        3.934281       11.842726
  H          -10.615842        4.069400       10.131165
  H            2.802976        2.476178       11.365087
  H           -3.422620       -0.659364       -0.618464
  H            0.329015        4.406565       14.220647
  H           -4.305476       12.424431       -0.699599
  H           -3.904670       12.492719       -2.411730
  H           -3.878578       10.930862       -1.553581
  H            0.132331        1.512025       13.268699
  H            1.881446        1.040165       13.238308
  H            1.208292        1.901042       14.654502
  S            2.155950       11.840316       15.293394
  S            0.227174       12.226578       13.231629
  F            2.769981       14.446754       15.604605
  F            4.495384       13.082727       15.559103
  F            3.448121       13.601451       13.691682
  F           -0.872063       14.189158       11.820948
  F           -1.239490       14.348861       14.003126
  F            0.719343       14.874000       13.182069
  O            2.811619       10.777228       14.543050
  O            2.090364       11.775737       16.747784
  O           -1.027639       11.492653       13.113755
  O            1.254872       12.064902       12.209713
  N            0.711039       12.277412       14.764281
  C            3.264490       13.324491       15.009509
  C           -0.317354       14.003771       13.062524
  S           -7.044336        5.271099       16.894606
  S           -8.665091        5.952754       19.137092
  F           -6.144313        7.767688       16.420890
  F           -6.768445        6.648086       14.632985
  F           -8.282960        7.501962       15.985846
  F           -9.358242        8.077403       20.570786
  F           -7.181753        7.648848       20.611327
  F           -8.083590        8.565783       18.841341
  O           -8.125148        4.503782       16.289507
  O           -5.661732        4.839769       16.733100
  O           -8.807169        5.143025       20.341770
  O           -9.818014        6.160167       18.268553
  N           -7.248677        5.671072       18.429873
  C           -7.071232        6.887715       15.946948
  C           -8.291211        7.648285       19.821862
  S          -14.808597      -12.560733       -0.172423
  S          -12.913741      -13.667720       -1.990210
  F          -16.132668      -14.861180        0.298945
  F          -17.411439      -13.102698       -0.035930
  F          -16.412471      -14.081943       -1.737764
  F          -12.292899      -15.993867       -3.109882
  F          -12.143369      -16.004446       -0.896301
  F          -14.105804      -16.079309       -1.860758
  O          -15.092157      -11.451104       -1.073196
  O          -14.834168      -12.356484        1.270265
  O          -11.500985      -13.309621       -2.044800
  O          -13.780696      -13.353068       -3.119810
  N          -13.503574      -13.420028       -0.514920
  C          -16.256804      -13.720459       -0.436921
  C          -12.864875      -15.533078       -1.950528
  S           20.711429       -8.457952       13.133699
  S           20.977219      -11.224209       13.764121
  F           21.797627       -7.535895       15.422234
  F           19.967897       -6.499323       14.776280
  F           19.839147       -8.496164       15.697768
  F           21.867384      -12.785085       15.718945
  F           23.434555      -11.488513       14.832783
  F           21.956628      -10.637634       16.203429
  O           19.323573       -8.637436       12.727849
  O           21.553816       -7.485809       12.448833
  O           21.356280      -12.264442       12.814741
  O           19.644403      -11.239973       14.355700
  N           21.565624       -9.799272       13.306879
  C           20.573540       -7.725250       14.853106
  C           22.124832      -11.540186       15.201711
  S           16.675243       -1.456601        7.399805
  S           18.309519       -3.081053        5.723336
  F           14.592843       -3.164830        7.513689
  F           14.051712       -1.057567        7.187687
  F           14.880883       -2.253442        5.533767
  F           18.246223       -5.428862        4.484849
  F           18.075411       -5.582679        6.691559
  F           16.359119       -4.925384        5.504447
  O           16.915621       -0.281716        6.572195
  O           16.521749       -1.316181        8.842179
  O           19.752667       -3.238620        5.863314
  O           17.767495       -2.436211        4.532957
  N           17.641880       -2.703663        7.136689
  C           14.969225       -2.023519        6.870339
  C           17.711734       -4.845264        5.606151
  S           20.036701        9.815210       19.270272
  S           22.752169        8.966102       19.110583
  F           20.506182       12.397304       18.654003
  F           19.119937       12.077793       20.332065
  F           21.286387       11.802467       20.621523
  F           25.163028        9.956374       18.603446
  F           23.748869       10.144809       16.904312
  F           23.575644       11.484101       18.625712
  O           19.855730        9.146419       20.552084
  O           18.935042        9.882913       18.318703
  O           23.198602        7.697043       18.547306
  O           22.940985        9.229156       20.532471
  N           21.353908        9.415118       18.455613
  C           20.266268       11.613983       19.743499
  C           23.857891       10.206179       18.260225
  S           14.210125       20.609490        0.569678
  S           13.051302       22.180804        2.645334
  F           11.878815       19.746795       -0.473471
  F           13.427700       18.200591       -0.250175
  F           12.318856       18.915871        1.513893
  F           10.663301       22.842833        3.598873
  F           10.991875       23.484049        1.500471
  F           10.574325       21.383976        1.950221
  O           15.140851       19.984683        1.500505
  O           14.619282       20.880202       -0.802556
  O           13.541732       23.484044        3.079084
  O           13.106123       21.048735        3.562955
  N           13.449613       21.908293        1.111444
  C           12.880718       19.308598        0.340363
  C           11.226937       22.488137        2.398836
  S           11.232788        6.447316       13.040368
  S           13.079888        8.057543       11.585843
  F            9.038990        7.877765       12.401251
  F            9.182327        7.287650       14.515694
  F           10.423606        8.935139       13.742325
  F           13.116529       10.227627       10.056314
  F           11.885097        8.577667        9.229502
  F           11.128416        9.779784       10.893618
  O           12.083057        6.461106       14.223553
  O           10.443566        5.264679       12.720653
  O           14.209884        7.546167       10.818577
  O           13.323251        8.881482       12.764194
  N           11.916677        6.951734       11.685142
  C            9.910128        7.714419       13.436909
  C           12.250151        9.212779       10.377336
  S            3.327750      -12.635726        3.818972
  S            3.296929      -13.875082        6.384766
  F            5.776553      -13.509688        3.106959
  F            5.376478      -11.393435        2.658555
  F            5.805286      -12.022376        4.725836
  F            4.840065      -15.387175        7.928259
  F            4.293119      -16.347612        6.004508
  F            5.813191      -14.774607        6.048892
  O            2.880605      -11.366128        4.376876
  O            2.895241      -13.042596        2.488140
  O            2.133852      -14.514294        6.989543
  O            3.858263      -12.675547        6.995203
  N            3.189517      -13.906497        4.780643
  C            5.169597      -12.384759        3.580553
  C            4.629756      -15.165374        6.590291
  S          -20.682399        5.442746       10.331756
  S          -18.512878        3.840918       11.252394
  F          -19.189422        7.116904        8.836556
  F          -20.727170        8.091766       10.071316
  F          -18.874318        7.345526       11.000378
  F          -15.873168        3.671063       11.021858
  F          -16.951003        3.432929        9.097287
  F          -16.731765        5.418268        9.990200
  O          -21.218770        5.571457       11.680390
  O          -21.584597        5.372864        9.189444
  O          -18.552606        2.391437       11.408985
  O          -18.357633        4.688474       12.428898
  N          -19.562818        4.317886       10.131742
  C          -19.808296        7.076464       10.050439
  C          -16.942200        4.107535       10.280072
  S           24.123786       -3.574309        4.326053
  S           26.901455       -3.368976        4.928251
  F           23.394525       -1.285160        5.548912
  F           22.083241       -3.007891        5.939275
  F           24.041374       -2.861770        6.938002
  F           28.592787       -1.753845        6.185554
  F           27.549511       -0.794431        4.478654
  F           26.487958       -1.127281        6.362598
  O           24.083714       -4.961257        4.770849
  O           23.289905       -3.138811        3.213082
  O           27.982292       -3.725771        4.016338
  O           26.713996       -4.132240        6.156624
  N           25.582236       -2.954716        4.107408
  C           23.388623       -2.630469        5.768596
  C           27.399805       -1.667857        5.512515
  S           22.880871       13.523451       15.729867
  S           25.476385       13.747890       16.884502
  F           22.350552       16.166404       15.698742
  F           20.699247       14.893651       16.400843
  F           22.416282       15.302064       17.719207
  F           27.150474       15.608221       17.771443
  F           26.653852       15.812307       15.618741
  F           25.200219       16.414827       17.138889
  O           22.504541       12.474571       16.668642
  O           22.374711       13.498129       14.363528
  O           26.632999       12.946265       16.501439
  O           24.916423       13.610295       18.223951
  N           24.441205       13.868775       15.659952
  C           22.058940       15.054577       16.431514
  C           26.148655       15.488491       16.841063
  S           29.455566       18.316371       -5.156704
  S           30.129890       18.530209       -2.396303
  F           28.289918       20.738931       -5.356390
  F           27.193141       19.095397       -6.323619
  F           27.153690       19.309866       -4.131465
  F           29.900666       20.238128       -0.376270
  F           31.085901       21.027198       -2.077739
  F           28.905073       20.922249       -2.218825
  O           28.891536       16.987015       -4.962396
  O           30.142165       18.645038       -6.399394
  O           31.373694       18.054911       -1.801207
  O           28.866361       17.908772       -2.016932
  N           30.343871       18.879215       -3.951340
  C           27.946887       19.425827       -5.228956
  C           30.001276       20.274393       -1.744534
  S          -16.922609       15.425374        6.798947
  S          -15.737473       13.260346        5.374743
  F          -15.560974       17.379666        5.536369
  F          -15.700651       17.603651        7.720397
  F          -14.309193       16.135645        6.847530
  F          -13.940025       12.824663        3.469638
  F          -15.669708       14.041429        2.798755
  F          -14.112824       14.945150        4.042271
  O          -16.699291       14.765126        8.078508
  O          -18.109380       16.246670        6.597038
  O          -16.448444       12.070575        4.920804
  O          -14.696630       13.134542        6.388367
  N          -16.744613       14.507527        5.501005
  C          -15.542530       16.690321        6.712216
  C          -14.825158       13.805755        3.840555
  S          -11.652373        1.575238        5.388470
  S          -14.256400        0.440019        5.613354
  F          -10.396404       -0.715746        4.724136
  F           -9.358552        0.513763        6.224410
  F          -11.121726       -0.675316        6.799216
  F          -15.476480       -1.906114        5.374335
  F          -14.508670       -1.212342        3.502321
  F          -13.290478       -2.026578        5.127116
  O          -11.793005        2.263655        6.664942
  O          -10.903496        2.194235        4.302309
  O          -15.488276        1.081178        5.167831
  O          -14.048256        0.189262        7.034765
  N          -12.999993        0.978643        4.766560
  C          -10.591704        0.088106        5.807571
  C          -14.380651       -1.261776        4.857061
  S           24.620163       -2.319890       18.514806
  S           21.809944       -2.773837       18.644621
  F           24.489084        0.362680       18.747284
  F           25.874736       -0.371557       17.204391
  F           23.702153       -0.398558       16.840732
  F           19.542088       -1.413727       18.883360
  F           20.909920       -1.172600       20.613477
  F           21.324114       -0.126395       18.737089
  O           24.751176       -3.182223       17.347634
  O           25.687564       -2.262603       19.505308
  O           21.174456       -3.880124       19.351289
  O           21.707680       -2.693365       17.192148
  N           23.233461       -2.423593       19.305427
  C           24.656152       -0.592379       17.789107
  C           20.856689       -1.291077       19.258012
  S           19.182554       12.973969        6.403034
  S           21.813835       14.015665        6.069147
  F           19.841789       11.109617        8.235248
  F           18.485489       10.416380        6.647947
  F           20.630098       10.691419        6.225929
  F           24.280860       13.628329        6.971268
  F           22.836027       14.205380        8.553001
  F           22.824483       12.170104        7.750227
  O           18.986573       12.884021        4.962002
  O           18.061806       13.303134        7.274410
  O           22.138272       15.428070        5.904991
  O           22.066320       13.086629        4.973813
  N           20.437604       13.842128        6.882541
  C           19.571955       11.210236        6.902876
  C           22.990611       13.476013        7.413579
  S           10.862476       10.661481       -5.181623
  S           11.267882        7.913596       -5.818037
  F            8.182095       10.630479       -5.467989
  F            9.195548       12.359007       -6.376150
  F            9.275753       10.389545       -7.359959
  F            9.873389        5.761183       -6.505480
  F            9.326896        6.576713       -4.515841
  F            8.645600        7.582677       -6.335402
  O           11.925267       11.074996       -6.088570
  O           10.630708       11.394900       -3.943842
  O           12.221717        7.034014       -5.151982
  O           11.454905        8.244579       -7.225903
  N           10.810843        9.100831       -4.834512
  C            9.297869       11.011842       -6.151922
  C            9.691962        6.914192       -5.783511
  S           16.667958      -12.508186        7.917646
  S           15.227227      -10.097072        7.436945
  F           17.901023      -12.588818        5.521721
  F           17.071557      -14.507678        6.207009
  F           15.734579      -12.947151        5.413071
  F           14.886643       -8.280647        5.530465
  F           16.979891       -8.432919        6.249864
  F           16.166985       -9.965258        4.916427
  O           15.471480      -13.178084        8.410344
  O           17.969507      -12.816694        8.496019
  O           15.006183       -9.045535        8.423102
  O           14.090898      -10.852735        6.922803
  N           16.567678      -10.918005        7.776052
  C           16.844535      -13.157646        6.168575
  C           15.859174       -9.149318        5.958456
  S           20.996691        2.033910       -1.500993
  S           22.344963       -0.257300       -2.527040
  F           18.665721        0.785137       -0.977016
  F           18.471893        2.748454       -1.950396
  F           19.094938        0.990930       -3.123433
  F           21.901590       -2.832212       -2.999601
  F           21.710764       -2.274982       -0.860562
  F           20.121869       -1.756139       -2.272350
  O           21.422816        2.847271       -2.632335
  O           20.869609        2.630952       -0.177697
  O           23.743836       -0.585043       -2.276371
  O           21.912881        0.067751       -3.881388
  N           21.748760        0.632770       -1.327851
  C           19.220854        1.602377       -1.916216
  C           21.469769       -1.858343       -2.134330
  S           14.947048       -1.852850       -4.948028
  S           14.805678       -4.680526       -4.624744
  F           17.632470       -1.719743       -5.143475
  F           16.716558       -0.195783       -3.847981
  F           16.918672       -2.271591       -3.138571
  F           16.410311       -6.791562       -4.487818
  F           16.539823       -5.699682       -6.414845
  F           17.491748       -4.876900       -4.624929
  O           14.049330       -1.633817       -3.821440
  O           14.909898       -0.957879       -6.097536
  O           13.791689       -5.540049       -5.224860
  O           14.863888       -4.539658       -3.174440
  N           15.013306       -3.350922       -5.504958
  C           16.643406       -1.509088       -4.229402
  C           16.397169       -5.548392       -5.069143
  S          -10.366338      -10.249043       -1.520825
  S          -10.838240      -11.206631       -4.162904
  F          -10.204720       -7.641277       -2.184783
  F           -8.661180       -8.342487       -0.782841
  F           -8.520839       -8.846992       -2.922671
  F          -11.091382      -10.287495       -6.641044
  F          -12.622821       -9.502522       -5.240716
  F          -10.579004       -8.724410       -5.175279
  O           -9.334874      -11.252615       -1.292787
  O          -11.227314       -9.823081       -0.424925
  O          -11.762106      -12.280662       -4.509351
  O           -9.407315      -11.390946       -4.375261
  N          -11.295875      -10.483942       -2.801279
  C           -9.389251       -8.692696       -1.888675
  C          -11.312416       -9.853607       -5.357896
  S            5.677648       18.400998        7.356974
  S            7.235315       20.651888        8.149073
  F            7.451721       16.531301        8.147104
  F            6.547346       16.181149        6.172477
  F            8.119272       17.705780        6.412555
  F            9.582317       21.207902        9.259252
  F            8.239189       20.020749       10.566572
  F            9.272769       19.056924        8.896337
  O            5.411710       18.987947        6.050130
  O            4.663469       17.585132        8.012354
  O            6.702011       21.861249        8.765619
  O            7.841841       20.725799        6.824960
  N            6.282970       19.393115        8.456097
  C            7.030758       17.151959        7.008804
  C            8.649461       20.201473        9.280816
  S           28.420970       -2.138171       -0.269418
  S           31.000871       -2.952711        0.625506
  F           28.846448       -2.654095       -2.880968
  F           27.847343       -0.739692       -2.460844
  F           30.012256       -0.954925       -2.114552
  F           33.280593       -3.905042       -0.347118
  F           31.538958       -5.233004       -0.701566
  F           31.797650       -3.423375       -1.903753
  O           28.497209       -0.899823        0.494622
  O           27.142099       -2.816441       -0.437220
  O           31.263548       -3.690792        1.855681
  O           31.504975       -1.592043        0.480333
  N           29.512367       -3.249565        0.094498
  C           28.818815       -1.598145       -2.019366
  C           31.942929       -3.933551       -0.652775
  S           -5.762547      -15.040791        8.250798
  S           -4.264957      -15.671917        5.910038
  F           -4.644079      -12.623085        8.664481
  F           -4.864969      -13.867191       10.465331
  F           -3.269323      -14.303565        9.010482
  F           -2.380075      -14.623857        4.361214
  F           -4.240093      -13.416905        4.438748
  F           -2.848237      -13.391673        6.126655
  O           -5.483937      -16.345902        8.835723
  O           -7.043155      -14.388935        8.493379
  O           -4.799538      -16.348420        4.733747
  O           -3.241351      -16.328057        6.715224
  N           -5.432372      -14.890817        6.692828
  C           -4.562066      -13.901586        9.130164
  C           -3.396970      -14.191901        5.175415
  S            7.452489       18.408279       -0.197820
  S            7.065115       20.854102        1.212194
  F            5.099839       17.295479        0.505117
  F            6.840074       15.956313        0.638812
  F            6.514406       17.500750        2.175611
  F            5.267254       22.040171        2.764934
  F            4.513564       21.568045        0.732335
  F            4.726105       19.975730        2.217692
  O            8.794585       18.253722        0.348042
  O            7.157321       17.957668       -1.551905
  O            7.451108       22.171764        0.720390
  O            7.723658       20.304090        2.391356
  N            6.787621       19.851518       -0.014002
  C            6.418997       17.243153        0.844582
  C            5.297302       21.116576        1.750216
  S          -17.813522       18.675839        3.248281
  S          -20.224947       20.145884        3.628072
  F          -18.997616       16.355212        2.555448
  F          -17.331699       16.161716        3.979153
  F          -19.290246       16.901244        4.664927
  F          -22.854509       19.804231        3.491155
  F          -21.813256       19.474713        1.559933
  F          -21.711246       17.955562        3.131144
  O          -17.275400       19.142975        4.519219
  O          -16.924873       18.455763        2.114443
  O          -20.425366       21.536798        3.237834
  O          -20.249336       19.783385        5.040380
  N          -19.100898       19.456429        2.707801
  C          -18.404706       16.939916        3.634675
  C          -21.721678       19.295649        2.906670
  S           -9.853836       -3.456472       -4.581972
  S           -8.212367       -1.683949       -6.093260
  F           -9.842704       -1.996644       -2.315657
  F           -9.540452       -4.157279       -2.032894
  F           -7.897056       -2.902393       -2.792896
  F           -6.921225        0.619793       -5.817958
  F           -9.114914        0.790364       -5.533277
  F           -7.871404       -0.079435       -3.957186
  O           -9.062970       -4.609888       -4.990918
  O          -11.291214       -3.589115       -4.381794
  O           -8.409378       -1.359571       -7.501472
  O           -7.014662       -2.406768       -5.681372
  N           -9.604339       -2.111419       -5.411047
  C           -9.240872       -3.097994       -2.847615
  C           -8.031582       -0.002172       -5.304295
  S           -1.862884        7.232912        8.205319
  S           -1.585163        9.471026        9.947148
  F           -1.716531        8.636390        5.908313
  F           -3.297010        7.107203        5.965985
  F           -3.556634        9.005325        7.053560
  F           -1.286446       12.106971        9.834761
  F            0.367938       10.982845        8.874676
  F           -1.560643       11.171617        7.858866
  O           -3.004704        6.731045        8.958611
  O           -0.926384        6.301455        7.589627
  O           -0.811814        9.476029       11.183676
  O           -3.033099        9.635430       10.002532
  N           -1.004637        8.377332        8.921206
  C           -2.648236        8.053026        6.714392
  C           -0.978649       11.005908        9.075482
  S          -14.627516       -8.571721       17.735675
  S          -14.704404      -10.545518       19.789565
  F          -13.131918      -10.007756       16.012772
  F          -12.537963       -7.900583       16.228863
  F          -12.035975       -9.356595       17.804024
  F          -13.800922      -12.991570       20.290176
  F          -15.145066      -12.883378       18.528365
  F          -13.083191      -12.167323       18.377139
  O          -14.268708       -7.529319       18.688423
  O          -15.477971       -8.258283       16.594533
  O          -15.870154      -10.851003       20.611028
  O          -13.514318       -9.976500       20.411278
  N          -15.155735       -9.942412       18.368897
  C          -12.996945       -8.993987       16.913996
  C          -14.158986      -12.231919       19.204679
  S          -16.281911        7.593759        0.156947
  S          -16.978894        4.833775        0.026738
  F          -18.727471        8.474428        0.871837
  F          -17.731400        9.659315       -0.691346
  F          -18.630520        7.710310       -1.187388
  F          -19.083726        3.252381        0.371622
  F          -18.502893        4.370563        2.197742
  F          -19.555161        5.394871        0.575875
  O          -15.618429        7.533807       -1.138920
  O          -15.762361        8.462770        1.205092
  O          -16.130462        3.736053        0.476476
  O          -17.303137        4.959895       -1.389445
  N          -16.629386        6.183684        0.827565
  C          -17.935373        8.384658       -0.233910
  C          -18.613451        4.452462        0.843038
  S            8.548479        7.163499       19.234237
  S            6.977172        5.441160       17.595703
  F            6.486390        8.617859       20.182937
  F            8.243620        9.787565       19.563598
  F            6.888083        8.943400       18.046035
  F            4.441302        5.037742       16.919919
  F            4.835512        4.780412       19.088050
  F            4.731839        6.788477       18.225579
  O            9.487480        7.414085       18.148623
  O            9.021607        7.103844       20.611303
  O            7.208908        4.011524       17.423841
  O            7.139616        6.339014       16.458125
  N            7.542358        5.939148       19.016374
  C            7.474571        8.699329       19.247516
  C            5.154387        5.518844       17.989328
  S           29.101388       -3.966063       15.722288
  S           27.302529       -6.144471       15.349601
  F           27.205229       -2.094954       16.135738
  F           28.836881       -1.485903       14.791706
  F           27.265045       -2.851516       14.072313
  F           24.694426       -6.641022       15.313522
  F           25.425161       -5.865686       17.259618
  F           25.176023       -4.505703       15.563945
  O           29.857114       -4.327276       14.530031
  O           29.784903       -3.398195       16.877300
  O           27.512655       -7.496717       15.853954
  O           27.279452       -5.907864       13.910818
  N           28.080597       -5.073078       16.261994
  C           28.034045       -2.536741       15.147790
  C           25.563585       -5.761511       15.909011
  S           17.501539      -13.303150        0.539976
  S           19.623745      -11.543408        1.260944
  F           18.522313      -15.491075        1.739313
  F           17.714551      -15.827194       -0.279151
  F           19.664177      -14.834512       -0.021015
  F           21.929256      -11.574846        2.577645
  F           20.179082      -12.098861        3.836497
  F           20.983941      -13.558676        2.419432
  O           17.540767      -12.855468       -0.846068
  O           16.232063      -13.670191        1.154332
  O           19.453769      -10.154337        1.671657
  O           20.326266      -11.846611        0.019516
  N           18.300177      -12.396054        1.587893
  C           18.412240      -14.940532        0.497163
  C           20.726920      -12.236344        2.597495
  S           18.972431        6.956055        4.946959
  S           21.396608        5.657265        4.200795
  F           18.458118        5.397975        7.085948
  F           16.726017        5.804197        5.791937
  F           18.258413        4.352108        5.162419
  F           22.946562        3.647126        4.979932
  F           22.734336        5.247816        6.501498
  F           21.097276        3.836410        6.162534
  O           18.474391        6.911469        3.578368
  O           18.647960        8.087007        5.806834
  O           22.590910        6.335768        3.710517
  O           20.667024        4.755009        3.317475
  N           20.529598        6.640333        5.132247
  C           18.070657        5.544342        5.787255
  C           22.073740        4.546558        5.539207
  S           28.388855       14.223737       12.185542
  S           28.825370       12.734542        9.795561
  F           29.721314       12.543167       13.818835
  F           27.790911       13.259230       14.593721
  F           27.846561       11.708026       13.030468
  F           30.005989       10.499536        8.982572
  F           31.404801       11.966990        9.883855
  F           30.082235       10.786110       11.165757
  O           26.967986       14.361718       11.893709
  O           29.105265       15.300015       12.857928
  O           29.117594       13.316518        8.490569
  O           27.578502       12.005357        9.996115
  N           29.303089       13.718999       10.973850
  C           28.442702       12.851185       13.460465
  C           30.154150       11.436170        9.974715
  S            1.650127        1.876410       -2.372706
  S            2.766641        3.885732       -4.056830
  F            3.965370        1.183339       -1.178256
  F            2.696423       -0.503256       -1.798600
  F            3.860091        0.613629       -3.299113
  F            5.113424        4.997474       -4.610638
  F            4.479869        5.262074       -2.500898
  F            5.250842        3.329577       -3.177645
  O            0.923470        1.282270       -3.487175
  O            1.066995        1.878023       -1.037163
  O            2.133564        5.162719       -4.366043
  O            2.975967        2.909524       -5.119758
  N            2.258976        3.332186       -2.635001
  C            3.128823        0.744647       -2.161054
  C            4.489591        4.392258       -3.548504
  S           27.163437       -2.364145        9.682165
  S           27.931990        0.364608        9.971101
  F           24.539336       -1.976168       10.162762
  F           25.425946       -3.712138       11.182558
  F           25.814845       -1.675985       11.928166
  F           26.856180        2.730927       10.512613
  F           26.048481        1.786558        8.674626
  F           25.419638        1.065461       10.642240
  O           28.247865       -2.808259       10.548106
  O           26.742422       -3.188024        8.556248
  O           28.917329        1.047179        9.140260
  O           28.202949        0.160942       11.389450
  N           27.258860       -0.853330        9.165337
  C           25.660298       -2.418135       10.800148
  C           26.482621        1.540184        9.941502
  S           17.487818       10.741005       -4.628642
  S           18.588964       12.031832       -2.339211
  F           17.374402        8.276373       -3.542303
  F           18.148569        8.352116       -5.600113
  F           19.422136        8.983474       -3.917107
  F           19.381917       11.459940        0.129439
  F           17.232346       11.046525       -0.232281
  F           18.755623        9.688795       -1.021663
  O           18.468700       11.364048       -5.507712
  O           16.132127       10.495132       -5.103371
  O           18.213945       13.360278       -1.868373
  O           19.941850       11.797080       -2.830336
  N           17.379037       11.359093       -3.157277
  C           18.150149        9.003440       -4.395382
  C           18.473692       10.997643       -0.789796
  S           20.045831        3.322251       16.512459
  S           22.222981        4.120870       18.168502
  F           18.102037        3.940505       18.275079
  F           17.856957        2.004230       17.259980
  F           19.331451        2.221891       18.882195
  F           22.674700        5.126219       20.584136
  F           21.466965        6.453989       19.279984
  F           20.548973        4.693468       20.199108
  O           20.693254        2.056251       16.194398
  O           19.228211        3.997077       15.512545
  O           23.418120        4.813387       17.700361
  O           22.337431        2.770445       18.706895
  N           20.976043        4.426891       17.200394
  C           18.779854        2.852286       17.811944
  C           21.691281        5.156602       19.627294
  S          -20.107752       -3.671791       -1.151035
  S          -17.716847       -2.146571       -1.429469
  F          -19.025229       -5.631763        0.350318
  F          -20.347239       -6.320605       -1.267533
  F          -18.311918       -5.615352       -1.729250
  F          -15.165831       -2.217637       -0.696436
  F          -16.579747       -2.134203        1.011279
  F          -16.301802       -4.004948       -0.088718
  O          -20.380307       -3.589484       -2.580025
  O          -21.208023       -3.672017       -0.195460
  O          -17.646012       -0.690337       -1.391244
  O          -17.384467       -2.851738       -2.661895
  N          -18.987705       -2.673227       -0.596830
  C          -19.395305       -5.392236       -0.939575
  C          -16.380131       -2.655848       -0.230572
  S           -4.644383       13.287640        9.051423
  S           -3.763422       14.639185       11.400356
  F           -7.210202       13.003873        9.828247
  F           -6.309458       11.214704        8.918748
  F           -5.796274       11.780613       10.985021
  F           -4.713981       15.498992       13.725702
  F           -5.689176       16.434179       11.965921
  F           -6.192869       14.382244       12.534067
  O           -3.513852       12.369752        9.100968
  O           -5.176649       13.723699        7.766797
  O           -2.820448       15.751623       11.419752
  O           -3.393903       13.370906       12.018043
  N           -4.536395       14.577238        9.991665
  C           -6.060341       12.276250        9.747399
  C           -5.169861       15.272696       12.451125
  S           10.249370       11.455367       18.939418
  S            7.656423       12.181070       18.006556
  F           11.019043       13.948370       19.617615
  F           12.528929       12.769774       18.535575
  F           10.823095       13.643235       17.449163
  F            6.136747       14.337365       17.704822
  F            6.704845       13.937638       19.811928
  F            8.167964       14.791582       18.427372
  O           10.504361       10.657314       17.747292
  O           10.785923       11.037017       20.228144
  O            6.441733       11.404775       18.227893
  O            8.167040       12.348737       16.650912
  N            8.729317       11.896944       19.170130
  C           11.189230       13.043448       18.612476
  C            7.146965       13.900266       18.524571
  S           11.879193      -15.210446        0.609450
  S           12.532095      -15.291251        3.382074
  F           14.277673      -14.305268       -0.224429
  F           12.539352      -13.318091       -1.142783
  F           13.125115      -12.825889        0.923061
  F           14.566690      -14.766438        5.005360
  F           15.006047      -16.346396        3.511002
  F           14.967099      -14.245185        2.902458
  O           10.626253      -14.517011        0.878452
  O           11.963518      -16.170944       -0.483277
  O           12.114970      -16.337938        4.308112
  O           12.036001      -13.931657        3.560989
  N           12.602454      -15.860164        1.879702
  C           13.020398      -13.842612        0.027291
  C           14.365503      -15.160764        3.706278
  S          -14.432385       15.418997       12.904033
  S          -16.558261       13.524017       12.804273
  F          -16.001147       17.598960       13.136735
  F          -14.340104       17.795454       11.707757
  F          -16.127368       16.625370       11.169535
  F          -19.211553       13.443695       12.864760
  F          -18.305722       14.298544       14.700819
  F          -18.397023       15.490830       12.868594
  O          -13.781491       14.817347       11.747560
  O          -13.631420       15.992713       13.977823
  O          -16.543597       12.217601       13.452469
  O          -16.591880       13.605485       11.348648
  N          -15.593951       14.551080       13.579504
  C          -15.283824       16.928627       12.191085
  C          -18.197480       14.234024       13.344990
  S           22.241994       -7.991254        8.547653
  S           23.645032       -9.472490        6.558262
  F           19.776602       -8.436329        7.552085
  F           20.168649       -6.363376        8.175641
  F           21.015794       -7.128893        6.291650
  F           23.162667      -10.898766        4.371226
  F           22.221267      -11.729741        6.200339
  F           21.357159       -9.970798        5.227525
  O           23.148972       -6.859338        8.408980
  O           21.676501       -8.320048        9.849894
  O           24.799934      -10.326202        6.812174
  O           23.801269       -8.272874        5.743938
  N           22.725897       -9.358419        7.872763
  C           20.728548       -7.460990        7.577844
  C           22.531071      -10.576331        5.546260
  S           -3.162057       15.527745       -3.595804
  S           -3.660819       14.488759       -6.201950
  F           -5.398940       14.540991       -2.459988
  F           -4.931509       16.626256       -1.937657
  F           -5.779988       16.146201       -3.913188
  F           -5.481072       13.060560       -7.504638
  F           -4.533788       11.970264       -5.820501
  F           -6.042511       13.503509       -5.420695
  O           -2.852982       16.846979       -4.131685
  O           -2.455995       15.031565       -2.421495
  O           -2.645497       13.926842       -7.085389
  O           -4.348098       15.716903       -6.583946
  N           -3.218309       14.337846       -4.663397
  C           -4.914680       15.713598       -2.958624
  C           -4.996070       13.184915       -6.226790
  S           28.702122      -14.314668       10.164202
  S           28.716791      -11.525440       10.747505
  F           26.044343      -14.509253        9.757077
  F           26.919620      -16.117320       10.976776
  F           26.591541      -14.122005       11.850949
  F           27.030643       -9.484485       10.951154
  F           27.079898      -10.398984        8.930344
  F           26.032323      -11.409941       10.563587
  O           29.523882      -14.608953       11.330899
  O           28.854412      -15.099293        8.945641
  O           29.739330      -10.584841       10.303904
  O           28.559608      -11.799982       12.171069
  N           28.621565      -12.774594        9.739397
  C           26.972128      -14.773050       10.720290
  C           27.130827      -10.668356       10.264134
  S          -19.492503       17.334460       17.984327
  S          -21.953863       17.817574       19.336570
  F          -19.598432       14.645606       18.146345
  F          -17.639412       15.530128       18.614869
  F          -19.278376       15.635634       20.083119
  F          -23.928845       16.477347       20.499886
  F          -23.689582       16.014505       18.343282
  F          -22.285738       15.185792       19.802523
  O          -18.798845       18.323817       18.798628
  O          -19.119630       17.144899       16.588350
  O          -22.921221       18.845132       18.968550
  O          -21.258906       17.907566       20.615456
  N          -21.090116       17.369249       18.056460
  C          -18.990677       15.702243       18.756511
  C          -23.014759       16.290022       19.493437
  S          -14.082006       -5.285583       -5.562342
  S          -16.787143       -6.022731       -6.071359
  F          -14.533718       -2.633259       -5.393407
  F          -12.766164       -3.203454       -6.572510
  F          -14.784716       -3.444989       -7.421158
  F          -19.175650       -4.901904       -6.369429
  F          -18.269204       -4.546585       -4.375811
  F          -17.546989       -3.439346       -6.119187
  O          -13.602064       -6.114872       -6.660070
  O          -13.279533       -5.133783       -4.355397
  O          -17.451331       -7.196733       -5.516681
  O          -16.563723       -5.933935       -7.509696
  N          -15.594428       -5.539198       -5.107326
  C          -14.057033       -3.553893       -6.278480
  C          -18.000217       -4.652024       -5.706481
  S           12.708669       11.120096       13.819650
  S           15.313814        9.966879       13.879335
  F           13.473822       13.597198       14.558510
  F           11.671686       12.839638       15.567501
  F           13.661172       12.100546       16.158077
  F           17.824968       10.649049       14.407363
  F           16.932630       11.779245       12.719525
  F           16.380350       12.270581       14.778774
  O           12.151854       10.013111       14.586210
  O           11.908995       11.772512       12.790770
  O           15.821613        9.000352       12.912350
  O           15.128376        9.565872       15.269090
  N           14.171132       10.883600       13.216284
  C           12.905439       12.479963       15.094120
  C           16.676626       11.240509       13.943608
  S          -18.644995      -10.830097        1.429743
  S          -16.588188       -9.989657        3.213968
  F          -19.365251       -8.356586        0.635777
  F          -21.037109       -9.711297        1.093271
  F          -19.877298       -8.797179        2.727994
  F          -15.456688       -7.757606        4.101505
  F          -15.250943       -8.048961        1.911713
  F          -17.162637       -7.398879        2.754179
  O          -19.210186      -11.725139        2.431008
  O          -18.680973      -11.194669        0.019242
  O          -15.304645      -10.660920        3.384322
  O          -17.534669       -9.953168        4.322777
  N          -17.181301      -10.267261        1.745334
  C          -19.778873       -9.338976        1.485471
  C          -16.091923       -8.206912        2.970937
  S           17.649997       18.300481        8.885292
  S           19.930242       16.731371        9.562511
  F           15.981131       16.222475        8.480102
  F           15.875789       17.810993        6.961825
  F           17.562884       16.394376        6.962805
  F           20.639812       14.185730        9.819977
  F           19.017188       14.800749       11.202458
  F           18.578786       14.450656        9.087708
  O           18.426872       19.109909        7.955579
  O           16.566904       18.903495        9.651455
  O           20.892584       17.063889       10.606745
  O           20.358070       16.711752        8.168527
  N           18.496442       17.383511        9.886030
  C           16.732422       17.108764        7.767217
  C           19.508548       14.953197        9.941713
  S          -16.370003       -5.330146        8.146187
  S          -17.059637       -8.025786        7.531225
  F          -18.901153       -4.422558        8.338463
  F          -17.528596       -3.121988        7.214070
  F          -18.309544       -4.963643        6.291291
  F          -19.210760       -9.538800        7.165811
  F          -19.082044       -8.651440        9.195204
  F          -19.681709       -7.411815        7.495009
  O          -15.407002       -5.279748        7.053867
  O          -16.111945       -4.603557        9.382794
  O          -16.367983       -9.202692        8.044646
  O          -17.020369       -7.733152        6.103137
  N          -16.896795       -6.787262        8.543783
  C          -17.861227       -4.428075        7.457170
  C          -18.851794       -8.418975        7.873425
  S           29.082328        3.474793       14.713926
  S           30.319233        6.016677       14.354557
  F           31.370075        2.051274       14.798832
  F           29.773110        1.174440       13.565739
  F           30.927425        2.895137       12.817509
  F           32.739905        7.082016       14.119046
  F           32.406670        6.050956       16.055093
  F           32.759140        4.882160       14.239436
  O           28.142938        3.728114       13.629283
  O           28.665262        2.702483       15.877246
  O           29.878302        7.256408       14.983636
  O           30.237999        5.875830       12.905358
  N           29.892745        4.747523       15.245114
  C           30.364345        2.354787       13.930189
  C           32.149639        5.997911       14.718952
  S           25.360492        3.020615       13.752123
  S           22.607640        3.698753       14.038802
  F           24.969399        0.377995       13.390166
  F           26.606659        0.897216       14.764736
  F           24.512553        1.068056       15.427024
  F           20.219758        2.537685       14.040974
  F           21.318410        2.308095       12.127166
  F           21.888020        1.109165       13.866431
  O           25.719872        3.789779       14.936313
  O           26.277120        2.947467       12.621564
  O           21.980945        4.895971       13.490152
  O           22.693755        3.528993       15.484616
  N           23.894712        3.284423       13.168451
  C           25.344433        1.250649       14.367906
  C           21.457084        2.338954       13.481408
  S            4.534578       -6.439039       16.541858
  S            2.129059       -5.020649       17.109214
  F            3.340677       -8.705497       15.702110
  F            5.049811       -8.999854       17.055576
  F            3.109566       -8.330803       17.856147
  F           -0.501852       -5.368666       17.024016
  F            0.481938       -5.536475       15.042499
  F            0.638431       -7.174883       16.484047
  O            5.108798       -6.070593       17.829334
  O            5.389482       -6.562157       15.368103
  O            1.910553       -3.604563       16.837091
  O            2.149109       -5.494346       18.488280
  N            3.227867       -5.626975       16.103868
  C            3.963315       -8.204247       16.806294
  C            0.615075       -5.821306       16.367376
  S           26.910268       -9.241848       -5.798792
  S           29.654636       -9.879700       -6.225221
  F           26.280796      -11.525812       -4.512449
  F           24.824658      -10.880138       -6.029821
  F           26.725165      -11.807555       -6.647125
  F           31.382854      -11.837398       -5.744857
  F           30.517129      -10.944762       -3.907432
  F           29.323370      -12.315584       -5.125101
  O           26.741192       -8.838969       -7.188819
  O           26.178785       -8.552716       -4.743449
  O           30.758566       -8.932627       -6.118045
  O           29.338261      -10.473680       -7.518940
  N           28.421016       -9.417347       -5.303189
  C           26.162245      -10.959396       -5.746657
  C           30.241785      -11.316154       -5.188216
  S           30.507804        9.651935       17.884978
  S           30.914786       12.416553       17.326852
  F           28.842040       10.022164       19.971978
  F           30.395535        8.495285       20.280118
  F           30.914671       10.634056       20.376299
  F           30.176217       14.801080       18.231623
  F           28.483255       13.557436       17.517737
  F           29.417513       13.128906       19.449175
  O           31.938795        9.383412       17.828113
  O           29.556695        8.650268       17.420461
  O           31.002285       12.994744       15.990762
  O           32.081498       12.443870       18.201295
  N           30.040880       11.066938       17.303147
  C           30.148099        9.721619       19.722907
  C           29.675301       13.524574       18.175079
  S            8.903491        0.031059       -5.671929
  S            8.052594       -2.685504       -5.800434
  F           10.709054       -0.326107       -3.702213
  F            9.428533        1.448972       -3.480812
  F            8.624405       -0.554526       -3.042103
  F            8.536253       -5.022250       -4.636064
  F           10.304340       -4.155112       -5.657999
  F            9.647502       -3.347440       -3.733639
  O            7.526997        0.508122       -5.644538
  O            9.933115        0.807124       -6.351132
  O            7.744726       -3.406939       -7.030005
  O            6.991741       -2.421811       -4.835204
  N            9.101662       -1.500998       -6.087030
  C            9.439970        0.138811       -3.879499
  C            9.204366       -3.855894       -4.913230
  S           25.848860       16.962843        8.789411
  S           23.611120       16.784256       10.544654
  F           27.446469       18.305373       10.496063
  F           27.446450       19.061863        8.430300
  F           25.744689       19.488466        9.762634
  F           22.888249       17.511409       12.993893
  F           24.630997       16.139018       12.951709
  F           24.883598       18.245115       12.415541
  O           25.008160       17.421365        7.691205
  O           27.001730       16.112440        8.522154
  O           22.745648       15.617998       10.678432
  O           23.066597       18.028003       10.012487
  N           25.076662       16.347192       10.047768
  C           26.650750       18.537407        9.413870
  C           24.037004       17.186894       12.316666
  S           18.003982       15.230779        2.021520
  S           15.513599       13.943352        1.510861
  F           16.985521       17.704174        2.356871
  F           18.801009       17.604863        1.118407
  F           16.861627       16.970548        0.288024
  F           12.929727       14.523340        1.317769
  F           13.792097       14.959300        3.314933
  F           14.203662       16.293520        1.630474
  O           18.623089       14.590121        0.868551
  O           18.787378       15.489133        3.222880
  O           15.139589       12.622739        2.004005
  O           15.671181       14.158796        0.077206
  N           16.597766       14.624404        2.483735
  C           17.627550       16.962084        1.410693
  C           14.039843       14.989728        1.976333
  S           -8.700113      -12.235113        4.399840
  S           -7.099799      -10.191019        3.224712
  F          -10.398306      -12.500316        2.323012
  F          -11.351541      -12.454440        4.305155
  F          -10.604992      -10.592171        3.395368
  F           -6.946374       -8.764632        0.990446
  F           -6.723551      -10.948434        0.668317
  F           -8.700170      -10.096364        1.060600
  O           -8.811292      -11.492832        5.648732
  O           -8.637930      -13.690979        4.417401
  O           -5.648508      -10.099019        3.336006
  O           -7.935290       -9.159417        3.828340
  N           -7.583412      -11.716865        3.378478
  C          -10.341380      -11.916056        3.553276
  C           -7.385266      -10.002110        1.389952
  S          -13.961134       10.044850        9.092666
  S          -11.566045       11.415327        8.381615
  F          -15.217336       12.186890       10.141964
  F          -15.379252       10.340034       11.326261
  F          -13.503869       11.495879       11.333694
  F          -10.502620       13.844970        8.508218
  F          -12.363049       13.750288        7.303125
  F          -12.470663       13.698227        9.487762
  O          -13.210485        8.963994        9.718245
  O          -15.213526        9.762001        8.403297
  O          -10.807521       11.190485        7.156387
  O          -10.968163       11.084296        9.669858
  N          -13.113859       11.036272        8.166390
  C          -14.531188       11.080748       10.546688
  C          -11.746839       13.272584        8.419475
  S           30.894221       16.675828       15.802262
  S           31.995019       15.064345       13.725818
  F           31.482767       19.049049       14.666990
  F           31.922434       18.911432       16.818131
  F           33.249666       17.936254       15.355059
  F           33.235281       15.326776       11.392806
  F           31.201185       16.212183       11.423061
  F           32.859632       17.246910       12.405823
  O           31.578947       15.900675       16.828597
  O           29.573242       17.232137       16.065423
  O           31.406120       13.826263       13.228380
  O           33.283053       15.025837       14.408533
  N           30.860519       16.022679       14.342454
  C           31.950225       18.215444       15.638966
  C           32.331138       16.019847       12.158156
  S           -4.965137        2.129436       18.706908
  S           -3.426671        2.133595       16.308292
  F           -3.250400        0.627081       20.145662
  F           -5.370268        0.076787       20.353006
  F           -4.257615       -0.479510       18.534867
  F           -1.141925        1.169323       15.359515
  F           -0.880495        2.540377       17.084123
  F           -1.592402        0.497165       17.408785
  O           -6.179305        1.780254       17.981001
  O           -5.034871        3.002700       19.871497
  O           -3.264540        3.280550       15.422119
  O           -4.127984        0.947665       15.830441
  N           -3.733769        2.618232       17.810474
  C           -4.422249        0.501755       19.460669
  C           -1.669411        1.559428       16.564985
  S           11.116782       -8.568069        6.697061
  S           10.579843       -6.919860        8.958776
  F           12.699868       -6.798156        5.420875
  F           11.221393       -7.812811        4.146418
  F           10.586917       -6.195983        5.501556
  F           11.164492       -4.505664        9.896811
  F           12.940898       -5.805043        9.616802
  F           11.975572       -4.882968        7.883350
  O            9.704287       -8.888814        6.538772
  O           12.132675       -9.564804        6.383692
  O           10.500219       -7.392232       10.336318
  O            9.388674       -6.382216        8.311731
  N           11.524473       -7.883297        8.084020
  C           11.419303       -7.264045        5.385486
  C           11.733875       -5.458872        9.090101
  S           28.954939        3.733784       -2.965894
  S           26.646757        4.396427       -1.431797
  F           29.005624        1.123038       -2.295938
  F           30.958350        2.135007       -2.246593
  F           29.498628        2.472178       -0.631470
  F           24.891759        3.247433        0.196043
  F           24.901049        2.389431       -1.849967
  F           26.505887        1.893219       -0.448110
  O           29.687595        4.879057       -2.441834
  O           29.171575        3.292476       -4.337767
  O           25.592036        5.307684       -1.861061
  O           27.480674        4.747604       -0.288174
  N           27.376963        3.736972       -2.703666
  C           29.625838        2.293076       -1.972677
  C           25.690536        2.897599       -0.863747
  S           15.256424       15.466123       10.900810
  S           12.975444       16.891865        9.960258
  F           13.887834       13.393675       11.949299
  F           15.504454       14.179032       13.217924
  F           13.605481       15.281491       13.040222
  F           10.329061       16.682176        9.907781
  F           11.372661       15.036618        8.846911
  F           11.313612       15.064499       11.033841
  O           15.809927       16.666331       11.514169
  O           16.143041       14.467612       10.317194
  O           12.903851       17.610648        8.693246
  O           12.893954       17.632255       11.213971
  N           14.051835       15.700313        9.874701
  C           14.509616       14.539231       12.348351
  C           11.423821       15.854896        9.934089
  S           29.973438        9.800554       -5.450141
  S           28.175017        7.605262       -5.192025
  F           31.991414        8.391272       -6.549733
  F           32.591756        9.798524       -4.968947
  F           31.614190        7.896197       -4.441111
  F           28.069282        4.998107       -5.683584
  F           28.373162        6.234020       -7.500885
  F           30.035072        5.892487       -6.119458
  O           29.726741       10.222461       -4.077476
  O           30.223091       10.793802       -6.486892
  O           26.738600        7.669225       -5.436380
  O           28.665196        7.333613       -3.845717
  N           28.944713        8.729981       -6.045436
  C           31.619436        8.910623       -5.345549
  C           28.695690        6.112198       -6.183581
  S           10.509762       18.698005        4.400217
  S            9.479118       16.124087        3.742213
  F           12.593039       17.808464        5.861751
  F           11.482558       19.487442        6.749174
  F           10.637933       17.453519        6.802635
  F           10.001791       13.556620        4.172322
  F           11.625356       14.627979        3.105253
  F           11.352078       14.918833        5.256451
  O            9.190238       19.176067        4.791864
  O           11.458323       19.605493        3.767432
  O            8.924902       15.752997        2.445204
  O            8.613489       16.146532        4.915582
  N           10.538328       17.323398        3.582649
  C           11.344193       18.326125        6.036572
  C           10.686615       14.742774        4.084917
  S            3.082683        0.339743       -6.223017
  S            2.651039       -2.402122       -5.577951
  F            5.674524        0.068175       -6.912955
  F            5.226125        1.808844       -5.644623
  F            5.298189       -0.209485       -4.764709
  F            3.972554       -4.703999       -5.507053
  F            3.863562       -3.803227       -7.531687
  F            5.239723       -2.982769       -6.041734
  O            2.454742        0.777088       -4.983059
  O            2.937080        1.133832       -7.436254
  O            1.439978       -3.152706       -5.889478
  O            3.005947       -2.153142       -4.185592
  N            2.850500       -1.192672       -6.618710
  C            4.915547        0.493061       -5.863394
  C            4.004118       -3.523575       -6.206473
  S           11.323466       -1.806709        5.669395
  S           12.224472        0.770269        4.852312
  F           12.802694       -3.202775        3.900133
  F           10.715678       -3.869231        4.099766
  F           11.186412       -2.035143        2.973877
  F           13.860704        1.882209        3.081324
  F           14.884819        0.530889        4.512243
  F           13.700977       -0.305357        2.873298
  O            9.930806       -1.379378        5.638389
  O           11.770523       -2.771149        6.666248
  O           12.511743        1.879434        5.754710
  O           11.121306        0.879746        3.904866
  N           12.412662       -0.636835        5.607545
  C           11.523500       -2.763712        4.070534
  C           13.750461        0.705837        3.779592
  S           19.497560       -0.513823       -5.642084
  S           17.266145        1.200796       -6.090544
  F           21.340533        1.447484       -5.486746
  F           21.932136       -0.292381       -6.696097
  F           20.503970        1.178616       -7.502076
  F           16.710031        3.784077       -6.350277
  F           17.578455        3.255327       -4.378306
  F           18.863915        3.368209       -6.145162
  O           19.106258       -1.385565       -6.742094
  O           20.126181       -1.074289       -4.452784
  O           15.940114        1.014170       -5.512697
  O           17.444712        1.092043       -7.533770
  N           18.390233        0.532646       -5.154737
  C           20.878518        0.520823       -6.373308
  C           17.631870        2.991701       -5.713147
  S           -6.572909      -11.193210       17.157515
  S           -6.353326       -8.409354       17.725125
  F           -8.499858      -11.705424       18.971878
  F           -6.862545      -13.173547       18.912940
  F           -6.552961      -11.211692       19.866029
  F           -7.405066       -6.575204       19.331301
  F           -8.883117       -7.521266       17.973825
  F           -8.148605       -8.611956       19.722487
  O           -5.126892      -11.364234       17.210986
  O           -7.368527      -11.980911       16.224649
  O           -6.161130       -7.365675       16.724680
  O           -5.305200       -8.669461       18.705119
  N           -7.093315       -9.682628       17.079428
  C           -7.151823      -11.838209       18.819159
  C           -7.778899       -7.753896       18.735887
  S           11.173617      -14.007271        6.585041
  S            9.243901      -13.845894        4.494490
  F           10.237405      -16.293185        7.664629
  F           10.747228      -14.719202        9.114564
  F            8.893583      -14.573947        7.933042
  F            7.140659      -15.173740        3.565372
  F            9.023466      -16.346529        3.520516
  F            7.973246      -16.035104        5.414449
  O           10.963727      -12.611782        6.947848
  O           12.499002      -14.601839        6.701512
  O            9.525289      -13.415806        3.129595
  O            8.366452      -13.041336        5.336739
  N           10.563611      -14.460438        5.177451
  C           10.199178      -14.947784        7.880468
  C            8.306250      -15.439410        4.239465
  S            2.959477      -13.874174       -6.600950
  S            5.225451      -15.589893       -6.396213
  F            3.903922      -11.953742       -4.961629
  F            1.798727      -12.503202       -4.636201
  F            3.408508      -13.831042       -3.930127
  F            7.584440      -15.702317       -5.182707
  F            7.372510      -13.972809       -6.556132
  F            6.384674      -13.947324       -4.604092
  O            2.042909      -14.981532       -6.362760
  O            2.581321      -12.792520       -7.501363
  O            5.802498      -16.346708       -7.501357
  O            4.614391      -16.299873       -5.278561
  N            4.468759      -14.280074       -6.941672
  C            3.035814      -13.004541       -4.942596
  C            6.715316      -14.748675       -5.650439
  S           -1.879520      -10.605405        2.078997
  S           -2.719276      -12.232535       -0.104465
  F           -2.304438      -12.453657        3.994935
  F           -3.013488      -10.428673        4.481084
  F           -4.151313      -11.690144        3.078538
  F           -3.652828      -14.672846       -0.577148
  F           -1.633213      -14.655816        0.341153
  F           -3.395910      -14.233443        1.566482
  O           -2.693530       -9.488192        1.618241
  O           -0.598861      -10.358088        2.728971
  O           -2.080206      -12.266286       -1.415016
  O           -4.083527      -11.732329        0.018933
  N           -1.665699      -11.791793        1.027549
  C           -2.896432      -11.344040        3.469154
  C           -2.848273      -14.041185        0.337881
  S          -15.458078       18.504814       16.730100
  S          -15.061822       20.861665       15.178171
  F          -12.860103       18.121518       17.339210
  F          -13.951355       16.310066       16.733020
  F          -13.329568       17.783658       15.218093
  F          -13.094796       22.442458       14.352356
  F          -13.291696       22.347277       16.560202
  F          -12.390610       20.678596       15.469113
  O          -16.305322       17.915544       15.701503
  O          -15.732067       18.248981       18.138361
  O          -15.939618       22.026330       15.189329
  O          -14.935829       20.066336       13.962362
  N          -15.157085       20.068030       16.573449
  C          -13.809296       17.648977       16.482537
  C          -13.371497       21.617266       15.413525
  S           32.400376       10.288374        3.826756
  S           32.384633       13.136881        3.749213
  F           29.721565        9.986207        3.835159
  F           30.806883        8.710706        5.261636
  F           30.518994       10.851944        5.692117
  F           30.662845       15.157659        3.704868
  F           30.485815       13.800128        1.958965
  F           29.696417       13.187887        3.905486
  O           33.376164       10.278204        4.908795
  O           32.423919        9.243807        2.810860
  O           33.305186       13.956188        2.969203
  O           32.422701       13.198612        5.205700
  N           32.207584       11.687484        3.075688
  C           30.775043        9.959279        4.699804
  C           30.718345       13.847536        3.299799
  S           -8.100121       20.888512        8.463367
  S          -10.875671       20.853577        7.818889
  F           -7.716179       23.504845        7.939153
  F           -6.161979       22.160174        7.154311
  F           -8.117173       22.294352        6.148176
  F          -12.784934       22.493765        6.973571
  F          -11.900983       23.086529        8.920278
  F          -10.796304       23.437842        7.064693
  O           -7.852789       19.697164        7.661750
  O           -7.343547       21.116111        9.687914
  O          -11.893981       20.110258        8.552112
  O          -10.573170       20.491297        6.439085
  N           -9.635167       21.210195        8.777903
  C           -7.509482       22.286486        7.363802
  C          -11.619976       22.560751        7.696046
  S           12.489739       -9.622372       18.274011
  S           13.945070       -9.101656       15.880035
  F           14.410935      -11.091762       19.464518
  F           12.377390      -11.916503       19.619923
  F           13.493064      -12.078217       17.727249
  F           16.297943       -9.643527       14.775304
  F           16.447867       -8.502566       16.672180
  F           15.990591      -10.641719       16.715248
  O           11.303882      -10.011439       17.522052
  O           12.352688       -8.933231       19.550734
  O           13.945075       -7.832145       15.162095
  O           13.373853      -10.285864       15.249182
  N           13.628039       -8.869781       17.439349
  C           13.242036      -11.261324       18.784021
  C           15.764413       -9.490101       16.030449
  S           -5.122429       -9.171982       -1.943427
  S           -5.860997       -6.716756       -0.699790
  F           -4.047893       -8.063090       -4.153209
  F           -5.347447       -9.799678       -4.520733
  F           -6.231801       -7.843370       -4.026902
  F           -5.758527       -4.101752       -1.148474
  F           -3.762978       -5.066975       -1.056067
  F           -5.014383       -5.309415       -2.834308
  O           -6.438101       -9.746325       -1.694007
  O           -3.935635      -10.016618       -1.900612
  O           -5.747930       -6.436146        0.726943
  O           -7.179421       -6.773636       -1.320384
  N           -4.786561       -7.827268       -1.144856
  C           -5.195616       -8.678002       -3.749764
  C           -5.047430       -5.228302       -1.478336
  S           23.984531        7.373534       14.401863
  S           21.224601        7.171953       13.721859
  F           24.028214       10.059049       14.633175
  F           25.725052        9.191476       13.534216
  F           23.751444        9.354299       12.569099
  F           19.110434        8.729997       13.330883
  F           19.946434        8.863630       15.381652
  F           20.966225        9.852765       13.717750
  O           24.365496        6.492970       13.305256
  O           24.727548        7.344364       15.655176
  O           20.320333        6.132558       14.200453
  O           21.546358        7.248691       12.301578
  N           22.426903        7.400129       14.764998
  C           24.376155        9.084726       13.745603
  C           20.270053        8.738694       14.064908
  S           -9.397970        8.888255       -5.613955
  S          -10.959606       11.269536       -5.508846
  F           -7.261628        9.887612       -4.308300
  F           -6.786923        8.698495       -6.097240
  F           -7.558337       10.751170       -6.308278
  F          -10.805505       13.760714       -4.603115
  F          -10.653410       12.224262       -3.009819
  F           -8.947116       12.610704       -4.323651
  O           -9.668121        8.720001       -7.035849
  O           -9.264693        7.721003       -4.751702
  O          -12.398181       11.315097       -5.273218
  O          -10.426426       11.702144       -6.795384
  N          -10.320009        9.949242       -4.850457
  C           -7.668571        9.609505       -5.579207
  C          -10.302654       12.522364       -4.291325
  S           -7.253861       22.043529        0.989615
  S          -10.038263       22.320489        1.528738
  F           -6.730574       20.366380        3.034303
  F           -5.270577       21.989760        2.764674
  F           -7.233091       22.409102        3.673401
  F          -11.865800       21.473622        3.258764
  F          -10.913674       19.838926        2.099612
  F           -9.825071       20.795811        3.738588
  O           -7.089906       23.485343        0.857838
  O           -6.463078       21.139116        0.164740
  O          -11.083756       22.378443        0.513513
  O           -9.782452       23.486352        2.366555
  N           -8.761933       21.510217        0.980854
  C           -6.604557       21.684515        2.710586
  C          -10.685808       21.032475        2.714161
  S           18.962282       -2.708183       12.583416
  S           18.496651       -0.335093       14.090693
  F           16.797293       -4.044410       13.474889
  F           18.654721       -5.221232       13.406294
  F           18.342883       -3.742354       15.009033
  F           16.758906        0.652147       15.838738
  F           15.857204        0.151641       13.874346
  F           16.353557       -1.442390       15.288429
  O           20.359303       -2.749741       12.995338
  O           18.578845       -3.158196       11.251431
  O           18.714241        1.021391       13.601101
  O           19.312585       -0.844821       15.186614
  N           18.192315       -1.335474       12.869075
  C           18.142493       -3.982378       13.686411
  C           16.772857       -0.245486       14.800641
  S           12.332858        2.784796       15.532838
  S           13.281485        1.780621       13.040452
  F           10.500591        0.850478       15.943472
  F            9.806317        2.895086       16.364443
  F           10.001822        2.201858       14.282543
  F           12.842044       -0.228306       11.360817
  F           13.508245       -0.881695       13.373693
  F           11.452709       -0.196298       13.070483
  O           12.208904        4.132881       14.993972
  O           12.721348        2.585809       16.923234
  O           14.677842        1.774794       12.619442
  O           12.314728        2.598994       12.317777
  N           13.174141        1.754176       14.644668
  C           10.572394        2.142407       15.514618
  C           12.742829        0.025199       12.705984
  S          -12.081174       -6.982124        9.206238
  S          -14.251182       -8.332822       10.465972
  F          -12.255729       -4.727088       10.673121
  F          -11.970779       -4.413810        8.514345
  F          -13.941996       -5.015724        9.292224
  F          -16.055363       -7.939128       12.373851
  F          -13.960815       -7.864750       13.101687
  F          -14.792037       -6.176249       11.985907
  O          -12.586423       -7.312329        7.880055
  O          -10.645290       -6.919463        9.447134
  O          -14.273194       -9.753846       10.793544
  O          -15.182455       -7.807805        9.474155
  N          -12.739767       -7.785579       10.422583
  C          -12.603526       -5.197809        9.442020
  C          -14.781002       -7.532595       12.066738
  S           21.204583        1.508234        2.887618
  S           18.449696        0.783217        2.959700
  F           22.132613       -0.948622        2.279321
  F           23.259715        0.111563        3.843068
  F           21.306750       -0.794009        4.311003
  F           16.902212       -1.350261        2.637783
  F           18.067676       -0.815746        0.827149
  F           19.054818       -1.802677        2.511918
  O           21.099013        2.212626        4.158743
  O           22.098596        2.003777        1.848917
  O           17.356632        1.603568        2.450455
  O           18.537278        0.506577        4.388830
  N           19.818880        1.122532        2.187733
  C           22.001479       -0.122209        3.355423
  C           18.110560       -0.881346        2.186564
  S           23.671740       22.498147       17.784949
  S           21.114854       22.447933       16.527943
  F           25.042248       21.500624       15.688747
  F           25.569848       20.636990       17.642059
  F           23.699541       20.043133       16.640871
  F           20.001161       21.762540       14.217101
  F           21.519708       23.369267       14.030417
  F           22.151588       21.295488       14.325539
  O           23.144605       21.861061       18.984667
  O           24.733476       23.490786       17.890334
  O           20.095372       23.481552       16.667166
  O           20.860227       21.110215       17.049756
  N           22.581468       23.064838       16.760767
  C           24.525740       21.094699       16.883149
  C           21.212819       22.212028       14.679085
  S            5.517332       19.847008       -6.293316
  S            8.067803       21.006574       -5.772974
  F            4.182503       22.178167       -6.519889
  F            3.165754       20.635315       -5.325953
  F            4.867010       21.746935       -4.475586
  F            9.195657       23.395104       -5.502908
  F            8.294801       23.058053       -7.502224
  F            7.011972       23.484209       -5.781854
  O            5.660260       18.921231       -5.177260
  O            4.816331       19.432824       -7.501940
  O            9.333531       20.512933       -6.303395
  O            7.821065       20.958409       -4.336515
  N            6.851706       20.604634       -6.745233
  C            4.388634       21.180218       -5.614482
  C            8.137663       22.829121       -6.169163
  S          -21.075719       -3.746810       11.071429
  S          -18.310774       -3.863840       11.750865
  F          -21.173455       -1.075318       10.723601
  F          -22.850148       -1.927634       11.864614
  F          -20.877978       -1.683836       12.815510
  F          -16.227198       -2.248653       12.067004
  F          -17.070376       -2.221099       10.015005
  F          -18.105879       -1.180802       11.637487
  O          -21.436551       -4.586130       12.206513
  O          -21.820868       -3.845281        9.822918
  O          -17.387062       -4.904980       11.315113
  O          -18.630752       -3.731678       13.167467
  N          -19.519765       -3.705203       10.702575
  C          -21.499877       -2.016743       11.653826
  C          -17.388432       -2.294929       11.336951
  S           25.025749      -11.312729        0.170708
  S           26.449909       -9.601856        1.949734
  F           23.501191       -9.379915       -0.928090
  F           22.428144      -11.228018       -0.405844
  F           23.010352       -9.805491        1.172302
  F           26.576219       -7.040591        2.638235
  F           27.068329       -7.413861        0.507294
  F           24.986334       -7.477233        1.176782
  O           24.752807      -12.268408        1.236191
  O           25.253815      -11.780436       -1.190525
  O           27.871286       -9.713429        2.256875
  O           25.465522       -9.837606        2.999503
  N           26.136478      -10.207834        0.493614
  C           23.414247      -10.370633        0.004150
  C           26.258735       -7.792239        1.534689
  S           -9.396692      -10.582151        9.532469
  S           -7.465667      -11.037869       11.577882
  F          -11.039157       -9.050601       11.023802
  F          -12.045762      -10.573464        9.796085
  F          -10.995175      -11.160186       11.641381
  F           -7.018682      -10.423184       14.121980
  F           -7.115336       -8.656052       12.783955
  F           -8.954204       -9.686587       13.370039
  O           -9.440095      -11.998964        9.195084
  O           -9.554863       -9.576785        8.489424
  O           -6.022038      -11.065556       11.372296
  O           -8.157791      -12.253153       11.990994
  N           -8.178519      -10.124578       10.462770
  C          -10.939572      -10.330764       10.566178
  C           -7.652874       -9.882378       13.031607
  S            3.831907      -12.567369        9.671247
  S            1.060082      -12.406493        9.029876
  F            3.650378      -14.798513       11.173396
  F            4.902995      -13.202655       12.024186
  F            2.707266      -13.036810       12.090253
  F           -1.211153      -13.699445        9.498739
  F            0.307476      -14.924156        8.442207
  F            0.513215      -14.535903       10.585536
  O            3.875123      -11.157860       10.037973
  O            4.986455      -13.194876        9.041187
  O            0.524858      -12.019200        7.729632
  O            0.818404      -11.556988       10.190283
  N            2.529761      -13.039371        8.870991
  C            3.751816      -13.447506       11.323872
  C            0.129215      -13.979695        9.406763
  S           -7.655043        5.953095        0.270215
  S           -7.080209        6.616722       -2.440766
  F           -5.770436        4.039672        0.503615
  F           -7.734554        3.519798        1.347194
  F           -7.426574        3.490288       -0.833946
  F           -5.437791        5.904026       -4.401529
  F           -4.394103        6.695853       -2.610961
  F           -5.223478        4.671368       -2.588008
  O           -9.083572        5.872241       -0.005179
  O           -7.185375        6.445353        1.558940
  O           -7.083303        7.968472       -2.988359
  O           -8.063752        5.647453       -2.909567
  N           -6.765000        6.645691       -0.864207
  C           -7.114036        4.159167        0.307113
  C           -5.444590        5.937272       -3.029512
  S           30.021260       -9.171434        3.731336
  S           30.958737       -8.460365        6.326672
  F           30.590005       -6.809408        2.563104
  F           28.621097       -7.649131        2.055246
  F           28.945020       -6.702343        4.017836
  F           32.040519       -6.396913        7.600242
  F           33.279791       -7.156187        5.923903
  F           31.500707       -5.951443        5.511129
  O           28.779515       -9.704328        4.276466
  O           30.633724       -9.792888        2.564116
  O           31.694730       -9.347010        7.220692
  O           29.628117       -7.998809        6.704862
  N           31.183734       -8.889122        4.793284
  C           29.523796       -7.488917        3.072629
  C           32.002737       -6.913244        6.329196
  S           30.881236        0.044047        4.863666
  S           31.058970        2.578576        3.573387
  F           30.838530       -1.426266        2.604515
  F           29.377632       -2.028517        4.135111
  F           29.020350       -0.229701        2.914577
  F           31.159291        3.610251        1.128873
  F           32.854639        2.256422        1.592936
  F           30.880856        1.424753        1.146352
  O           29.808171        0.510702        5.731904
  O           31.859859       -0.914449        5.360962
  O           31.875467        3.695351        4.035167
  O           29.605956        2.702424        3.568229
  N           31.679410        1.180709        4.070132
  C           29.982811       -0.947464        3.551429
  C           31.518414        2.450539        1.768937
  S           -0.294100       -5.093497       -1.371774
  S           -0.585181       -4.262457        1.338372
  F           -0.851505       -7.694845       -0.936237
  F            0.869390       -7.319397       -2.254271
  F            1.065433       -7.046023       -0.077134
  F           -1.156843       -5.278760        3.723827
  F           -2.792919       -5.510421        2.243288
  F           -1.027120       -6.797560        2.133026
  O            0.973437       -4.386364       -1.499789
  O           -1.199338       -5.183944       -2.510231
  O           -1.202881       -3.012697        1.766907
  O            0.835385       -4.484394        1.581990
  N           -1.171255       -4.723888       -0.086174
  C            0.222864       -6.878619       -1.130295
  C           -1.441097       -5.532327        2.405311
  S           26.789798        6.712549        1.055653
  S           29.606497        6.549569        0.655787
  F           26.783824        9.222516        2.039237
  F           25.520986        7.791011        3.132712
  F           27.709279        7.749014        3.383115
  F           31.792462        8.020913        0.982547
  F           30.321385        8.912925       -0.418401
  F           29.963716        8.989486        1.738713
  O           26.763479        5.415757        1.719514
  O           25.667756        7.132278        0.225852
  O           30.252338        5.915562       -0.487900
  O           29.785094        5.984640        1.988292
  N           28.133969        7.061630        0.261848
  C           26.714268        7.933057        2.475824
  C           30.454897        8.209881        0.740071
  S          -16.123498       -0.159196       -4.509724
  S          -13.565156       -0.617971       -3.341536
  F          -15.770229        2.476960       -4.949366
  F          -17.725214        1.927964       -4.103027
  F          -15.933758        1.950164       -2.821121
  F          -11.355816        0.710013       -2.704872
  F          -11.817111        0.739874       -4.874831
  F          -12.956105        2.000909       -3.496639
  O          -16.793838       -0.876801       -3.433267
  O          -16.647014       -0.223036       -5.868244
  O          -12.741064       -1.798837       -3.572891
  O          -14.103404       -0.364901       -2.010049
  N          -14.537866       -0.352627       -4.594198
  C          -16.386346        1.642317       -4.065102
  C          -12.366992        0.783733       -3.629897
  S           -2.500523      -13.597065       13.438246
  S           -5.237844      -13.514108       14.225925
  F           -2.122146      -16.208916       13.988221
  F           -0.512388      -14.871826       14.666841
  F           -2.413693      -14.962679       15.775839
  F           -7.120405      -15.113983       15.198772
  F           -6.347093      -15.751740       13.219464
  F           -5.151153      -16.085899       15.020851
  O           -2.196761      -12.395558       14.204526
  O           -1.812033      -13.855673       12.180143
  O           -6.283869      -12.769955       13.533707
  O           -4.858989      -13.132303       15.581398
  N           -4.053815      -13.903604       13.210002
  C           -1.870480      -14.983740       14.530219
  C           -5.995824      -15.208855       14.417812
  S           21.419244        9.000773       -1.207947
  S           23.314039       11.084042       -0.772068
  F           23.199095        6.976837       -1.151179
  F           21.711089        6.863086       -2.767518
  F           23.394646        8.276359       -2.913759
  F           25.923562       11.412063       -0.407570
  F           24.955455       10.174916        1.159160
  F           25.352120        9.324005       -0.817083
  O           20.813666        9.722560       -2.319421
  O           20.593270        8.178374       -0.333220
  O           23.089796       12.254397        0.068812
  O           23.491488       11.253324       -2.209589
  N           22.406107        9.851478       -0.279949
  C           22.500411        7.723877       -2.052248
  C           24.966618       10.456647       -0.173002
  S            5.783697       -9.034973       10.773889
  S            7.446089      -11.215570        9.998193
  F            7.030156       -7.174969        9.272512
  F            6.550644       -6.546034       11.325355
  F            8.240800       -7.909423       10.954358
  F            9.539763      -11.720799        8.445345
  F            7.773016      -10.963575        7.337364
  F            8.997346       -9.586586        8.517131
  O            5.910588       -9.380903       12.183607
  O            4.536464       -8.476990       10.267151
  O            6.977460      -12.572341        9.740018
  O            8.338853      -10.963821       11.123452
  N            6.269566      -10.151193        9.736217
  C            6.975039       -7.603377       10.565409
  C            8.484448      -10.844620        8.492295
  S          -20.222325       12.449696        7.665352
  S          -18.201784       10.869395        8.906446
  F          -22.092919       12.071732        9.569408
  F          -22.821106       11.896119        7.500940
  F          -21.644785       10.264781        8.399884
  F          -17.829074        9.391755       11.080781
  F          -18.278769       11.519860       11.518220
  F          -19.881872       10.169210       10.891534
  O          -20.007260       11.796835        6.380598
  O          -20.584864       13.860222        7.717343
  O          -16.782456       11.203421        8.938549
  O          -18.647293        9.687688        8.177266
  N          -19.093384       12.200716        8.770920
  C          -21.765149       11.616557        8.327017
  C          -18.573506       10.477592       10.693016
  S          -13.640183        6.100674        4.671823
  S          -12.487200        7.138783        7.062055
  F          -11.320456        5.293322        3.560762
  F          -12.692723        6.338392        2.195344
  F          -11.530147        7.478666        3.679016
  F          -10.109847        7.439599        8.205633
  F          -10.653082        5.322001        7.827373
  F          -10.003431        6.597312        6.172542
  O          -14.435014        7.306377        4.477925
  O          -14.173995        4.802127        4.281257
  O          -13.067146        7.008747        8.393914
  O          -12.364818        8.459314        6.455563
  N          -12.970004        5.932621        6.114528
  C          -12.212543        6.320674        3.477809
  C          -10.724122        6.585382        7.324406
  S           12.164704        1.492777       -1.444445
  S           11.846088       -1.134054       -0.386856
  F           14.835818        1.618254       -1.102667
  F           13.734407        3.425411       -0.502057
  F           13.702189        1.634948        0.781024
  F           13.301741       -3.091009        0.662653
  F           13.869786       -2.578918       -1.420012
  F           14.464306       -1.270277        0.229514
  O           11.063446        2.000415       -0.636602
  O           12.401500        2.029906       -2.778289
  O           10.943975       -2.146638       -0.923475
  O           11.609487       -0.592349        0.946257
  N           12.284123       -0.099664       -1.537462
  C           13.688757        2.056674       -0.510898
  C           13.458805       -2.060357       -0.229911
  S           -5.071863       -6.364484        7.303051
  S           -4.536776       -9.161644        7.203911
  F           -7.637888       -6.533818        6.494194
  F           -6.466429       -4.931530        5.545505
  F           -6.181575       -7.025174        4.922124
  F           -5.755483      -11.442191        6.600649
  F           -6.697757      -10.349115        8.285794
  F           -6.997987       -9.660717        6.230825
  O           -3.848164       -6.058695        6.573580
  O           -5.552831       -5.457436        8.337291
  O           -3.735529       -9.893688        8.178186
  O           -4.068412       -9.045547        5.827768
  N           -5.188044       -7.853692        7.875362
  C           -6.407564       -6.223484        5.996050
  C           -6.083602      -10.198687        7.079835
  S            0.489423       -7.590722        6.025527
  S            2.970945       -6.778721        4.884057
  F            1.279816      -10.080920        6.690057
  F           -0.707537       -9.953222        5.755298
  F            1.107504       -9.757497        4.522249
  F            5.400352       -7.740496        4.411788
  F            4.869679       -7.683527        6.565285
  F            4.020760       -9.228761        5.269708
  O           -0.254564       -7.088320        4.877856
  O           -0.088150       -7.515560        7.361372
  O            3.567303       -5.456493        5.036259
  O            2.535724       -7.225133        3.565758
  N            2.012743       -7.114137        6.131085
  C            0.561528       -9.439232        5.725458
  C            4.383284       -7.920022        5.315628
  S           -3.060195       18.388288        0.250755
  S           -2.053333       20.991431        0.825321
  F           -5.624327       19.142855       -0.100334
  F           -5.345784       17.324153        1.105647
  F           -4.932980       19.303365        1.980522
  F           -2.909218       23.494109        1.057975
  F           -3.226332       22.629915       -0.960691
  F           -4.528778       22.044636        0.697022
  O           -2.370686       17.818461        1.400950
  O           -3.218713       17.605781       -0.968374
  O           -0.774622       21.514251        0.357717
  O           -2.267758       20.783259        2.252661
  N           -2.602572       19.860193       -0.176862
  C           -4.829049       18.565198        0.844123
  C           -3.246020       22.353787        0.372545
  S          -11.575023        4.208371       18.926929
  S          -12.756020        1.679193       18.353557
  F          -13.755225        5.682635       18.343260
  F          -11.860677        6.465920       17.545259
  F          -12.831959        4.736643       16.586454
  F          -15.061820        0.655603       17.525537
  F          -15.219150        1.769898       19.437605
  F          -15.039466        2.858604       17.548329
  O          -10.390898        3.884039       18.142243
  O          -11.455532        5.025877       20.127398
  O          -12.538637        0.461557       19.126347
  O          -12.289381        1.749473       16.973730
  N          -12.538797        2.979751       19.273935
  C          -12.566013        5.317000       17.786269
  C          -14.615924        1.754113       18.216940
  S           30.583169       12.305723       -1.926203
  S           31.405687       13.005138       -4.563348
  F           32.237349       14.007986       -0.648160
  F           32.138308       11.985014        0.210576
  F           33.276493       12.344254       -1.641065
  F           33.107888       14.627462       -5.796491
  F           31.593527       15.691218       -4.572749
  F           33.276420       14.686455       -3.600506
  O           30.700113       10.883047       -2.218419
  O           29.542341       12.784181       -1.025383
  O           30.513361       13.134952       -5.709646
  O           32.414570       11.952224       -4.551556
  N           30.610602       13.281706       -3.193281
  C           32.147254       12.685531       -0.966198
  C           32.391144       14.588925       -4.626715
  S          -20.248646       19.400764       -3.785670
  S          -20.960471       21.321657       -1.804830
  F          -17.823235       20.440807       -4.336218
  F          -19.007951       19.858673       -6.096111
  F          -19.497030       21.704038       -4.996781
  F          -19.970032       23.484041       -0.624494
  F          -18.754027       21.657190       -0.298371
  F          -18.679938       22.691389       -2.224993
  O          -21.535348       19.546128       -4.453756
  O          -19.584381       18.104098       -3.752076
  O          -21.672360       21.021203       -0.567885
  O          -21.594344       22.160908       -2.815016
  N          -20.150104       20.031404       -2.318918
  C          -19.086415       20.417038       -4.848043
  C          -19.508199       22.331697       -1.209643
  S          -15.970064        7.586393       18.825696
  S          -18.450636        8.947259       19.164898
  F          -17.026290        5.116998       18.593575
  F          -15.256949        5.254424       19.893651
  F          -17.212588        5.971755       20.610594
  F          -21.051413        8.427468       19.290771
  F          -20.123839        7.860298       17.356777
  F          -19.803619        6.618799       19.129647
  O          -15.381560        8.281369       19.963125
  O          -15.147610        7.244199       17.672356
  O          -18.778379       10.243696       18.582721
  O          -18.351536        8.812590       20.613572
  N          -17.345040        8.190853       18.275380
  C          -16.405012        5.900779       19.519779
  C          -19.927248        7.903107       18.703503
  S           30.450042       17.460899        9.475915
  S           30.113196       19.398930       11.537667
  F           32.029345       18.981546        7.907209
  F           30.439042       17.890626        6.848682
  F           29.951430       19.690732        8.021262
  F           30.850811       21.879015       12.133630
  F           32.552547       20.470526       11.927081
  F           31.528278       21.217991       10.144078
  O           29.018657       17.191931        9.432687
  O           31.403860       16.385140        9.237812
  O           30.093386       19.104057       12.965866
  O           28.910173       19.909953       10.890980
  N           30.965011       18.290556       10.742902
  C           30.730590       18.577439        7.997111
  C           31.332668       20.807333       11.424479
  S           -5.611519       22.904007       -3.621355
  S           -3.200103       22.473555       -5.077390
  F           -5.621587       20.516470       -2.369568
  F           -7.563612       21.146291       -3.189030
  F           -5.993703       20.381899       -4.532229
  F           -1.338371       20.611268       -5.417843
  F           -1.492803       21.342825       -3.328971
  F           -2.996884       19.964587       -4.119624
  O           -6.302943       23.370196       -4.816208
  O           -5.924633       23.484458       -2.321834
  O           -2.175766       23.484372       -5.314197
  O           -3.951148       21.931549       -6.203789
  N           -4.019066       22.802101       -3.733109
  C           -6.214827       21.140419       -3.426405
  C           -2.210152       21.024594       -4.441757
  S           -8.598945       20.916335       19.180801
  S          -11.346136       21.075441       18.440613
  F           -8.534367       23.239301       20.547206
  F           -6.823696       22.900013       19.206258
  F           -8.775434       23.496988       18.377144
  F          -13.436853       22.686651       18.728660
  F          -12.641882       21.909568       20.648705
  F          -11.578754       23.500812       19.588218
  O           -8.203981       20.587290       17.817420
  O           -7.882121       20.337356       20.309812
  O          -12.269924       19.947226       18.411598
  O          -10.994578       21.750648       17.196782
  N          -10.163373       20.811166       19.497478
  C           -8.177605       22.736216       19.331567
  C          -12.292515       22.358174       19.411430
  S           24.348886       20.900012       10.703635
  S           26.362048       20.905361       12.720415
  F           23.726917       23.514856       10.911359
  F           22.002567       22.155932       10.771380
  F           23.127149       22.322401       12.658360
  F           27.522094       22.575942       14.427318
  F           27.799101       23.143416       12.300431
  F           25.876847       23.493695       13.284898
  O           23.723051       19.711318       11.267915
  O           24.354073       21.109139        9.261429
  O           27.619418       20.169997       12.647247
  O           25.377282       20.549053       13.735252
  N           25.815210       21.239161       11.245532
  C           23.255575       22.298067       11.305582
  C           26.916127       22.622796       13.196793
  S           14.188525        1.135094       18.273668
  S           14.996520        3.850723       17.969117
  F           15.462091        0.716802       20.612571
  F           15.676659       -0.897810       19.133842
  F           16.818429        0.971762       18.901131
  F           16.445698        5.690715       19.219869
  F           14.715481        4.965249       20.404121
  F           16.501129        3.717740       20.198914
  O           14.563847        0.822254       16.900956
  O           13.040473        0.478511       18.885711
  O           14.148414        4.922252       17.459571
  O           16.171253        3.438949       17.209473
  N           14.103870        2.690979       18.635378
  C           15.617516        0.462345       19.282441
  C           15.693946        4.586861       19.536031
  S          -23.165565        3.297741       15.402569
  S          -22.903248        2.004638       17.928301
  F          -22.780612        1.088118       13.906981
  F          -21.698714        2.876669       13.221242
  F          -20.979544        1.756175       14.976344
  F          -22.443378       -0.408367       18.936266
  F          -24.289002       -0.293746       17.710320
  F          -22.330130       -0.341797       16.736954
  O          -22.255469        4.362980       15.802648
  O          -24.289002        3.588284       14.520982
  O          -23.713518        2.298106       19.104921
  O          -21.472988        2.288386       17.949696
  N          -23.707682        2.364579       16.583288
  C          -22.097717        2.187348       14.335350
  C          -23.003822        0.144556       17.812095
  S           26.476721       20.061926        5.051711
  S           26.562485       17.277743        4.450697
  F           29.015513       20.592985        4.316919
  F           28.382108       21.515438        6.210997
  F           28.859951       19.366264        6.134786
  F           28.252590       15.451285        3.524597
  F           27.836400       17.088272        2.086032
  F           29.167641       17.438299        3.786682
  O           25.883121       19.807739        6.357889
  O           26.105790       21.253488        4.299174
  O           25.473799       16.520476        3.843733
  O           26.978258       16.973668        5.814986
  N           26.474511       18.828212        4.033515
  C           28.280358       20.384261        5.445694
  C           28.031133       16.800228        3.402567
  S            8.023270       11.898347        7.689655
  S            8.925822        9.211109        7.980176
  F           10.146696       12.763083        6.271663
  F            9.486433       14.114459        7.877119
  F           10.616972       12.288034        8.366145
  F           10.987154        7.677563        7.309943
  F            9.894364        8.509752        5.567622
  F           11.239350        9.787418        6.727584
  O            7.707034       11.993284        9.108829
  O            7.199942       12.593853        6.708776
  O            8.073024        8.030585        7.901483
  O            9.580504        9.544013        9.240010
  N            8.293689       10.423154        7.133365
  C            9.661272       12.797372        7.544982
  C           10.330511        8.782345        6.828424
  S           28.895500        4.939090       18.539860
  S           27.491836        7.319987       19.233623
  F           26.747238        3.311522       18.598132
  F           28.549187        2.510148       19.573033
  F           27.345026        4.057006       20.578179
  F           25.031948        8.129353       19.820091
  F           25.223356        7.269413       17.783850
  F           25.191364        5.951163       19.529738
  O           29.930520        5.206962       19.529837
  O           29.238371        4.291492       17.280187
  O           27.745162        8.636313       18.658988
  O           27.755564        7.089163       20.649173
  N           27.919730        6.161320       18.203996
  C           27.817989        3.650328       19.370696
  C           25.639941        7.150371       19.074757
  S            2.832336        9.058721       11.550155
  S            5.667535        8.813342       11.402885
  F            2.282610        6.566248       10.682525
  F            1.047427        8.155034        9.793856
  F            3.129916        7.874778        9.132200
  F            7.519487        7.035548       10.724807
  F            6.235437        6.382437       12.412134
  F            5.461196        6.336147       10.366324
  O            2.861702       10.338420       10.854037
  O            1.843667        8.815895       12.592887
  O            6.604753        9.358383       12.378409
  O            5.663615        9.332117       10.039994
  N            4.241425        8.525704       12.087873
  C            2.312802        7.847393       10.217866
  C            6.240801        7.046250       11.223237
  S           -7.944517       17.640466        5.364468
  S           -8.824439       16.549725        7.845652
  F           -5.432968       16.670112        5.498419
  F           -5.587815       18.766352        4.849226
  F           -5.851355       18.245774        6.973522
  F           -7.902215       15.091715        9.864011
  F           -7.859394       14.036839        7.912649
  F           -6.367300       15.573606        8.358670
  O           -8.492145       18.949842        5.694183
  O           -7.955945       17.169052        3.985570
  O          -10.142849       15.973409        8.083878
  O           -8.434046       17.768408        8.544949
  N           -8.426914       16.429901        6.292156
  C           -6.111773       17.834072        5.704751
  C           -7.675279       15.242149        8.518852
  S           -0.867801      -10.828043       17.122240
  S            1.724152      -11.672756       17.951994
  F           -2.240129      -12.613969       18.603656
  F           -2.951900      -12.377078       16.535584
  F           -1.113927      -13.519783       16.946895
  F            2.862664      -13.475720       19.534137
  F            1.542357      -12.054764       20.611207
  F            0.670977      -13.669989       19.420126
  O           -0.471834      -10.838601       15.720037
  O           -1.816576       -9.833688       17.606807
  O            2.844355      -10.780798       18.228856
  O            1.803814      -12.602704       16.831520
  N            0.325736      -10.913528       18.183815
  C           -1.828802      -12.425052       17.317859
  C            1.687948      -12.769776       19.461549
  S           15.029564        4.932972       10.047698
  S           17.391377        3.415311        9.559032
  F           13.295716        2.916082        9.608000
  F           12.745299        4.835169        8.683987
  F           14.336485        3.597659        7.795285
  F           18.119596        0.951539        8.888516
  F           17.006583        1.059362       10.804759
  F           15.936105        1.245318        8.905699
  O           15.491485        6.013646        9.186392
  O           14.240484        5.231261       11.236014
  O           18.631351        3.532586       10.317852
  O           17.370015        3.794372        8.151030
  N           16.133081        3.851007       10.460471
  C           13.800696        4.011850        8.973619
  C           17.088376        1.573692        9.546614
  S           23.875695       20.556422        2.413481
  S           21.628249       18.843744        2.044736
  F           23.939712       20.371844        5.102205
  F           24.194882       22.405201        4.302204
  F           22.199085       21.473041        4.333266
  F           19.916356       17.403488        3.474823
  F           22.027531       16.760948        3.703932
  F           21.320197       18.572427        4.706507
  O           23.308796       21.565722        1.528600
  O           25.317281       20.347189        2.455554
  O           21.489107       17.868336        0.969416
  O           20.721553       19.984343        2.104312
  N           23.180519       19.116620        2.363689
  C           23.519637       21.226660        4.127024
  C           21.213252       17.843423        3.564821
  S          -12.213798       13.981965        0.167554
  S          -11.689663       16.738862       -0.327473
  F           -9.797907       13.414605        1.220635
  F          -10.555820       11.935657       -0.220869
  F           -9.741904       13.855039       -0.932633
  F           -9.737016       18.516518       -0.049671
  F          -10.419969       17.638530        1.869996
  F           -9.148624       16.472380        0.524371
  O          -12.749244       13.796218       -1.174783
  O          -12.775779       13.239223        1.288371
  O          -12.648243       17.819971       -0.128920
  O          -11.220287       16.430568       -1.673302
  N          -12.026997       15.498983        0.639295
  C          -10.481701       13.276171        0.049562
  C          -10.171719       17.365909        0.559194
  S           17.794903      -11.789638       -4.300359
  S           18.500546      -14.434742       -3.509322
  F           19.642036      -11.570716       -6.251661
  F           19.452363       -9.809376       -4.947299
  F           20.496589      -11.610189       -4.226354
  F           20.234527      -16.346394       -4.132992
  F           18.878392      -15.797275       -5.800857
  F           20.542285      -14.481477       -5.265070
  O           17.791872      -11.328605       -2.918146
  O           16.848512      -11.233516       -5.258896
  O           17.550579      -15.474805       -3.131267
  O           19.430622      -13.912754       -2.514786
  N           17.813427      -13.375930       -4.505573
  C           19.438434      -11.178752       -4.962063
  C           19.590559      -15.303542       -4.750524
  S           29.089931       20.271821       16.032270
  S           29.413138       20.560979       18.848681
  F           31.557298       21.132491       15.369886
  F           29.925802       21.945502       14.138266
  F           30.257686       22.711535       16.176927
  F           31.235280       21.344810       20.613752
  F           31.868890       19.601780       19.396052
  F           31.873173       21.607190       18.521270
  O           27.804710       20.957594       16.063820
  O           29.315312       19.183659       15.089493
  O           28.904265       19.628301       19.847809
  O           28.880956       21.917537       18.792599
  N           29.667510       19.808896       17.450325
  C           30.272952       21.587123       15.413670
  C           31.193721       20.783785       19.361911
  S           31.233035        6.871130        7.649748
  S           31.866507        6.483045       10.400812
  F           31.294275        4.263151        6.969968
  F           32.305489        5.616577        5.560949
  F           33.267748        5.092051        7.471975
  F           32.408077        4.517972       12.102357
  F           30.390166        4.374536       11.191384
  F           32.159004        3.832480       10.023344
  O           32.230644        7.925440        7.522149
  O           29.989537        6.945478        6.893503
  O           31.271394        7.223638       11.507363
  O           33.289115        6.632015       10.116897
  N           30.863255        6.439224        9.144906
  C           32.073683        5.378593        6.889569
  C           31.688021        4.708065       10.949549
  S           32.068764       -0.425320        7.830759
  S           31.222192       -1.206460       10.437172
  F           33.156216        1.926625        8.574540
  F           31.922892        2.005241        6.754545
  F           30.963983        1.877048        8.733725
  F           31.249115       -0.307675       12.935477
  F           33.272595       -0.601071       12.074166
  F           32.070424        1.127542       11.479511
  O           30.767291       -0.749799        7.261589
  O           33.281305       -0.635335        7.050145
  O           31.293645       -2.563500       10.966729
  O           29.920742       -0.583705       10.224999
  N           32.342230       -0.981018        9.305613
  C           32.020397        1.440630        7.998454
  C           32.004016       -0.192426       11.795115
  S           10.187805       16.194006       -3.790747
  S           12.746425       15.284352       -4.654600
  F            9.465400       17.296041       -6.142566
  F            9.030156       18.520828       -4.367710
  F           11.092813       18.369695       -5.126457
  F           14.277754       15.290003       -6.823717
  F           12.349657       14.227471       -7.099181
  F           12.399858       16.414661       -7.074480
  O           10.754038       16.781017       -2.583323
  O            8.855580       15.604043       -3.761741
  O           13.350016       14.010505       -4.280316
  O           13.362588       16.530434       -4.213878
  N           11.142385       15.190656       -4.591275
  C            9.946834       17.668036       -4.922733
  C           12.941557       15.303339       -6.510694
  S           15.460902       20.515796       14.770135
  S           16.474499       19.106950       17.030229
  F           17.819504       21.579184       14.012764
  F           16.116986       22.972038       13.980471
  F           17.042780       22.403811       15.897008
  F           18.765439       18.699309       18.309092
  F           18.780865       17.986617       16.208082
  F           18.936595       20.126020       16.638933
  O           14.360124       21.066185       15.550157
  O           15.265403       20.178760       13.365889
  O           16.054622       17.771384       17.438960
  O           16.192285       20.246819       17.894907
  N           16.260469       19.308219       15.449275
  C           16.681535       21.934593       14.673721
  C           18.336109       18.973119       17.034617
  S           11.650932       -5.488812       -1.346331
  S           13.725068       -7.290203       -2.103430
  F            9.889584       -7.382199       -0.584659
  F            9.042076       -5.758213       -1.802877
  F           10.253282       -7.334432       -2.752406
  F           14.208774       -9.898565       -2.215427
  F           13.804330       -9.156467       -0.164056
  F           12.155636       -9.415127       -1.578917
  O           11.785813       -4.740045       -2.589002
  O           11.304811       -4.798537       -0.110435
  O           15.146869       -7.077426       -1.857858
  O           13.227644       -7.321536       -3.473904
  N           12.839279       -6.506681       -1.013840
  C           10.141211       -6.559180       -1.641766
  C           13.453166       -9.025818       -1.473165
  S           24.331169        3.660861       -4.823270
  S           25.845581        1.256170       -4.612872
  F           23.998287        3.557999       -7.496473
  F           24.544156        5.535335       -6.701599
  F           26.070295        3.956530       -6.878702
  F           26.818769       -0.672457       -6.156688
  F           24.606049       -0.520221       -6.212369
  F           25.830640        0.939771       -7.287418
  O           25.285977        4.387810       -3.996856
  O           22.910553        3.977369       -4.749833
  O           25.712040        0.276207       -3.540988
  O           27.090616        2.001825       -4.756055
  N           24.471593        2.067457       -4.812130
  C           24.768442        4.191039       -6.566809
  C           25.759697        0.200410       -6.149595
  S           25.925044       14.541719       -5.466024
  S           26.203519       12.686933       -3.320687
  F           26.779062       12.871869       -7.402429
  F           27.602097       14.909672       -7.500538
  F           28.360037       13.483451       -6.002368
  F           26.974817       10.183354       -2.887956
  F           25.233643       10.354174       -4.252339
  F           27.241969       10.833566       -4.976038
  O           26.615329       15.582554       -4.715530
  O           24.839271       14.891808       -6.372806
  O           25.269307       12.549203       -2.209213
  O           27.562165       13.151635       -3.066239
  N           25.455255       13.268029       -4.619980
  C           27.238164       13.906219       -6.642496
  C           26.418178       10.925517       -3.899356
  S          -21.682022       18.122125        6.738066
  S          -22.702259       15.470697        6.516034
  F          -22.913295       18.710175        9.063054
  F          -23.003307       20.291162        7.535954
  F          -24.289424       18.511264        7.360003
  F          -24.289099       13.789436        7.821930
  F          -22.504373       14.411725        8.983789
  F          -24.186595       15.789376        8.740606
  O          -22.034658       18.421878        5.356448
  O          -20.484388       18.704359        7.330010
  O          -21.942424       14.320689        6.039351
  O          -23.842614       15.950636        5.744113
  N          -21.719446       16.576078        7.146865
  C          -23.051223       18.935703        7.725794
  C          -23.451952       14.839636        8.104506
  S           27.318188      -14.745588        4.535876
  S           30.103596      -14.215361        4.819793
  F           26.528830      -12.168333        4.581491
  F           25.314298      -13.535844        5.803980
  F           27.298964      -12.890887        6.509830
  F           31.763169      -12.159108        5.080001
  F           30.614292      -12.139918        3.182075
  F           29.639438      -11.573045        5.056974
  O           27.359029      -15.761077        5.579996
  O           26.424556      -14.904423        3.395738
  O           31.165542      -14.933225        4.124064
  O           29.997169      -14.315695        6.270730
  N           28.737223      -14.267112        3.973578
  C           26.593557      -13.252111        5.405741
  C           30.543510      -12.427997        4.511042
  S          -15.062539        4.883498       14.116105
  S          -14.396585        7.613558       13.643319
  F          -12.529044        4.021956       14.442539
  F          -13.795225        2.735434       13.185041
  F          -12.998487        4.625447       12.381203
  F          -12.261644        9.183081       13.473937
  F          -12.501680        8.219393       15.457897
  F          -11.764277        7.055634       13.758240
  O          -15.951005        4.853324       12.961640
  O          -15.383722        4.106852       15.306645
  O          -15.147090        8.756293       14.151249
  O          -14.336098        7.372767       12.206317
  N          -14.596416        6.335618       14.598657
  C          -13.509271        4.038316       13.495417
  C          -12.640021        8.030871       14.116452
  S           -0.382182       21.586441        4.685480
  S            1.619669       22.043434        6.661334
  F            1.311780       21.407469        2.596015
  F           -0.487366       22.620813        2.234735
  F            1.166037       23.430397        3.444663
  F            4.255353       22.294704        6.861586
  F            3.606651       20.318805        6.088657
  F            3.551756       22.075261        4.785284
  O           -1.188895       22.693661        5.181818
  O           -1.026935       20.395161        4.148017
  O            1.611536       21.476609        8.005111
  O            1.493347       23.485776        6.487253
  N            0.802309       21.102397        5.645408
  C            0.459377       22.302057        3.171578
  C            3.343351       21.654480        6.060369
  S            8.617656       16.555750       14.967885
  S           11.022977       17.498560       16.170294
  F            9.621574       16.299672       12.479114
  F            7.634889       17.238026       12.589690
  F            9.431081       18.386382       13.144726
  F           13.529808       18.077645       15.514148
  F           12.986584       15.955226       15.163931
  F           12.283007       17.505780       13.789999
  O            7.837391       17.617893       15.589264
  O            8.029756       15.237312       14.768344
  O           11.499740       17.117167       17.494806
  O           10.634696       18.880831       15.914994
  N           10.092533       16.343261       15.549575
  C            8.853810       17.157667       13.208864
  C           12.528512       17.235887       15.098897
  S            3.925616       14.910856       -2.710407
  S            2.339688       16.660354       -1.115310
  F            1.885350       13.924009       -4.170152
  F            3.326278       12.425109       -3.451349
  F            1.851328       13.293253       -2.064286
  F           -0.196004       17.382264       -0.800384
  F            0.609682       17.822753       -2.820099
  F            0.078813       15.770764       -2.277466
  O            4.612686       14.389601       -1.535970
  O            4.640099       15.053332       -3.972523
  O            2.731527       18.005033       -0.708622
  O            2.171827       15.622447       -0.104773
  N            3.074923       16.246496       -2.484209
  C            2.670355       13.578097       -3.110782
  C            0.623091       16.920674       -1.800184
  S           24.957731       16.116337       -0.543563
  S           24.822877       18.746299       -1.632308
  F           23.095953       15.037181       -2.167327
  F           22.920722       14.475712       -0.047492
  F           22.278387       16.473603       -0.717514
  F           23.522430       20.103618       -3.507565
  F           24.726077       18.418180       -4.303144
  F           22.827112       18.024293       -3.290368
  O           24.871399       16.626963        0.818378
  O           25.762674       14.936401       -0.832594
  O           25.970631       19.618702       -1.852915
  O           23.809332       19.123077       -0.653851
  N           25.269273       17.202103       -1.676184
  C           23.219725       15.509438       -0.894612
  C           23.931816       18.815228       -3.270838
  S           28.626673       -4.684413       -6.296197
  S           30.717840       -2.824704       -5.758841
  F           26.670644       -2.848522       -6.562398
  F           26.134012       -4.613684       -5.364115
  F           27.422756       -3.046564       -4.505995
  F           31.092367       -0.208744       -5.500867
  F           30.357927       -0.808337       -7.506732
  F           28.982562       -0.765543       -5.805712
  O           29.018958       -5.520188       -5.168958
  O           28.094819       -5.293911       -7.508370
  O           32.079961       -2.929128       -6.269545
  O           30.475947       -2.933543       -4.324876
  N           29.686656       -3.571925       -6.740703
  C           27.147452       -3.736167       -5.644306
  C           30.256111       -1.064418       -6.173237
  S            7.724067       -8.695985       -5.026012
  S           10.364533       -9.766803       -5.065252
  F            7.808904       -7.631064       -7.501118
  F            6.935087       -6.330089       -5.957239
  F            9.117416       -6.614197       -6.056313
  F           12.474069       -9.910214       -6.671290
  F           10.657550      -10.876890       -7.500871
  F           10.829284       -8.695752       -7.492264
  O            7.935713       -8.102489       -3.712222
  O            6.411722       -9.213145       -5.392096
  O           10.750196      -11.058615       -4.508852
  O           10.893560       -8.542068       -4.476381
  N            8.812936       -9.773127       -5.487435
  C            7.923184       -7.247282       -6.198120
  C           11.108877       -9.816146       -6.776111
  S           24.489221       11.029382        4.520558
  S           26.294127       10.076743        6.509288
  F           26.375354       12.040526        2.881200
  F           24.625834       13.335983        3.198413
  F           26.159483       13.147281        4.768573
  F           28.899629        9.991083        7.013357
  F           28.317717        8.925782        5.156230
  F           28.397873       11.112040        5.184168
  O           23.644444       11.661416        5.525525
  O           23.892792       10.446042        3.325691
  O           26.153721        8.816383        7.229618
  O           26.192865       11.336907        7.236161
  N           25.573261        9.991657        5.074419
  C           25.476338       12.458522        3.816722
  C           28.065519       10.021784        5.923907
  S           14.304125        6.901065        0.393538
  S           13.290374        8.423204       -1.791789
  F           16.110050        8.730687        1.205034
  F           16.847744        6.659129        1.140940
  F           16.600171        7.801543       -0.726328
  F           13.662402       10.769235       -2.978295
  F           13.023817       10.935412       -0.860040
  F           15.084740       10.380438       -1.341218
  O           14.441101        5.713012       -0.438834
  O           13.939074        6.771652        1.798426
  O           11.886280        8.494491       -2.179777
  O           14.257122        7.810555       -2.695489
  N           13.428107        8.087905       -0.225156
  C           16.052477        7.568233        0.495430
  C           13.791888       10.219825       -1.727310
