        2399
  Built with Packmol                                             
  Ti          -2.855441        2.229755       11.246400
  Ti           7.975036        5.110976        1.881588
  Ti           1.241250       -1.706436        9.426417
  Ti           2.752440        7.455698        3.653386
  Ti           1.753864        9.134007        1.748999
  Ti           3.129451       -1.960779       11.379785
  Ti          -1.906242        0.493870        9.354922
  Ti           5.987220        5.413529        3.729051
  H            3.754491        1.533189        8.602241
  H           -0.186252       -4.222307        6.483198
  H            4.786307       10.856196        4.661866
  H           -2.353563        6.126849       11.026946
  H            8.783818        1.204924        2.202274
  H           -6.815340        1.473136       10.863946
  H           11.357185        7.115275        2.082244
  H            4.105056       -5.995319       10.993862
  H           -2.304659        8.544108        2.071053
  H            4.727684        3.049654        6.848996
  H            0.035867        3.681430        8.401220
  H           -3.665336       -1.693995        6.360589
  H            2.248323        7.497205       -0.124086
  H            6.099510        4.868281        0.181652
  H            3.639358       -2.627888        5.868686
  H            1.029000        9.292718        7.272349
  H           -5.978856        3.882496        8.999012
  H           10.729794        3.026651        4.187587
  H           -3.677750        2.435055        5.665173
  H           -1.346210       10.961867        4.102241
  H            2.146109       12.236841        2.604467
  H            8.625987       -0.813916        3.404762
  H            4.845063        7.135828        2.314757
  H            0.160550        0.141959       10.720043
  H            7.364193       -0.025926        9.769448
  H            5.883069       -0.494990       10.516784
  H            7.938314        4.407710        8.670546
  H            7.368596        4.766292        7.052003
  H            6.875380       -4.980756        9.579418
  H            5.596233       -3.880175       10.036813
  H            1.425195        1.874323        9.361458
  H            1.008323        5.203049        6.646973
  H            6.031760        8.869380        3.866525
  H           -7.731962        8.890218        4.689364
  C            8.553073        4.369740        4.745117
  C           -3.815986        2.491148        8.399367
  C            3.821751       -2.717141        8.501695
  C            0.816322        9.426210        4.612746
  C            9.449095        3.765425        5.740308
  C           -4.747890        3.116163        7.422320
  C            4.761950       -3.331489        7.554506
  C           -0.073496       10.073008        5.612538
  C            9.200332        3.840338        7.146730
  C           -4.531496        2.996185        6.034299
  C            5.891402       -4.091792        8.007572
  C           -1.168225       10.845965        5.167611
  C            0.180998        9.902249        6.967423
  C            4.514243       -3.199354        6.170583
  C           10.582770        3.066439        5.264601
  C           -5.848054        3.808578        7.921002
  C            2.924977        4.216078        6.650019
  C            1.843075        2.527811        8.597691
  C            6.470568        9.512288        4.627853
  C           -1.867744       -2.873623        6.521957
  C            8.764846        1.283992        0.058179
  C            2.295114       13.075580        0.083188
  C           11.249281        7.047107       -0.067827
  C           -2.109052        8.589544       -0.087215
  C            3.499155        5.112520        5.617977
  C           -1.256933       -1.981851        7.536115
  C            8.628990        2.738849        0.034982
  C            2.202361       11.642063        0.045700
  C            9.951446        6.430279       -0.020963
  C           -0.706742        9.003887       -0.062753
  C            1.597294        4.398121        7.081602
  C            3.162817        2.337892        8.169008
  C            5.769511       10.639236        5.075943
  C           -1.171243       -4.011621        6.072589
  C            8.804195        0.614878        1.287859
  C           -2.342636        6.715246       11.940841
  C           11.904581        7.321910        1.166133
  C           -7.376828        1.293757       11.779304
  C            7.737945        9.211994        5.142878
  C           -3.143621       -2.579527        6.003644
  C            3.705306        3.179589        7.197444
  C            1.059848        3.553593        8.053957
  C            7.308935        0.249396       11.793799
  C           -2.806243        8.359124        1.125256
  C            4.146699       -6.522481       11.942914
  C            2.308891       13.826772        1.312468
  N            2.363948       13.227937        2.550629
  N            6.729903        0.066554       10.554829
  N            8.119448        4.486580        7.678019
  N            6.222410       -4.250040        9.324967
  O            7.376747        4.774832        5.110912
  O           -3.046995        1.540283        8.001084
  O            4.203207       -2.592658        9.722805
  O            0.750449        9.855877        3.413146
  O            1.586781        8.468994        4.999201
  O            2.651328       -2.348700        8.096181
  O            8.964947        4.450494        3.533371
  O           -3.858000        2.927396        9.599082
  O            6.292442        4.195622        2.534358
  O           -1.353778        2.054229       10.099438
  O            7.231229        6.482910        2.984337
  O           -3.105958        0.329551       10.592107
  O            1.500552       -2.878399       10.686834
  O            3.268988        9.017012        2.914910
  O            2.454501       -0.616911       10.222657
  O            1.562756        7.259902        2.397478
  O            4.720279        4.932652        5.263729
  O           -1.914597       -0.946915        7.914344
  O            3.871775       -3.732640       11.988892
  O            2.119252       10.940626        1.140895
  O            4.673921       -0.944457       11.983764
  O           -0.116683        9.104896        1.080821
  O           -0.095110       -2.276397        7.993933
  O            2.757324        6.033407        5.124635
  O            9.412111        6.130103        1.127024
  O           -4.742224        2.169711       11.914840
  O            8.616546        3.375778        1.156429
  O           -2.474026        3.952051       11.996107
  O            4.484231        6.587072        3.035431
  O           -0.217709       -0.416738       10.016450
  O            6.938339        5.361952        0.102630
  O            2.370688        8.464002       -0.064115
  N            2.363059        4.586123       11.641469
  N            1.489408        3.087240       12.966990
  C           -6.246380       -8.828250       10.598021
  C           -4.789278       -8.689945       11.068554
  C          -10.529557        4.599805       11.090753
  C            2.301075        3.266184       11.908502
  C            8.073073       -9.357019       12.603399
  C            1.008679        4.315727       13.381668
  C           -4.416080       11.884697       -1.650466
  C            1.154130        1.793039       13.564150
  H          -12.834383        5.187464        9.624599
  H           -6.693390       -7.848114       10.391792
  H           -0.123349       -1.097963       -1.057928
  H           -4.288499       -8.021295       10.347334
  H          -10.977477        3.934281       11.842726
  H          -10.615842        4.069400       10.131165
  H            2.802976        2.476178       11.365087
  H           -3.422620       -0.659364       -0.618464
  H            0.329015        4.406565       14.220647
  H           -4.305476       12.424431       -0.699599
  H           -3.904670       12.492719       -2.411730
  H           -3.878578       10.930862       -1.553581
  H            0.132331        1.512025       13.268699
  H            1.881446        1.040165       13.238308
  H            1.208292        1.901042       14.654502
  S          -11.560945       10.887322       12.668162
  S          -13.860010       12.090227       11.490211
  F           -9.916015       12.991465       12.301839
  F           -9.048210       11.032981       11.800934
  F          -10.490999       11.983715       10.434349
  F          -14.593844       14.363878       10.331736
  F          -13.916562       14.613019       12.429742
  F          -12.450758       14.290645       10.837754
  O          -11.750329        9.664834       11.898272
  O          -11.028728       10.823154       14.023281
  O          -15.223599       11.950202       11.988322
  O          -13.508824       11.537339       10.187293
  N          -12.799352       11.899688       12.683707
  C          -10.195342       11.779010       11.744989
  C          -13.688924       13.935765       11.270577
  S           21.499906       13.534781        7.404131
  S           24.302501       13.837280        6.986751
  F           21.683387       12.612933        9.930776
  F           20.266982       11.527484        8.644211
  F           22.434438       11.203955        8.419357
  F           26.597773       13.474140        8.271245
  F           25.254308       14.944107        9.249359
  F           24.838414       12.802475        9.414818
  O           21.339715       12.840979        6.132891
  O           20.445023       14.411121        7.897051
  O           24.925292       14.943326        6.268498
  O           24.389809       12.486325        6.444616
  N           22.893297       14.291940        7.613777
  C           21.487792       12.147821        8.664457
  C           25.289996       13.765189        8.568895
  S           21.327134       -0.097189       17.234476
  S           18.795651        0.698671       16.195991
  F           21.073511        1.160487       19.605411
  F           23.032304        1.395056       18.631881
  F           21.291632        2.528624       17.898276
  F           16.671208        2.128336       16.898033
  F           17.053660        0.392910       18.226354
  F           18.296317        2.186704       18.384587
  O           22.004425        0.290381       16.003972
  O           21.797305       -1.246423       17.997314
  O           17.912849       -0.151166       15.405084
  O           19.392798        1.881409       15.586762
  N           19.732538       -0.192913       17.151530
  C           21.684520        1.327530       18.398383
  C           17.650115        1.380050       17.502509
  S           25.158065      -12.798504        3.787103
  S           24.789291      -10.095795        2.962712
  F           27.841379      -12.667271        4.010728
  F           27.077833      -14.469401        3.006248
  F           27.120347      -12.543536        1.937449
  F           26.216163       -7.914945        2.454781
  F           26.401022       -8.631361        4.546427
  F           27.449510       -9.676254        2.935278
  O           24.301788      -13.289690        2.715376
  O           25.174475      -13.474393        5.078082
  O           23.697179       -9.231967        3.396518
  O           24.884842      -10.487206        1.561184
  N           25.090333      -11.225056        4.067194
  C           26.889595      -13.120124        3.146331
  C           26.295421       -9.031339        3.249115
  S           11.808233      -12.239508       -3.435062
  S            9.502477      -13.800733       -2.829820
  F           12.209149      -11.334767       -0.927450
  F           12.396541       -9.814786       -2.506753
  F           10.404717      -10.519573       -1.883048
  F            7.960567      -14.428121       -0.761254
  F           10.072155      -15.065591       -0.522007
  F            9.529443      -12.960980       -0.270988
  O           11.151586      -11.633823       -4.586163
  O           13.239638      -12.510934       -3.468668
  O            9.211120      -15.113577       -3.394306
  O            8.630791      -12.673632       -3.140335
  N           11.087196      -13.528145       -2.820000
  C           11.683967      -10.916315       -2.113719
  C            9.265933      -14.077461       -0.999248
  S           -3.308384       18.354128        8.458568
  S           -4.329002       20.917521        9.171032
  F           -0.723775       18.920000        8.975281
  F           -1.081241       17.832655        7.096571
  F           -1.529617       19.985441        7.229102
  F           -3.471325       23.273710       10.044434
  F           -3.047160       21.600546       11.438355
  F           -1.843494       21.848524        9.628210
  O           -4.064952       18.348975        7.213316
  O           -3.086848       17.110299        9.184883
  O           -5.576082       21.149301        9.890868
  O           -4.196271       21.377521        7.793572
  N           -3.731784       19.467408        9.526331
  C           -1.574462       18.813298        7.915517
  C           -3.104021       21.953764       10.124522
  S           -7.121879        1.697262       -4.175431
  S           -8.603491       -0.665448       -3.590042
  F           -4.768900        0.458608       -4.618865
  F           -4.645909        2.278131       -3.388472
  F           -5.413107        0.405741       -2.517463
  F           -8.250658       -3.290790       -3.407967
  F           -7.832576       -2.475410       -5.428554
  F           -6.389311       -2.182802       -3.810438
  O           -7.649399        2.374095       -2.997851
  O           -6.850375        2.451658       -5.392350
  O           -9.974090       -0.919483       -4.019016
  O           -8.307863       -0.525107       -2.168944
  N           -7.873645        0.350719       -4.600223
  C           -5.404934        1.167026       -3.643285
  C           -7.717316       -2.228733       -4.094380
  S           13.879587       18.286185        4.412219
  S           15.516581       16.308922        5.649529
  F           15.415498       20.395713        5.089181
  F           13.253964       20.687668        5.375865
  F           14.400417       19.456980        6.798589
  F           17.763277       16.119909        7.051919
  F           18.049778       16.974229        5.024491
  F           17.176385       18.197906        6.614060
  O           12.675618       17.734455        5.019776
  O           13.823820       18.870512        3.078363
  O           15.800694       14.991587        5.091853
  O           14.751424       16.417789        6.886176
  N           15.181165       17.358673        4.478523
  C           14.268360       19.773885        5.483588
  C           17.214177       16.941031        6.099117
  S          -20.187837       22.725911       16.707806
  S          -18.116739       20.786811       16.441910
  F          -22.177813       20.962149       17.151137
  F          -22.662825       22.577370       15.738523
  F          -21.383007       20.900996       15.102179
  F          -17.779262       18.153975       16.507857
  F          -18.542643       19.000567       18.411259
  F          -19.885373       18.772025       16.699017
  O          -19.760489       23.414522       15.496913
  O          -20.733191       23.484050       17.826526
  O          -16.763249       20.933436       16.965036
  O          -18.329088       20.725534       15.000464
  N          -19.154608       21.660720       17.304955
  C          -21.669183       21.726274       16.143388
  C          -18.614542       19.095638       17.054813
  S           -9.516869        3.778195       -5.771600
  S          -12.184755        4.705164       -6.150235
  F           -8.388030        6.219221       -5.585810
  F           -7.298376        4.783041       -6.846641
  F           -9.134109        5.741509       -7.597983
  F          -13.535824        6.983333       -6.336311
  F          -12.507527        6.715871       -4.388625
  F          -11.357721        7.268227       -6.166202
  O           -9.632360        2.850832       -6.889515
  O           -8.720682        3.421137       -4.604416
  O          -13.372097        4.095193       -5.562657
  O          -12.008195        4.689281       -7.597712
  N          -10.889394        4.408611       -5.244790
  C           -8.549138        5.212831       -6.491003
  C          -12.398506        6.511145       -5.730398
  S          -11.039936       12.428505        6.729770
  S          -11.791451       15.169274        6.520820
  F          -13.316165       11.595423        7.909668
  F          -11.464869       10.797992        8.790837
  F          -12.073291       12.876715        9.193115
  F          -13.823801       16.769115        7.120926
  F          -14.354221       15.154464        5.694755
  F          -14.103246       14.698449        7.819841
  O           -9.738893       12.780657        7.283258
  O          -11.174217       11.268225        5.858311
  O          -11.503210       16.029547        5.378916
  O          -11.179885       15.458191        7.812767
  N          -11.862204       13.628826        6.065027
  C          -12.031254       11.914023        8.234703
  C          -13.615302       15.451285        6.799313
  S           -6.168566       15.087775        0.563356
  S           -8.238330       17.011297        0.932668
  F           -4.155260       16.868344        0.354592
  F           -4.115242       15.240075       -1.124188
  F           -5.544378       16.901408       -1.349210
  F           -8.563182       19.642647        1.075963
  F           -7.241662       18.822363        2.658091
  F           -6.495352       19.039424        0.612893
  O           -6.942539       14.382877       -0.450132
  O           -5.297496       14.345699        1.465730
  O           -9.362769       16.862543        1.849513
  O           -8.481976       17.057427       -0.504386
  N           -6.976705       16.153496        1.440813
  C           -4.943126       16.089765       -0.439910
  C           -7.591207       18.712286        1.346659
  S           27.384544       -9.899076       -1.972535
  S           27.861496       -7.957629       -4.003188
  F           29.878235      -10.923191       -1.962533
  F           28.259862      -12.412558       -1.914490
  F           28.746513      -11.370724       -3.793545
  F           29.820666       -7.109664       -5.582008
  F           30.256977       -6.875418       -3.419331
  F           30.378251       -8.850702       -4.352325
  O           26.160295      -10.345931       -2.624156
  O           27.478893       -9.893419       -0.518305
  O           27.328178       -6.600180       -4.002570
  O           27.435876       -8.898223       -5.033111
  N           27.989808       -8.515753       -2.500601
  C           28.637209      -11.209223       -2.448530
  C           29.676241       -7.687316       -4.345464
  S           -2.351611       -1.896482       -3.652598
  S           -3.845288       -2.137318       -6.067381
  F           -2.922256       -4.358662       -2.714813
  F           -3.064504       -2.741018       -1.230681
  F           -4.650207       -2.999495       -2.737940
  F           -5.378590       -3.891921       -7.340338
  F           -3.302274       -4.600507       -7.009842
  F           -4.728113       -4.578675       -5.350493
  O           -2.939277       -0.594368       -3.365854
  O           -0.970389       -2.173646       -3.279602
  O           -3.422116       -1.625146       -7.365726
  O           -5.024227       -1.573552       -5.420169
  N           -2.569861       -2.447309       -5.138443
  C           -3.307175       -3.062792       -2.539564
  C           -4.328764       -3.897565       -6.456359
  S           10.710435       -8.078766        8.883085
  S           13.165840       -8.757802        7.606313
  F           10.297965      -10.490760       10.014262
  F            8.526118       -9.588715        9.072706
  F           10.098626      -10.495876        7.824759
  F           14.805181      -10.827809        7.327571
  F           14.564127      -10.161216        9.429941
  F           12.974387      -11.306294        8.456056
  O           10.186859       -7.484006        7.660300
  O           10.361406       -7.512218       10.179589
  O           14.323829       -7.877407        7.501143
  O           12.452753       -9.157303        6.398622
  N           12.281728       -8.378236        8.894727
  C            9.879152       -9.757291        8.944321
  C           13.910866      -10.343717        8.249222
  S           27.794096       10.430206       11.349867
  S           26.454225        9.331356        9.087672
  F           29.701757       11.725248        9.953050
  F           30.422739       10.630982       11.720087
  F           29.889271        9.535765        9.884602
  F           26.636718        9.295459        6.438998
  F           26.332045       11.325014        7.281903
  F           28.294723       10.367586        7.416646
  O           27.802294        9.140631       12.028102
  O           27.650034       11.659901       12.118512
  O           25.007045        9.214039        8.949821
  O           27.270740        8.125394        9.162308
  N           26.832064       10.541614       10.076736
  C           29.536626       10.582108       10.677006
  C           26.957969       10.131839        7.478637
  S          -17.337340        4.084090       -2.900905
  S          -20.132092        3.541810       -2.776223
  F          -17.461706        6.506281       -1.724076
  F          -16.175144        6.401612       -3.505496
  F          -18.366424        6.449515       -3.727060
  F          -22.384317        4.670758       -1.937759
  F          -20.909527        4.318627       -0.318064
  F          -20.619316        5.971653       -1.721707
  O          -17.278448        3.694522       -4.303704
  O          -16.209034        3.814269       -2.018951
  O          -20.717673        2.241102       -2.472332
  O          -20.327178        4.128688       -4.096878
  N          -18.670377        3.671715       -2.118768
  C          -17.353193        5.956954       -2.966902
  C          -21.048860        4.686421       -1.621701
  S           13.048506        5.188009        5.999500
  S           13.574561        7.978679        5.763539
  F           15.584606        4.380213        5.571630
  F           14.047496        3.231321        4.495993
  F           14.618946        5.239452        3.793178
  F           15.599881        9.631034        5.296778
  F           15.859273        8.400532        7.124615
  F           16.153794        7.503565        5.150879
  O           11.901891        5.282600        5.105409
  O           13.032689        4.246943        7.112095
  O           12.972300        9.015210        6.594190
  O           13.277562        7.936323        4.336440
  N           13.618471        6.577246        6.550808
  C           14.400388        4.489661        4.905446
  C           15.393255        8.390023        5.845213
  S            4.319233       18.270885        7.936548
  S            6.225831       20.388449        7.969039
  F            5.482742       16.806639        9.878103
  F            4.811979       15.661413        8.123627
  F            6.643013       16.881238        8.012121
  F            8.455551       21.094317        9.226084
  F            6.702799       20.890936       10.571039
  F            7.712395       19.104589        9.811690
  O            4.384521       18.173827        6.484173
  O            3.061495       18.024568        8.630194
  O            5.904204       21.804026        7.828358
  O            7.014860       19.723259        6.938714
  N            4.974822       19.581770        8.577298
  C            5.382648       16.841896        8.519100
  C            7.322145       20.362989        9.479327
  S           -5.854949      -12.453025        6.604983
  S           -6.681668      -10.330416        4.892873
  F           -3.709571      -11.179579        7.626302
  F           -3.363880      -13.276191        7.056768
  F           -3.491349      -11.717065        5.505648
  F           -5.948903       -7.872343        4.206581
  F           -6.442168       -8.084801        6.359245
  F           -4.542184       -8.851105        5.591283
  O           -5.976685      -13.428419        5.529409
  O           -6.168123      -12.833672        7.976388
  O           -8.066842       -9.941341        4.654111
  O           -5.887540      -10.875100        3.797750
  N           -6.530427      -11.028670        6.333464
  C           -4.011732      -12.125805        6.692757
  C           -5.860065       -8.703539        5.295068
  S           21.292397       11.027114       15.326055
  S           20.435686       13.728008       15.023624
  F           18.846525        9.920459       15.080224
  F           20.079788        9.101359       16.707427
  F           19.114562       11.068376       16.936060
  F           18.207731       15.121129       14.642178
  F           18.660175       13.700132       12.999475
  F           17.857214       12.960778       14.895666
  O           22.086106       11.362950       16.500923
  O           21.751536        9.996804       14.403356
  O           21.157727       14.755033       14.281349
  O           20.274523       13.861557       16.466816
  N           20.783965       12.266164       14.451395
  C           19.745445       10.254698       16.048924
  C           18.701518       13.874541       14.349299
  S           14.089008       10.710357       -3.015989
  S           15.353993        9.134827       -1.006569
  F           15.297833       13.030491       -2.365508
  F           13.138595       13.183652       -2.757789
  F           13.858190       12.331227       -0.858145
  F           17.100495        9.393494        0.976582
  F           17.938368        9.890669       -1.016705
  F           16.604298       11.301105       -0.007816
  O           12.777495       10.176132       -2.673044
  O           14.405990       11.038423       -4.400047
  O           15.827301        7.767831       -1.192034
  O           14.259436        9.398541       -0.079739
  N           15.342250        9.924415       -2.407335
  C           14.104743       12.394099       -2.193194
  C           16.827805        9.980018       -0.233877
  S           -8.500559        5.448114       17.220327
  S          -10.650023        3.578793       17.295771
  F           -6.524576        3.614294       17.221690
  F           -6.211738        5.321095       18.573954
  F           -7.628696        3.725002       19.119675
  F          -11.058972        0.956214       17.365805
  F           -9.982786        1.640189       15.550203
  F           -8.929629        1.513472       17.463769
  O           -9.087582        6.235162       18.296911
  O           -7.764068        6.107832       16.149779
  O          -11.900646        3.713972       16.557689
  O          -10.665599        3.622200       18.753333
  N           -9.463047        4.362862       16.546068
  C           -7.157930        4.462980       18.080029
  C          -10.118773        1.835999       16.890845
  S          -11.180384        5.615525        0.451037
  S          -13.046316        7.763116        0.288550
  F          -13.013671        3.665698        0.774519
  F          -11.267647        3.532229        2.106150
  F          -12.846668        5.016810        2.500871
  F          -15.665609        8.188733        0.379194
  F          -15.035834        6.873164       -1.292652
  F          -15.106030        6.090099        0.749115
  O          -10.361728        6.339988        1.414380
  O          -10.552752        4.737759       -0.528414
  O          -12.932843        8.901375       -0.616208
  O          -12.959790        7.976258        1.728584
  N          -12.284963        6.482081       -0.315622
  C          -12.139855        4.406175        1.513635
  C          -14.800413        7.189090        0.010775
  S           25.221713       -5.383263        5.395141
  S           24.867673       -2.755171        4.352050
  F           22.599066       -5.988795        5.545018
  F           23.788812       -6.561157        7.304722
  F           23.235052       -4.453158        6.984124
  F           22.918537       -1.095694        3.647016
  F           22.953953       -2.976571        2.470812
  F           22.189332       -2.982246        4.520752
  O           26.161093       -4.906056        6.401576
  O           25.398363       -6.699745        4.795649
  O           25.705097       -2.143977        3.326254
  O           24.857367       -2.197986        5.699660
  N           24.884084       -4.357279        4.215250
  C           23.623628       -5.591622        6.351665
  C           23.141583       -2.448338        3.711746
  S          -18.367467      -12.435340        3.495203
  S          -15.588435      -11.878400        3.790242
  F          -18.587306      -11.479122        0.984281
  F          -20.204896      -10.884989        2.351783
  F          -18.228625       -9.922143        2.494529
  F          -13.571706      -10.825869        2.420918
  F          -14.451542      -12.625078        1.466379
  F          -15.502320      -10.708653        1.365824
  O          -18.671315      -11.833813        4.787068
  O          -19.129658      -13.585673        3.026674
  O          -14.628243      -12.750103        4.457521
  O          -15.888680      -10.569264        4.358247
  N          -16.821574      -12.733023        3.211691
  C          -18.855979      -11.106214        2.267600
  C          -14.742598      -11.496737        2.170855
  S           29.779103       19.037660       18.263079
  S           28.492649       16.673515       17.327074
  F           27.532561       20.505897       18.517513
  F           29.224803       21.548977       17.575199
  F           28.067689       20.063739       16.431411
  F           26.060433       15.776894       16.752217
  F           26.307606       16.379966       18.872976
  F           26.097810       17.905673       17.318905
  O           30.773634       18.971519       17.200249
  O           30.148408       19.540727       19.579991
  O           28.859263       15.315225       17.711441
  O           28.664018       17.101645       15.943618
  N           28.901980       17.717586       18.479505
  C           28.578980       20.344199       17.659018
  C           26.645117       16.692164       17.591269
  S           29.237224       -7.483674       -0.038820
  S           27.558292       -5.256681        0.545933
  F           30.948812       -7.098611        2.008032
  F           31.895512       -7.566993        0.078258
  F           31.076442       -5.555501        0.447197
  F           27.352017       -3.274411        2.300392
  F           27.217872       -5.290513        3.216769
  F           29.157830       -4.505661        2.578413
  O           29.315983       -7.112490       -1.445622
  O           29.233631       -8.888765        0.347739
  O           26.104257       -5.254472        0.432465
  O           28.350408       -4.401455       -0.330282
  N           28.102598       -6.745870        0.813850
  C           30.865996       -6.880401        0.665021
  C           27.839551       -4.556460        2.253009
  S           30.657579        6.929596       -1.393660
  S           31.687402        4.633096       -0.057320
  F           28.054524        6.337242       -1.018652
  F           28.569919        7.028304       -3.042622
  F           29.077854        4.979399       -2.412476
  F           30.826282        2.465322        1.211259
  F           30.197947        4.365008        2.169797
  F           29.202081        3.677475        0.347031
  O           31.540969        6.718573       -2.533031
  O           30.316464        8.282660       -0.973448
  O           32.858770        4.627713        0.811565
  O           31.717534        3.889659       -1.311516
  N           31.004880        6.088939       -0.077812
  C           29.008221        6.269350       -1.990252
  C           30.405969        3.749890        0.972922
  S           18.428515       19.924570        9.487331
  S           19.804246       20.793953        7.148145
  F           16.061093       19.475888        8.278445
  F           15.937548       20.530056       10.205391
  F           16.602040       21.603395        8.399986
  F           19.359472       21.193080        4.561074
  F           19.064755       19.088881        5.199741
  F           17.555828       20.599171        5.678380
  O           18.920450       21.061727       10.254107
  O           18.239748       18.632643       10.134642
  O           21.184984       20.459335        6.818467
  O           19.445619       22.179939        7.425710
  N           19.156365       19.660990        8.087495
  C           16.672032       20.414767        9.055241
  C           18.893750       20.387965        5.570269
  S          -23.019937       -0.519979       16.473048
  S          -20.609338        0.847524       15.810330
  F          -21.993028       -3.007327       16.311919
  F          -23.960694       -2.749095       15.362571
  F          -22.147273       -1.987523       14.370298
  F          -18.083500        0.322319       15.182341
  F          -18.667144       -0.398867       17.197697
  F          -19.322106       -1.484894       15.414862
  O          -23.784810        0.272068       15.518739
  O          -23.633081       -0.952161       17.722445
  O          -20.155981        2.088221       16.428580
  O          -20.965515        0.835654       14.396254
  N          -21.556648        0.026696       16.817592
  C          -22.750942       -2.144303       15.577816
  C          -19.097418       -0.241782       15.915378
  S           26.289647        6.049005        2.899853
  S           28.198143        8.110643        3.376869
  F           28.080524        4.047360        2.668372
  F           26.485940        4.049900        1.152802
  F           28.147574        5.489231        1.010000
  F           30.824626        8.436948        3.589417
  F           29.973081        7.064627        5.110605
  F           30.238187        6.383242        3.048479
  O           25.605308        6.852704        1.895451
  O           25.530165        5.148382        3.757632
  O           28.025477        9.205466        4.324836
  O           28.275738        8.399283        1.949536
  N           27.332983        6.831735        3.825899
  C           27.317572        4.857915        1.881570
  C           29.891372        7.454817        3.808596
  S          -17.938972        4.760988        6.822823
  S          -19.317924        6.059618        4.693903
  F          -15.750370        4.107050        5.391113
  F          -16.528161        2.507549        6.685829
  F          -17.555853        3.000182        4.800556
  F          -18.997163        6.642183        2.123340
  F          -17.464504        7.557748        3.440574
  F          -17.359527        5.426578        2.956817
  O          -19.123400        3.991589        7.180913
  O          -17.016376        5.207831        7.858617
  O          -20.107095        7.278465        4.830718
  O          -19.978117        4.811092        4.330666
  N          -18.181385        5.991065        5.829383
  C          -16.896016        3.536790        5.860633
  C          -18.218041        6.442301        3.235365
  S            5.948377       22.536441        5.119188
  S            8.786980       22.518233        5.368698
  F            5.637672       19.859183        5.175361
  F            4.454224       20.901860        3.641762
  F            6.616442       20.597072        3.350200
  F           10.795248       20.795192        5.587916
  F            9.334482       20.674795        7.253472
  F            8.837671       19.826376        5.298915
  O            6.006837       23.478170        4.008872
  O            4.844657       22.593313        6.069077
  O            9.561152       23.461160        6.167848
  O            8.936387       22.510943        3.918099
  N            7.299052       22.364670        5.958802
  C            5.666600       20.885344        4.278529
  C            9.463329       20.865490        5.911389
  S           -4.781304       10.059335        9.428259
  S           -7.491967        9.755249        8.603582
  F           -4.955837        8.454286       11.587139
  F           -3.880889       10.345110       11.917180
  F           -6.080121       10.332784       11.789421
  F           -9.712305        8.502944        9.346480
  F           -8.036341        7.131184        8.864994
  F           -8.040608        8.231959       10.755816
  O           -4.855809       11.508332        9.294358
  O           -3.540584        9.359317        9.121162
  O           -7.935399        9.636223        7.219279
  O           -7.884274       10.920390        9.387900
  N           -5.978272        9.235474        8.759454
  C           -4.950197        9.780924       11.273846
  C           -8.354441        8.325218        9.437051
  S          -17.544650        0.739852       -3.602148
  S          -17.547762        1.406227       -0.831555
  F          -18.460596       -1.776739       -3.293573
  F          -16.783178       -1.562429       -4.700695
  F          -16.420764       -1.478876       -2.529343
  F          -18.124804        0.314475        1.519012
  F          -19.861172        0.432108        0.142931
  F          -18.318707       -1.087860       -0.169209
  O          -16.194868        1.261559       -3.772397
  O          -18.518445        0.865263       -4.679049
  O          -17.944142        2.698520       -0.283872
  O          -16.164942        0.962049       -0.700683
  N          -18.279201        1.139678       -2.238567
  C          -17.288907       -1.114394       -3.509433
  C          -18.520884        0.201233        0.209860
  S          -20.082745       21.106210       12.116476
  S          -21.724298       18.788824       12.351586
  F          -22.103289       22.854810       11.759816
  F          -20.388152       23.125764       10.409060
  F          -21.813994       21.481579       10.067412
  F          -24.288698       18.102636       12.296229
  F          -23.782019       19.518283       13.927679
  F          -23.943471       20.235926       11.867132
  O          -19.202410       20.441376       11.164593
  O          -19.539188       22.067758       13.067103
  O          -21.491963       17.691946       13.284311
  O          -21.626551       18.547131       10.916789
  N          -21.090364       20.154817       12.915434
  C          -21.164983       22.185493       11.031978
  C          -23.524972       19.192787       12.630709
  S            3.757156       22.256768       10.242739
  S            2.747194       21.568983       12.817070
  F            1.374637       22.911825        9.164820
  F            2.669400       21.679341        7.882547
  F            1.597976       20.763559        9.575617
  F            0.440666       21.442635       14.126279
  F            0.954243       23.483808       13.424665
  F            0.214543       21.992578       12.004802
  O            4.543458       21.031982       10.174181
  O            4.263310       23.485283        9.644174
  O            3.402467       21.881356       14.082034
  O            2.594422       20.177169       12.409484
  N            3.170646       22.628316       11.683828
  C            2.263837       21.878693        9.175366
  C            1.000347       22.162139       13.100289
  S          -10.443786      -11.205316        4.731642
  S           -9.540479       -8.734321        5.826389
  F          -12.749931      -11.310568        6.123771
  F          -11.629948      -13.201884        6.033131
  F          -10.955462      -11.581719        7.364756
  F          -10.305418       -6.886717        7.573185
  F          -11.701903       -7.129001        5.866276
  F          -11.668887       -8.614435        7.472304
  O           -9.148603      -11.832240        4.960865
  O          -11.237086      -11.570933        3.565143
  O           -8.863685       -7.684846        5.072966
  O           -8.823622       -9.439176        6.882755
  N          -10.478165       -9.611066        4.857990
  C          -11.495515      -11.843603        6.145390
  C          -10.882264       -7.797487        6.723873
  S           17.967347        5.395466       19.441656
  S           15.689485        3.910068       18.590078
  F           16.612254        7.611539       20.162870
  F           18.453252        7.978017       19.015667
  F           16.639283        7.259343       17.992867
  F           13.055892        4.174003       18.378902
  F           13.802626        4.345464       20.461064
  F           14.067750        6.007599       19.063227
  O           18.695616        5.062946       18.224229
  O           18.679150        5.529288       20.706231
  O           15.488088        2.484214       18.821323
  O           15.850228        4.403031       17.227080
  N           16.646737        4.536792       19.719953
  C           17.372176        7.145303       19.131708
  C           14.075715        4.652484       19.162867
  S           -2.168805      -10.179519       13.152638
  S           -1.400107      -12.498037       11.685047
  F           -4.504942      -11.174134       14.058515
  F           -4.601128       -9.108571       13.307615
  F           -4.486875      -10.793644       11.893200
  F           -2.298603      -14.930526       11.114284
  F           -1.976103      -14.587763       13.282443
  F           -3.721762      -13.723785       12.285876
  O           -1.863013       -9.308993       12.024919
  O           -1.941332       -9.717509       14.515915
  O           -0.042221      -13.024371       11.606229
  O           -2.041478      -11.976980       10.483483
  N           -1.609348      -11.674616       13.050305
  C           -4.035269      -10.336751       13.090863
  C           -2.402909      -14.009130       12.126081
  S           29.754225       18.146742        5.937517
  S           32.232568       17.910403        4.551079
  F           28.367705       19.186578        3.872642
  F           28.028378       20.169766        5.811160
  F           29.887461       20.548053        4.691428
  F           33.276093       18.400084        2.159147
  F           31.609727       16.935823        2.119483
  F           31.186232       19.069217        2.356571
  O           30.401893       18.777432        7.080246
  O           28.613923       17.262083        6.139525
  O           33.159850       16.792411        4.682750
  O           32.635983       19.237585        5.001032
  N           30.730825       17.442159        4.884619
  C           28.983482       19.588068        5.020586
  C           32.055618       18.083433        2.701140
  S          -11.323901       -3.474240        7.321382
  S          -13.856123       -2.594113        6.355217
  F          -10.223398       -1.021272        7.519494
  F           -8.926957       -2.553388        6.618652
  F          -10.570170       -1.669482        5.447477
  F          -15.117865       -0.345590        5.721010
  F          -14.490696       -0.444084        7.846890
  F          -13.011008       -0.037808        6.287277
  O          -11.231214       -4.492664        6.283454
  O          -10.773901       -3.728550        8.646730
  O          -15.142213       -3.157850        6.749261
  O          -13.402015       -2.730655        4.976175
  N          -12.764932       -2.807897        7.516823
  C          -10.217717       -2.100791        6.687172
  C          -14.125632       -0.760227        6.573731
  S          -20.116751       16.018702        0.745473
  S          -21.654118       15.015762        2.925121
  F          -21.885103       17.908882       -0.007892
  F          -21.012356       16.740899       -1.655248
  F          -22.575014       15.854817       -0.380081
  F          -23.981839       15.435812        4.131495
  F          -22.623030       17.188838        4.185814
  F          -23.685503       16.684773        2.340820
  O          -19.868809       14.673789        0.242673
  O          -19.095534       17.049599        0.610983
  O          -21.107148       14.601329        4.212042
  O          -22.280611       14.026070        2.056427
  N          -20.701635       16.110035        2.231524
  C          -21.479450       16.659020       -0.370444
  C          -23.052328       16.149821        3.417503
  S            6.168418       -7.771882       18.284442
  S            5.522060       -9.871843       16.469881
  F            8.638279       -8.665997       18.890868
  F            7.443111       -7.993564       20.611061
  F            7.022421       -9.938981       19.666884
  F            6.592041      -12.079793       15.454909
  F            7.729738      -10.237228       14.972200
  F            7.859776      -11.110575       16.974020
  O            4.893504       -7.915260       18.975174
  O            6.778669       -6.456294       18.141117
  O            4.789740       -9.700002       15.220371
  O            4.930291      -10.652702       17.550012
  N            6.282410       -8.513051       16.871483
  C            7.378827       -8.652439       19.412164
  C            7.010318      -10.866747       15.941887
  S           24.008335      -11.750336       -5.244514
  S           21.206373      -12.120792       -4.881166
  F           24.595852      -14.353977       -5.623043
  F           25.968877      -13.274612       -4.285348
  F           23.975093      -13.877837       -3.568382
  F           19.405651      -14.071395       -4.830035
  F           20.459783      -13.885055       -6.773355
  F           21.473900      -14.794649       -5.061299
  O           24.095437      -10.903293       -4.062141
  O           24.857479      -11.484654       -6.398675
  O           20.172272      -11.233741       -5.401619
  O           21.387837      -12.247768       -3.439791
  N           22.531673      -12.038083       -5.788068
  C           24.654231      -13.404816       -4.646397
  C           20.614682      -13.806029       -5.422831
  S           -8.083263       11.089194       -4.113833
  S          -10.686656       10.032589       -4.589417
  F           -8.847574       13.668373       -3.937558
  F           -7.039291       13.313192       -5.139061
  F           -9.024775       12.830649       -5.962528
  F          -13.195857       10.858701       -4.856845
  F          -12.313692       11.321861       -2.874504
  F          -11.751300       12.506194       -4.626075
  O           -7.521119       10.322480       -5.218014
  O           -7.289750       11.337156       -2.916932
  O          -11.198305        8.787903       -4.027220
  O          -10.493499       10.146287       -6.030381
  N           -9.548558       10.656470       -3.640081
  C           -8.275052       12.810766       -4.829119
  C          -12.050665       11.248281       -4.208504
  S          -23.627331        2.488095        4.764746
  S          -22.435065        2.439642        2.177005
  F          -21.375271        3.115396        6.107178
  F          -22.597690        1.534456        7.026946
  F          -21.362297        1.087215        5.258649
  F          -20.069293        2.792065        1.024188
  F          -20.817380        4.590305        2.086783
  F          -19.998214        2.909648        3.223132
  O          -24.288898        1.210641        4.533413
  O          -24.281594        3.516457        5.563578
  O          -23.059038        2.947149        0.960374
  O          -22.162265        1.012854        2.305333
  N          -23.014930        3.200026        3.469795
  C          -22.154695        2.031884        5.830316
  C          -20.745424        3.231382        2.134787
  S           15.383744      -10.937835       16.369209
  S           14.977647      -10.065245       13.687060
  F           17.434428      -12.600380       15.823269
  F           15.915277      -13.413592       17.190939
  F           15.503044      -13.289483       15.030440
  F           15.963987      -10.456130       11.253050
  F           17.440141       -9.629893       12.688568
  F           16.882475      -11.743229       12.787322
  O           13.959985      -11.188729       16.550964
  O           16.189700      -10.456536       17.483887
  O           14.654308       -8.698669       13.293337
  O           14.004094      -11.128117       13.465448
  N           15.780548      -10.077681       15.080232
  C           16.094771      -12.645982       16.071046
  C           16.397521      -10.495431       12.554621
  S          -17.797887       -6.159467        1.282881
  S          -18.813152       -8.197389       -0.430700
  F          -15.256809       -7.058675        1.324812
  F          -16.063531       -6.455888        3.280701
  F          -16.675296       -8.369006        2.375818
  F          -17.982616      -10.360690       -1.727004
  F          -16.969412       -8.494728       -2.370444
  F          -16.423148       -9.438187       -0.473496
  O          -18.899599       -6.335684        2.220032
  O          -17.229769       -4.835675        1.062570
  O          -19.791208       -7.985754       -1.491695
  O          -19.165956       -9.020158        0.720472
  N          -17.983857       -6.848921       -0.148498
  C          -16.378782       -7.071905        2.098863
  C          -17.470026       -9.163137       -1.294912
  S           22.717676      -12.059506        8.952036
  S           23.135429       -9.492095        7.788362
  F           25.071216      -13.116085        8.169799
  F           23.324517      -14.423805        7.889505
  F           23.676532      -12.740928        6.512151
  F           24.957533       -8.174798        6.376012
  F           25.685765       -8.845748        8.361438
  F           25.480102      -10.286115        6.727432
  O           21.380809      -12.151285        8.379816
  O           22.995080      -12.640469       10.259419
  O           22.751968       -8.225205        8.400769
  O           22.486698       -9.921349        6.554870
  N           23.393245      -10.610016        8.915091
  C           23.755613      -13.126145        7.813092
  C           24.910654       -9.191562        7.296652
  S           31.021661        1.430270        6.252906
  S           28.937917       -0.277219        7.181745
  F           32.418930        1.458891        8.558167
  F           32.184828        3.418878        7.586931
  F           30.495899        2.517877        8.677255
  F           28.205053       -1.577271        9.377841
  F           30.168078       -2.226704        8.573366
  F           30.001577       -0.332410        9.655429
  O           30.061512        2.373355        5.694536
  O           32.298718        1.206509        5.587491
  O           28.310422       -1.333035        6.395234
  O           28.148824        0.876080        7.598694
  N           30.434906        0.000121        6.664211
  C           31.545611        2.238935        7.860316
  C           29.362019       -1.148301        8.777011
  S           -3.263529       13.484235        5.852991
  S           -2.313280       15.921572        4.723096
  F           -5.837275       13.812285        5.121129
  F           -5.538306       13.108983        7.184049
  F           -5.173603       15.220698        6.673417
  F           -3.219380       18.029746        3.387188
  F           -3.496233       16.109162        2.311494
  F           -4.806670       16.624059        3.986178
  O           -2.576844       13.747062        7.110949
  O           -3.392775       12.118308        5.361807
  O           -1.039361       16.080462        4.031012
  O           -2.540449       16.619790        5.983056
  N           -2.829050       14.402202        4.617133
  C           -5.042281       13.946117        6.220322
  C           -3.526313       16.700561        3.537665
  S           -2.059414      -11.932377       16.706238
  S            0.585512      -12.540494       15.837440
  F           -1.412844       -9.682046       18.042413
  F           -2.797081      -11.026760       19.098485
  F           -0.652619      -11.517835       18.983488
  F            3.054858      -11.582556       16.023850
  F            1.636489      -10.197258       15.028065
  F            1.582174      -10.442956       17.201453
  O           -2.271832      -13.299293       17.163941
  O           -3.165328      -11.170322       16.140598
  O            0.932084      -13.068183       14.522705
  O            0.810859      -13.357892       17.023902
  N           -0.784943      -11.702239       15.767334
  C           -1.694750      -10.993194       18.286486
  C            1.766875      -11.108607       16.031357
  S           -9.315263       17.169468        4.782955
  S          -10.326077       14.561195        4.239435
  F           -6.950297       16.827053        3.535119
  F           -6.833251       17.814731        5.497374
  F           -7.159481       15.639568        5.373544
  F           -9.597990       12.312493        3.029768
  F           -9.694354       14.062822        1.669815
  F           -8.015367       13.845096        3.055648
  O           -9.688406       17.070463        6.187959
  O           -9.389225       18.452158        4.095236
  O          -11.707717       14.258335        3.883846
  O           -9.780401       14.063784        5.496986
  N           -9.949220       16.065527        3.814352
  C           -7.472481       16.828506        4.794275
  C           -9.355059       13.659210        2.925255
  S           29.615675       -2.455990       13.533384
  S           27.316531       -3.938225       12.735158
  F           28.449777       -0.028461       13.410117
  F           30.463037       -0.140159       12.530366
  F           28.735874       -0.972143       11.445099
  F           24.788943       -3.539854       12.026165
  F           25.253909       -2.853745       14.084191
  F           25.908794       -1.672562       12.362894
  O           30.460909       -3.169966       12.585286
  O           30.155515       -2.030929       14.818537
  O           26.914979       -5.223113       13.296328
  O           27.723406       -3.858454       11.337051
  N           28.175633       -3.097901       13.803583
  C           29.284137       -0.821017       12.679467
  C           25.739846       -2.942651       12.815288
  S           -0.880945       21.534932        2.633808
  S           -0.627902       19.636477        4.743805
  F            1.598567       21.186575        1.634770
  F            0.953316       23.282000        1.815043
  F            1.568902       22.157960        3.606880
  F            1.154717       17.946613        5.752117
  F            0.596574       17.501577        3.651444
  F            1.943843       19.167097        4.096239
  O           -1.423997       22.537901        3.540572
  O           -1.347721       21.466268        1.254994
  O           -1.679371       18.722633        5.175544
  O           -0.159350       20.676226        5.652648
  N           -0.827604       20.039842        3.200060
  C            0.906924       22.056323        2.424276
  C            0.842394       18.505355        4.538097
  S          -11.229340       18.074347       16.818037
  S          -11.902605       19.748166       14.612296
  F          -11.165265       20.040169       18.661633
  F           -9.499969       18.606800       18.770705
  F           -9.528943       20.148385       17.197248
  F          -12.374603       22.304807       14.072971
  F          -13.797458       21.426212       15.531039
  F          -11.768047       21.947656       16.160737
  O          -10.166499       17.426772       16.060350
  O          -12.003500       17.312521       17.789643
  O          -12.834512       19.392803       13.548171
  O          -10.491356       19.940570       14.299295
  N          -12.257670       18.953101       15.964159
  C          -10.311250       19.292784       17.906499
  C          -12.495740       21.439900       15.131670
  S           -4.694503      -13.783764       -0.835949
  S           -3.603818      -11.548354       -2.226488
  F           -2.518735      -15.357998       -1.070948
  F           -4.437565      -16.355369       -1.474677
  F           -3.560320      -15.000318       -2.973801
  F           -1.371563      -10.819875       -3.466013
  F           -1.082031      -11.292888       -1.317796
  F           -1.344003      -12.909600       -2.768500
  O           -5.927892      -13.720297       -1.609123
  O           -4.727991      -14.193759        0.562086
  O           -3.804040      -10.153099       -1.851961
  O           -4.145925      -12.040491       -3.487652
  N           -3.740012      -12.504411       -0.940743
  C           -3.745261      -15.185351       -1.640138
  C           -1.753389      -11.654761       -2.445838
  S           18.877810       -1.264529       -4.866374
  S           20.451981       -1.149742       -2.493810
  F           17.108968        0.631798       -4.129795
  F           16.223229       -1.164280       -5.040414
  F           16.951784       -1.224507       -2.962272
  F           20.540201        0.142245       -0.175825
  F           20.736798        1.470361       -1.942140
  F           18.780485        0.655583       -1.398165
  O           18.813858       -2.719015       -4.807623
  O           18.930367       -0.586237       -6.155125
  O           21.906800       -1.243577       -2.451480
  O           19.644481       -2.198120       -1.881062
  N           19.963151       -0.575922       -3.914200
  C           17.211290       -0.725704       -4.199587
  C           20.106342        0.364448       -1.458781
  S            6.510116       17.456859       -5.358587
  S            4.525268       17.544227       -3.315796
  F            7.381305       14.966125       -4.806605
  F            8.966362       16.447507       -5.170959
  F            7.880206       16.441030       -3.254369
  F            3.546079       16.026554       -1.369537
  F            3.305164       15.145050       -3.391249
  F            5.261053       15.116522       -2.411141
  O            7.024486       18.765797       -4.977564
  O            6.511748       17.049379       -6.757757
  O            3.202687       18.141441       -3.461433
  O            5.480681       18.128866       -2.381988
  N            5.087998       17.060896       -4.742491
  C            7.737651       16.264637       -4.594391
  C            4.142448       15.865659       -2.595114
  S            3.866142      -10.456252       -4.674685
  S            4.277156      -11.622474       -2.107343
  F            6.473295      -10.048449       -5.225914
  F            5.144167       -8.364493       -5.713115
  F            5.698460       -8.763804       -3.618741
  F            6.259788      -12.258839       -0.459836
  F            6.347301      -13.318021       -2.407369
  F            6.933727      -11.214096       -2.278779
  O            2.838535       -9.563682       -4.154668
  O            3.756954      -10.987914       -6.027139
  O            3.523435      -12.750565       -1.572168
  O            4.165551      -10.314969       -1.471270
  N            4.291383      -11.663127       -3.714788
  C            5.378863       -9.356963       -4.799045
  C            6.047970      -12.131630       -1.809849
  S           20.757077      -13.716380        5.570584
  S           20.302692      -10.903456        5.535323
  F           18.161845      -14.428797        5.413601
  F           19.349405      -15.555575        6.883201
  F           18.707766      -13.495579        7.327957
  F           18.292767       -9.172396        5.418269
  F           18.428874      -10.498230        3.644558
  F           17.634804      -11.272081        5.530701
  O           21.659331      -13.601953        6.708968
  O           21.000705      -14.719824        4.542253
  O           21.127443       -9.933120        4.824457
  O           20.247676      -10.871931        6.992235
  N           20.392000      -12.346038        4.830543
  C           19.155704      -14.313648        6.339417
  C           18.574447      -10.448010        4.997495
  S           26.368846        7.909544       17.933366
  S           24.933864        5.528294       17.308283
  F           26.258176        7.617371       20.611013
  F           25.830833        9.646873       19.877426
  F           24.312236        8.062062       19.689464
  F           23.739181        3.496974       18.531613
  F           25.910918        3.641177       18.961931
  F           24.511524        5.023557       19.919873
  O           25.555867        8.694708       17.013770
  O           27.778933        8.228066       18.117538
  O           25.251822        4.626349       16.207150
  O           23.674845        6.264048       17.296049
  N           26.248123        6.321153       17.787690
  C           25.645259        8.315851       19.613712
  C           24.776186        4.366379       18.760390
  S           21.488325        4.284207       15.035630
  S           18.715597        4.792663       15.452404
  F           22.202266        6.859109       14.678451
  F           23.083303        5.441280       13.245555
  F           20.974961        6.047642       13.044765
  F           17.015038        6.830026       15.537940
  F           18.610860        6.938616       17.075460
  F           19.065241        7.422905       14.990770
  O           21.196439        3.222347       14.081517
  O           22.646127        4.179863       15.914452
  O           17.877530        4.103864       16.427235
  O           18.448701        4.627030       14.028344
  N           20.253600        4.783398       15.921654
  C           21.944536        5.738919       13.945715
  C           18.343439        6.590849       15.786392
  S          -22.149957       21.660717        6.493443
  S          -22.398586       18.870425        7.015653
  F          -19.463083       21.673914        6.274479
  F          -20.308344       23.319825        7.464506
  F          -20.181338       21.292503        8.317105
  F          -20.876240       16.712615        7.292028
  F          -20.720157       17.660785        5.292273
  F          -19.722284       18.568869        7.014644
  O          -23.029199       21.993371        7.606703
  O          -22.161686       22.473680        5.284031
  O          -23.450142       18.011562        6.483038
  O          -22.323043       19.110203        8.452112
  N          -22.146610       20.125848        6.042948
  C          -20.435668       21.986919        7.176842
  C          -20.845770       17.911530        6.624752
  S            6.437400       12.473806       -4.147898
  S            7.871115       13.438188       -1.881915
  F            4.806577       10.823483       -2.775217
  F            5.662519        9.969771       -4.613203
  F            6.905085       10.168456       -2.804986
  F            7.951368       13.126506        0.753703
  F            6.009481       13.898422        0.008297
  F            6.516122       11.784935       -0.243537
  O            7.672502       12.221926       -4.878756
  O            5.243839       12.914219       -4.858650
  O            8.302231       14.818450       -1.691889
  O            8.869505       12.386877       -2.038685
  N            6.576887       13.375728       -2.834178
  C            5.934704       10.774242       -3.538798
  C            7.032611       13.041604       -0.262299
  S          -13.807917       15.698421       15.213823
  S          -11.208408       14.699504       14.609696
  F          -14.751132       13.413484       16.289378
  F          -16.128408       14.430079       14.907605
  F          -14.412261       13.295134       14.120313
  F           -9.793883       12.462064       14.817174
  F          -10.461572       13.276275       16.770033
  F          -11.885688       12.239660       15.472245
  O          -13.948699       16.267245       13.879772
  O          -14.395264       16.375070       16.363123
  O           -9.968115       15.450976       14.764799
  O          -11.647242       14.300929       13.277339
  N          -12.330393       15.243768       15.624911
  C          -14.812479       14.118829       15.124527
  C          -10.824911       13.088825       15.471187
  S          -13.850099       -9.560536       13.091454
  S          -12.489016       -7.386818       14.333490
  F          -16.193013       -8.272715       12.745517
  F          -16.364747      -10.329879       13.505936
  F          -15.724885       -8.705609       14.849595
  F          -12.929879       -4.879319       15.087251
  F          -13.157733       -5.204820       12.904469
  F          -14.719829       -5.878785       14.280171
  O          -13.401844      -10.488679       14.121354
  O          -13.999495      -10.012804       11.714190
  O          -11.095637       -7.028140       14.094869
  O          -12.895974       -7.857028       15.652543
  N          -13.104543       -8.145722       13.056414
  C          -15.619209       -9.183567       13.581729
  C          -13.374865       -5.756639       14.130235
  S          -11.619718        5.228776        5.515747
  S          -13.123392        7.587227        4.970838
  F          -13.649759        3.497719        5.128733
  F          -12.414001        3.101340        6.905088
  F          -13.881603        4.744155        6.924932
  F          -15.589856        8.315777        4.310658
  F          -14.616198        7.007893        2.806052
  F          -15.381975        6.151705        4.668163
  O          -11.064758        5.809142        6.731588
  O          -10.814936        4.325728        4.703004
  O          -12.626949        8.741829        4.230883
  O          -13.458116        7.726585        6.383336
  N          -12.346373        6.252170        4.524073
  C          -12.972743        4.097067        6.148823
  C          -14.758042        7.237450        4.140719
  S           23.854879       13.098354       17.072189
  S           21.813999       14.094328       18.793553
  F           23.629408       10.518629       17.821580
  F           25.692961       11.262264       17.653022
  F           24.454595       11.824401       19.386096
  F           20.091481       13.223468       20.616901
  F           19.788725       12.329502       18.609023
  F           21.444229       11.653203       19.869523
  O           24.778479       14.146475       17.486289
  O           23.876966       12.603680       15.701594
  O           20.850460       15.128834       18.435107
  O           22.794332       14.355002       19.841222
  N           22.324063       13.317168       17.481459
  C           24.425689       11.602090       18.045635
  C           20.730348       12.748379       19.498991
  S          -12.727841       16.789110        0.968060
  S          -15.003693       15.949935        2.463564
  F          -12.712076       14.695699       -0.730407
  F          -10.742114       15.260486        0.069541
  F          -12.174089       14.162999        1.333687
  F          -16.755709       13.956613        2.548265
  F          -16.788390       15.088746        0.640488
  F          -15.173409       13.668463        1.042433
  O          -11.969034       17.051080        2.184060
  O          -12.537141       17.628210       -0.208063
  O          -16.048615       16.836763        2.962332
  O          -14.148672       15.241286        3.408747
  N          -14.301867       16.579157        1.160778
  C          -12.067970       15.133610        0.388304
  C          -15.977265       14.600012        1.618940
  S          -14.642905       21.687600       -6.079051
  S          -14.565775       18.862004       -5.718070
  F          -11.976534       22.023115       -6.291894
  F          -13.000193       23.489839       -5.011075
  F          -12.636302       21.445313       -4.275824
  F          -12.803564       16.881948       -5.562974
  F          -12.767335       17.954499       -7.504811
  F          -11.872587       18.871711       -5.731374
  O          -15.549316       21.852458       -4.950196
  O          -14.754019       22.561552       -7.239905
  O          -15.513854       17.919428       -6.300987
  O          -14.511530       19.026420       -4.270092
  N          -14.464816       20.191627       -6.616759
  C          -12.974405       22.169772       -5.374889
  C          -12.914664       18.112531       -6.160388
  S           17.787573        4.467323        7.583284
  S           19.395674        6.228224        9.143248
  F           15.765184        6.204164        7.182373
  F           15.146330        4.161438        7.715236
  F           15.938396        5.514524        9.262777
  F           19.349831        8.701414       10.108284
  F           19.280514        8.610033        7.892600
  F           17.494684        8.134382        9.063709
  O           17.955584        3.387391        8.546919
  O           17.693134        4.169307        6.159911
  O           20.847695        6.332342        9.054434
  O           18.782677        5.735504       10.371285
  N           18.779329        5.711141        7.750955
  C           16.078092        5.133380        7.965738
  C           18.847383        8.009011        9.035108
  S           29.666619       -4.167629        7.287858
  S           30.884505       -2.477226        5.343754
  F           29.874560       -6.444579        5.859689
  F           27.931384       -6.137213        6.844192
  F           28.438359       -5.005132        5.023625
  F           31.954076       -2.615014        2.917420
  F           33.013713       -3.847460        4.427605
  F           31.101567       -4.525475        3.608505
  O           28.558465       -3.238722        7.467304
  O           30.164855       -4.939043        8.419407
  O           31.805541       -1.387113        5.644487
  O           29.583687       -2.179541        4.755646
  N           30.934684       -3.595117        6.498543
  C           28.947041       -5.499401        6.182951
  C           31.787548       -3.424539        4.013103
  S          -14.533799       -3.525141       -2.418423
  S          -13.715662       -3.262381       -5.135380
  F          -12.591757       -5.250926       -1.699017
  F          -14.604535       -5.757578       -0.969851
  F          -14.072161       -6.111368       -3.078050
  F          -11.846805       -4.167668       -6.790039
  F          -11.033457       -3.036588       -5.063327
  F          -11.760488       -5.081604       -4.787165
  O          -15.920612       -3.741257       -2.809726
  O          -14.224265       -2.805882       -1.189369
  O          -13.728550       -2.017275       -5.894749
  O          -14.596883       -4.355463       -5.529380
  N          -13.566542       -2.964146       -3.562309
  C          -13.912159       -5.251647       -2.037677
  C          -11.996700       -3.918494       -5.448761
  S           13.616656        4.653793       12.939265
  S           16.048594        3.195693       12.656649
  F           14.663841        7.072205       12.371730
  F           13.292902        7.031620       14.091768
  F           15.340768        6.244943       14.292951
  F           18.608618        3.607601       12.085095
  F           17.228122        4.180201       10.445348
  F           17.428434        5.464184       12.205516
  O           13.321795        4.003741       14.209526
  O           12.533823        5.010559       12.031569
  O           16.165342        1.876851       12.044994
  O           16.337235        3.359141       14.076714
  N           14.776756        3.982670       12.066030
  C           14.278848        6.331212       13.449163
  C           17.389626        4.168718       11.797360
  S           23.512102       19.347760        1.291477
  S           25.594979       21.186877        0.659395
  F           25.118872       17.220788        1.693577
  F           23.313309       16.812188        0.505031
  F           25.018908       17.868509       -0.405030
  F           28.237970       21.255951        0.414673
  F           27.547488       20.710454        2.451356
  F           27.449501       19.241573        0.832802
  O           22.732347       19.762886        0.132715
  O           22.839473       18.957931        2.524085
  O           25.638230       22.579753        1.089651
  O           25.469701       20.874936       -0.759622
  N           24.731862       20.303260        1.688951
  C           24.295500       17.737713        0.738067
  C           27.290672       20.559558        1.122662
  S           16.589302       11.205799       12.630159
  S           13.811188       10.924148       12.061825
  F           17.411926        9.178494       11.055126
  F           18.351457        9.253471       13.042917
  F           16.285167        8.521335       12.824939
  F           12.176557        9.404834       10.623169
  F           13.654841       10.522985        9.403815
  F           14.280414        8.756781       10.533466
  O           16.335476       11.272677       14.063398
  O           17.673650       11.982018       12.042456
  O           12.880058       12.031416       11.877301
  O           13.646944       10.026963       13.199672
  N           15.308387       11.375553       11.687175
  C           17.173573        9.444110       12.370720
  C           13.473958        9.849649       10.573453
  S           18.897126       -7.556402       19.375919
  S           21.670532       -7.473966       18.726556
  F           18.382532       -4.981272       18.766571
  F           17.487872       -5.689699       20.647360
  F           19.640752       -5.232436       20.551923
  F           23.499344       -5.763728       17.843041
  F           21.831232       -6.096388       16.418559
  F           21.528443       -4.839804       18.183848
  O           19.168417       -8.211309       20.648936
  O           17.687557       -7.879803       18.630214
  O           22.403554       -8.542259       18.056836
  O           22.004673       -7.123775       20.102176
  N           20.111682       -7.525983       18.335387
  C           18.603419       -5.769046       19.856879
  C           22.145856       -5.964658       17.736820
  S           29.351629       16.173094        2.176598
  S           30.710548       15.480690       -0.230510
  F           27.628050       14.100573        2.140049
  F           26.732560       16.047597        2.636888
  F           27.267517       15.577806        0.552131
  F           30.659644       13.625844       -2.129726
  F           31.084767       12.816981       -0.107989
  F           29.046702       13.403899       -0.645343
  O           29.204796       17.558125        1.748575
  O           29.555838       15.860679        3.585291
  O           32.148578       15.600967       -0.441928
  O           29.796319       16.307042       -1.010215
  N           30.382541       15.288488        1.331926
  C           27.663309       15.430699        1.843953
  C           30.355133       13.737934       -0.796199
  S           -9.437120       18.184938       -4.674983
  S           -9.506094       20.757215       -3.450694
  F           -9.589103       16.772042       -2.384125
  F           -8.104783       16.039398       -3.833153
  F           -7.685154       17.841739       -2.637923
  F           -9.646154       21.854192       -1.036758
  F          -11.403952       20.600329       -1.547035
  F           -9.509869       19.655613       -0.993055
  O           -8.298982       18.560093       -5.503822
  O          -10.453245       17.278808       -5.194732
  O          -10.227255       21.911979       -3.973709
  O           -8.049727       20.787987       -3.382410
  N          -10.193722       19.389862       -3.943895
  C           -8.663405       17.171239       -3.301664
  C          -10.051510       20.704127       -1.666535
  S           31.095087        8.496103       12.707453
  S           30.404596       10.880369       14.107006
  F           31.348868        6.941724       14.895354
  F           32.941091        6.705675       13.395767
  F           32.916689        8.472078       14.711942
  F           30.040239       11.743583       16.591392
  F           28.645199       10.123113       15.999487
  F           30.726658        9.652840       16.482502
  O           32.085550        9.200770       11.904022
  O           30.329906        7.399271       12.128508
  O           29.405729       11.847620       13.666794
  O           31.807322       11.273413       14.173994
  N           30.073935        9.419537       13.521884
  C           32.125983        7.621827       14.005576
  C           29.925291       10.572868       15.884429
  S          -10.659077        8.314625       18.034223
  S          -13.268562        7.281208       17.541386
  F          -11.425036       10.875914       18.381371
  F           -9.637942       10.600212       17.128401
  F          -11.636965       10.162887       16.312467
  F          -15.783737        8.114558       17.369665
  F          -14.867007        8.458445       19.360584
  F          -14.338426        9.749221       17.674929
  O          -10.115383        7.618468       16.875415
  O           -9.844675        8.491416       19.229722
  O          -13.767649        6.002979       18.035487
  O          -13.101528        7.483273       16.106854
  N          -12.114797        7.849370       18.506659
  C          -10.866974       10.076080       17.429013
  C          -14.627836        8.467261       18.020109
  S           26.636554        5.520324        6.637039
  S           23.838057        5.033396        6.409954
  F           27.396901        3.680613        4.819144
  F           28.585953        3.707617        6.669842
  F           26.573018        2.812548        6.663423
  F           22.149470        3.473721        5.080987
  F           23.358301        4.794871        3.771140
  F           24.266568        3.020351        4.672840
  O           26.572960        5.470687        8.091881
  O           27.567878        6.425637        5.976157
  O           22.806555        6.064235        6.431606
  O           23.898991        4.052708        7.487521
  N           25.231310        5.638192        5.881938
  C           27.317197        3.837577        6.170870
  C           23.389492        4.033141        4.899390
  S          -19.924216        8.810567       15.624578
  S          -19.974459       11.232761       14.124343
  F          -17.574679        9.285167       16.858205
  F          -17.820267        7.243403       16.076835
  F          -17.379612        8.906742       14.701256
  F          -18.508969       13.412935       13.738022
  F          -19.188172       13.158058       15.834717
  F          -17.548268       11.934708       15.059436
  O          -20.252771        8.020388       14.445281
  O          -20.427738        8.414862       16.933625
  O          -21.165327       12.037821       13.877751
  O          -19.302058       10.580292       13.006857
  N          -20.132788       10.390364       15.484870
  C          -18.076436        8.563314       15.816419
  C          -18.741779       12.495622       14.731964
  S           27.986396       -5.820617       16.406948
  S           26.537759       -7.982838       15.246561
  F           25.862858       -4.652581       17.587493
  F           27.228494       -3.272777       16.552682
  F           25.835114       -4.524325       15.392848
  F           24.055302       -8.911736       15.089645
  F           24.843929       -8.827585       17.161695
  F           24.205754       -6.990980       16.158427
  O           28.665765       -5.541160       15.148601
  O           28.682093       -5.626100       17.672606
  O           27.015365       -9.358306       15.162448
  O           26.330428       -7.216326       14.023414
  N           27.219629       -7.222122       16.488373
  C           26.647832       -4.511102       16.482073
  C           24.825616       -8.184063       15.961821
  S          -19.277708       -5.273055        8.048985
  S          -17.616433       -7.565759        8.371359
  F          -17.651609       -3.555589        9.342629
  F          -19.783490       -3.387347        9.858799
  F          -18.581895       -5.052130       10.657398
  F          -15.292720       -8.253415        9.456510
  F          -15.111117       -6.719389        7.863968
  F          -15.854363       -6.158477        9.843840
  O          -20.455027       -6.007758        8.493063
  O          -19.401403       -4.242988        7.025568
  O          -17.399723       -8.589557        7.355500
  O          -18.300839       -7.914554        9.610932
  N          -17.997676       -6.161463        7.687005
  C          -18.787109       -4.277952        9.559385
  C          -15.879307       -7.141446        8.906034
  S          -22.265238        3.092256       13.739324
  S          -21.330991        2.982739       11.049447
  F          -23.946097        5.168261       13.375556
  F          -22.716313        5.274021       15.196573
  F          -21.821621        5.715834       13.232541
  F          -21.669987        4.229214        8.729652
  F          -23.520235        3.287119        9.511604
  F          -22.785927        5.151286       10.390585
  O          -20.906326        3.030743       14.261480
  O          -23.356557        2.453071       14.463332
  O          -21.067180        1.755858       10.306304
  O          -20.228016        3.880227       11.372829
  N          -22.433898        2.726525       12.191236
  C          -22.705259        4.908774       13.876696
  C          -22.391604        3.961495        9.865953
  S          -23.752420       -9.904683        4.647408
  S          -23.304427       -7.210218        5.459449
  F          -21.318361      -10.825441        5.350945
  F          -22.041406      -11.509816        3.389188
  F          -21.281988       -9.456094        3.631279
  F          -21.399318       -5.701895        6.529771
  F          -22.051481       -7.371404        7.837377
  F          -20.754085       -7.768485        6.120979
  O          -24.287512       -9.475853        3.361774
  O          -24.290173      -11.088695        5.305176
  O          -24.291020       -6.361292        6.117516
  O          -22.831781       -6.863275        4.124215
  N          -23.604797       -8.761712        5.756734
  C          -22.002401      -10.435830        4.238091
  C          -21.800713       -7.014202        6.547541
  S            3.084872      -12.188229       10.783515
  S            2.385475      -14.905922       10.288300
  F            0.725361      -11.138615       10.009935
  F            2.504182      -10.077450        9.268737
  F            1.898693      -11.989101        8.356560
  F            0.339869      -16.346900        9.399962
  F           -0.117736      -15.192077       11.238273
  F           -0.012455      -14.174118        9.304467
  O            4.351528      -12.338682       10.079229
  O            2.992331      -11.309600       11.942466
  O            2.759313      -16.032272       11.136048
  O            2.915037      -14.818059        8.932403
  N            2.324028      -13.547619       11.146770
  C            1.990416      -11.318675        9.535208
  C            0.551260      -15.158305       10.052754
  S           28.557974        5.002355       10.485301
  S           26.178991        6.474437       11.027209
  F           27.496854        3.438812        8.562604
  F           28.760734        2.388148       10.024919
  F           26.721375        3.013494       10.575418
  F           23.650569        6.613337       10.228551
  F           25.116304        7.041585        8.619007
  F           24.781949        4.981143        9.274532
  O           28.788289        4.765060       11.904357
  O           29.686491        5.190410        9.582635
  O           26.127535        7.904855       11.307122
  O           25.800791        5.523218       12.065843
  N           27.467719        6.118809       10.133654
  C           27.830800        3.383486        9.883047
  C           24.872806        6.264859        9.710592
  S          -17.018765       20.169091       -2.828723
  S          -16.288449       17.478548       -2.238924
  F          -14.505181       21.080129       -3.174143
  F          -15.812502       22.385053       -1.979262
  F          -14.974904       20.550534       -1.092659
  F          -14.116331       15.971758       -1.990823
  F          -14.365418       16.846407       -4.014521
  F          -13.670097       18.097545       -2.359796
  O          -17.916365       20.224425       -1.682283
  O          -17.350270       20.887601       -4.052475
  O          -17.006355       16.297244       -2.703926
  O          -16.244800       17.779870       -0.812770
  N          -16.512925       18.710532       -3.247664
  C          -15.491790       21.078112       -2.233530
  C          -14.518507       17.086558       -2.682964
  S           19.858914       14.066474       -4.546238
  S           21.251023       12.205752       -2.896996
  F           19.660926       16.007478       -2.685939
  F           17.825681       15.632994       -3.839755
  F           18.434282       14.236067       -2.248751
  F           22.197158       11.994624       -0.425090
  F           23.108551       13.649954       -1.587696
  F           21.086083       13.863617       -0.780912
  O           18.914561       13.044903       -4.979439
  O           20.273256       15.117129       -5.467197
  O           22.339507       11.344398       -3.344617
  O           19.991053       11.610036       -2.467797
  N           21.170391       13.532267       -3.802308
  C           18.902689       15.025618       -3.250899
  C           21.947947       12.979355       -1.348010
  S           -3.772018       -3.416265       13.399898
  S           -5.529527       -4.515085       15.355405
  F           -1.879556       -2.602778       15.138931
  F           -2.393141       -1.145601       13.572879
  F           -3.754282       -1.462449       15.275817
  F           -5.692244       -4.840405       17.985568
  F           -3.950339       -5.864184       17.069025
  F           -3.919732       -3.694973       17.352780
  O           -4.864224       -2.697941       12.756337
  O           -2.677923       -3.952476       12.600428
  O           -6.289427       -5.749647       15.195702
  O           -6.235624       -3.244018       15.466889
  N           -4.202797       -4.545894       14.447347
  C           -2.914665       -2.093108       14.413026
  C           -4.720106       -4.741962       17.021804
  S           -6.135413       21.565314       -1.338395
  S           -5.399343       20.183107       -3.719142
  F           -3.672904       21.579992       -0.241472
  F           -5.303802       21.055393        1.138608
  F           -4.586927       19.582596       -0.334502
  F           -3.257936       19.109270       -4.864268
  F           -3.076047       21.291707       -4.508887
  F           -2.870111       19.890651       -2.841085
  O           -7.279947       20.688197       -1.129159
  O           -6.212605       22.970899       -0.961444
  O           -5.912391       20.482457       -5.051158
  O           -5.712416       18.901406       -3.097980
  N           -5.455393       21.490285       -2.784328
  C           -4.851600       20.902114       -0.144990
  C           -3.553775       20.126279       -3.991482
  S           13.715230       -7.364888        0.310995
  S           13.826102       -4.653387        1.180317
  F           12.286478       -8.280201        2.405816
  F           13.984788       -9.546516        1.812654
  F           14.335845       -7.679892        2.928703
  F           13.009395       -3.132682        3.197868
  F           11.350106       -4.077879        2.068367
  F           12.540438       -5.268730        3.465477
  O           15.146223       -7.382888        0.037117
  O           12.800117       -8.126460       -0.529419
  O           13.705800       -3.491023        0.307659
  O           15.082904       -4.904810        1.875908
  N           13.068430       -5.920340        0.542745
  C           13.573470       -8.248297        1.957726
  C           12.610909       -4.272020        2.544644
  S          -19.573248      -11.199122       12.738897
  S          -17.631697      -12.122974       10.868837
  F          -20.506923       -9.183322       11.211740
  F          -20.165817       -8.670480       13.323680
  F          -18.459010       -8.861708       11.944066
  F          -16.711781      -11.547878        8.445392
  F          -18.862783      -12.090799        8.474304
  F          -18.222828      -10.117876        9.170697
  O          -18.601937      -11.217214       13.824853
  O          -20.969025      -11.526310       13.000575
  O          -17.321690      -13.524493       10.610502
  O          -16.617692      -11.258350       11.461147
  N          -19.139992      -11.966486       11.403899
  C          -19.669611       -9.387766       12.267800
  C          -17.882277      -11.433184        9.152760
  S           29.825264      -13.855486       17.782923
  S           29.979050      -11.011193       17.701705
  F           30.804498      -14.267198       15.305223
  F           29.043458      -15.479464       15.823685
  F           28.807996      -13.346716       15.324651
  F           30.713691       -9.063468       16.053453
  F           32.363552      -10.448471       16.584615
  F           30.833965      -11.068624       15.148403
  O           28.458319      -13.812310       18.285587
  O           30.731474      -14.910611       18.217911
  O           30.382845      -10.164447       18.818427
  O           28.614844      -10.930059       17.192811
  N           30.631234      -12.474800       17.836768
  C           29.610001      -14.240247       15.961427
  C           31.034061      -10.375088       16.299619
  S           -4.023057        5.879192       -1.648122
  S           -5.246738        6.528196        0.842189
  F           -4.312224        3.208393       -1.423128
  F           -2.341417        3.874523       -2.138562
  F           -2.863946        4.062832       -0.006756
  F           -6.372709        5.327423        2.925552
  F           -7.425116        4.954204        1.008378
  F           -5.546864        3.920453        1.444793
  O           -2.891222        6.754114       -1.371474
  O           -4.512709        5.725930       -3.012114
  O           -6.136905        7.661804        1.064971
  O           -3.953136        6.485319        1.514027
  N           -5.295579        6.064400       -0.696720
  C           -3.357385        4.168898       -1.268645
  C           -6.199545        5.104249        1.582499
  S           10.096277        4.141091       13.425504
  S            8.688848        2.980591       15.614713
  F            9.828065        2.035998       11.762960
  F           11.835777        2.933976       11.811765
  F           11.159548        1.650246       13.469428
  F            7.433118        0.731403       16.258421
  F            6.525748        1.794609       14.535434
  F            8.381832        0.666806       14.270960
  O           11.193426        4.553703       14.291004
  O            9.707601        4.970097       12.291750
  O            7.769705        3.697764       16.491031
  O            9.931528        2.444679       16.157996
  N            8.756546        3.682607       14.169609
  C           10.756266        2.601017       12.585973
  C            7.704948        1.469299       15.133609
  S           15.720232       -3.335352       14.050868
  S           18.486098       -3.009102       14.654024
  F           16.086149       -4.643165       11.722105
  F           14.551036       -3.068115       11.674167
  F           16.687028       -2.529455       11.652406
  F           20.868773       -3.581019       13.631361
  F           19.636232       -5.372792       14.070451
  F           19.193223       -4.143212       12.315798
  O           15.445953       -1.933356       14.337660
  O           14.725156       -4.353678       14.361605
  O           19.071183       -3.133966       15.984129
  O           18.503698       -1.717191       13.977808
  N           17.140353       -3.882330       14.543667
  C           15.781426       -3.395454       12.178738
  C           19.594730       -4.090977       13.612869
  S            7.481573        9.689711       16.370534
  S            7.088140       10.620367       13.706075
  F            5.155666       10.635576       17.351810
  F            6.914632       10.985561       18.625859
  F            6.596410       12.209515       16.822040
  F            5.302837       11.956220       12.264458
  F            4.519863       10.064215       13.118670
  F            4.778195       11.818822       14.399899
  O            8.834801       10.228700       16.407106
  O            7.168556        8.450928       17.071361
  O            7.448947        9.881442       12.501541
  O            7.773959       11.869060       14.017575
  N            6.801946        9.610919       14.924616
  C            6.481086       10.953077       17.327173
  C            5.326806       11.133529       13.362725
  S           -9.276052      -12.131864       -5.237057
  S           -7.978367      -12.444036       -2.719357
  F          -11.693996      -13.003847       -4.424284
  F          -11.021615      -13.796922       -6.362992
  F          -10.162929      -14.580231       -4.491582
  F           -8.510444      -13.252938       -0.246982
  F           -9.716496      -11.505138       -0.889664
  F          -10.203720      -13.503987       -1.634074
  O           -8.189332      -12.809364       -5.932117
  O           -9.989046      -11.038247       -5.884638
  O           -7.001148      -11.515461       -2.162680
  O           -7.565372      -13.796602       -3.075184
  N           -8.968306      -11.683292       -3.732778
  C          -10.601515      -13.450313       -5.106417
  C           -9.172690      -12.682378       -1.305034
  S           29.779163        6.211610       18.271962
  S           32.258894        4.817595       18.104907
  F           28.350703        4.429956       16.839265
  F           27.985627        6.539262       16.332114
  F           29.826723        5.541596       15.647919
  F           33.276415        2.602652       17.051938
  F           31.660232        2.226089       18.524542
  F           31.165929        2.937951       16.515601
  O           30.409441        7.469977       17.894690
  O           28.670096        6.203680       19.217282
  O           33.223827        4.696656       19.191817
  O           32.619000        5.557734       16.901109
  N           30.775043        5.030539       18.686779
  C           28.956856        5.641426       16.687371
  C           32.069334        3.054064       17.523920
  S            2.825347      -13.273006        2.869839
  S            0.492977      -12.194052        1.638515
  F            2.448263      -15.806551        2.029384
  F            3.041375      -15.603665        4.138106
  F            0.977119      -15.142563        3.522213
  F           -1.565512      -12.974607        0.154123
  F            0.402908      -13.287585       -0.820442
  F           -0.254510      -14.633034        0.774707
  O            2.514976      -12.619432        4.134586
  O            4.211884      -13.437208        2.452377
  O            0.420053      -10.892562        0.984374
  O           -0.284595      -12.436792        2.848091
  N            1.996500      -12.762993        1.600320
  C            2.279644      -15.044358        3.146873
  C           -0.259087      -13.336389        0.368480
  S           19.939624       -6.396824        7.996470
  S           18.803033       -3.821479        8.439200
  F           17.611864       -7.754662        8.068710
  F           19.263908       -8.678645        9.189719
  F           18.212940       -6.927180       10.014903
  F           16.435450       -2.688252        8.839717
  F           16.605898       -3.724966        6.885597
  F           16.345447       -4.886461        8.721360
  O           20.957888       -6.172179        9.014187
  O           20.253933       -7.178626        6.807472
  O           19.234951       -2.593667        7.781158
  O           18.979247       -3.967114        9.879461
  N           19.131277       -5.100669        7.521777
  C           18.682927       -7.481350        8.866380
  C           16.952184       -3.787627        8.201011
  S           20.867161       -6.606736       -4.088658
  S           22.000871       -8.856059       -2.756179
  F           22.611877       -4.791927       -3.124377
  F           20.503586       -4.164373       -3.093764
  F           21.249239       -5.603534       -1.601816
  F           23.988884       -9.443942       -1.097183
  F           24.666327       -8.589344       -3.029317
  F           23.795114       -7.286964       -1.502318
  O           19.523228       -6.974719       -3.662624
  O           21.077155       -5.983234       -5.388992
  O           22.146250      -10.185488       -3.338056
  O           21.107760       -8.660855       -1.620019
  N           21.988413       -7.733049       -3.907017
  C           21.340391       -5.232127       -2.905979
  C           23.703167       -8.518341       -2.069404
  S            5.916479        6.963282       13.419572
  S            6.749649        5.571720       11.076575
  F            5.197325        4.771757       14.815080
  F            3.777815        6.449194       14.919229
  F            3.882585        5.202058       13.106284
  F            6.928314        3.092598       10.142713
  F            8.153286        3.449532       11.957775
  F            5.984930        3.213985       12.130054
  O            5.132526        7.907847       12.634531
  O            6.590691        7.404022       14.634030
  O            7.914734        5.917036       10.270084
  O            5.414596        5.693852       10.502702
  N            6.948203        6.060216       12.595681
  C            4.630231        5.774480       14.086312
  C            6.968175        3.738839       11.352824
  S           15.382662       18.738017       -0.499515
  S           12.757134       19.714487       -1.022353
  F           14.707410       16.129564       -0.413403
  F           16.068422       16.792178        1.182919
  F           13.926934       17.300613        1.275735
  F           10.284366       18.809362       -1.363283
  F           11.724000       18.053413       -2.872721
  F           11.731263       17.230573       -0.845454
  O           15.585078       19.718025        0.559582
  O           16.500584       18.327341       -1.339346
  O           12.439074       20.809614       -1.931545
  O           12.506137       19.868168        0.405932
  N           14.128815       18.997450       -1.458338
  C           14.983921       17.161906        0.432744
  C           11.571901       18.376143       -1.558619
  S           18.727816      -14.739841       13.791196
  S           16.427849      -14.149576       12.215764
  F           20.499572      -14.640556       11.761804
  F           20.755912      -16.336455       13.139436
  F           19.128535      -16.355921       11.654728
  F           15.769999      -13.637870        9.694761
  F           17.174911      -12.157649       10.565151
  F           17.900703      -14.131269        9.961014
  O           18.056340      -15.862996       14.432069
  O           19.680377      -13.932069       14.542098
  O           15.325587      -13.291835       12.635756
  O           16.189574      -15.570702       11.991622
  N           17.785044      -13.738741       12.974032
  C           19.822278      -15.557995       12.508619
  C           16.850662      -13.479569       10.525840
  S          -11.183326        0.296477        2.912860
  S          -13.752364        1.526308        2.824509
  F          -11.604590       -1.397229        0.858278
  F          -10.628589       -2.290273        2.615989
  F          -12.790432       -1.867840        2.648805
  F          -16.021079        1.393782        1.451397
  F          -14.263650        1.944112        0.214064
  F          -14.545388       -0.129152        0.853698
  O          -11.274057        0.106247        4.354613
  O           -9.896406        0.584569        2.292730
  O          -14.005016        2.948216        3.028077
  O          -14.273159        0.557873        3.782382
  N          -12.260779        1.290126        2.272129
  C          -11.589151       -1.397430        2.221331
  C          -14.683415        1.163820        1.248035
  S           14.111620        9.033404       19.863602
  S           16.098245       10.615219       18.570763
  F           13.187710        7.847110       17.626081
  F           11.634479        8.554635       19.014078
  F           12.720595        9.992109       17.746359
  F           17.045255       11.095032       16.137038
  F           17.266990        8.982262       16.776917
  F           15.311112        9.736056       16.149807
  O           13.625297       10.180532       20.619024
  O           14.101063        7.705170       20.463105
  O           17.433212       10.874008       19.098007
  O           15.155660       11.718172       18.423648
  N           15.525098        9.224626       19.139520
  C           12.859123        8.856941       18.480729
  C           16.445377       10.067246       16.820692
  S           28.544924       14.718183        7.993973
  S           28.846604       12.534342        6.188405
  F           30.438237       16.278524        6.876787
  F           30.482450       16.189797        9.074474
  F           31.242439       14.498171        7.885394
  F           30.296542       11.828988        4.078850
  F           29.063550       13.642849        3.744117
  F           30.890594       13.767404        4.941332
  O           28.584359       13.828720        9.147393
  O           27.705874       15.909470        8.017426
  O           27.749718       11.737321        5.651103
  O           29.824807       11.910492        7.071888
  N           28.337425       14.009861        6.574818
  C           30.270877       15.446731        7.943681
  C           29.821103       12.977986        4.659662
  S           10.506726       14.170345        5.917262
  S           10.567731       15.766659        3.557535
  F            9.781950       16.156762        7.589462
  F           11.382738       14.846752        8.338464
  F           11.824875       16.364230        6.803906
  F           10.162755       18.276923        2.792920
  F            8.368832       17.316180        3.676787
  F           10.000044       17.987763        4.971026
  O           11.808868       13.591319        5.613569
  O            9.484308       13.366605        6.574821
  O           10.104204       15.333765        2.244203
  O           11.982333       16.055300        3.762964
  N            9.801088       14.963920        4.720979
  C           10.894926       15.463370        7.217114
  C            9.723578       17.417792        3.768933
  S           25.493483      -10.854002       12.250317
  S           23.071072      -12.252817       12.793908
  F           27.112398      -13.002072       12.430085
  F           27.848476      -11.193970       13.444290
  F           26.237764      -12.391390       14.352523
  F           22.223245      -14.708748       13.341320
  F           23.216254      -14.530629       11.365310
  F           24.415973      -14.551519       13.194836
  O           25.161228       -9.812566       13.213693
  O           26.223274      -10.519374       11.034114
  O           21.795833      -12.003026       12.131740
  O           23.207796      -11.979975       14.219908
  N           24.295623      -11.831752       11.840540
  C           26.723782      -11.926301       13.171602
  C           23.249782      -14.105725       12.658556
  S          -15.556696      -12.549583       17.703414
  S          -14.665699      -13.378233       15.126650
  F          -15.665226      -15.019535       18.778108
  F          -17.391919      -13.732297       19.226663
  F          -17.191815      -14.658218       17.237764
  F          -14.052661      -15.599308       13.807151
  F          -12.770277      -15.236052       15.580833
  F          -14.814664      -15.970796       15.840764
  O          -16.591160      -11.703171       17.123289
  O          -14.882877      -12.144152       18.930327
  O          -13.678770      -12.672438       14.317380
  O          -16.043106      -13.477667       14.658166
  N          -14.436988      -13.075427       16.689255
  C          -16.495831      -14.076553       18.249874
  C          -14.039992      -15.136429       15.099114
  S           18.189790       13.167572        9.339758
  S           15.435939       13.465480        8.670576
  F           18.211700       15.019810       11.298365
  F           19.922145       15.104663        9.917484
  F           17.953678       15.865363        9.285370
  F           13.312659       14.886442        9.393499
  F           14.134279       13.623870       11.022382
  F           15.157369       15.470332       10.447231
  O           18.584510       13.239426        7.939006
  O           18.924844       12.313474       10.263843
  O           14.536449       12.369702        8.328109
  O           15.766332       14.467523        7.663916
  N           16.629678       12.943951        9.613299
  C           18.572746       14.882606        9.991089
  C           14.467383       14.406435        9.958997
  S           24.709501       -8.233260       11.268083
  S           21.946470       -8.479757       11.920118
  F           24.728980       -5.542062       11.111629
  F           25.800363       -6.576599        9.492517
  F           23.598309       -6.513008        9.495297
  F           19.809620       -6.954406       12.316652
  F           21.461012       -6.560140       13.744892
  F           21.591393       -5.819953       11.690128
  O           24.604509       -9.259120       10.238684
  O           25.931564       -8.105873       12.051699
  O           21.396374       -9.430753       12.879334
  O           21.601447       -8.599611       10.508308
  N           23.474826       -8.133018       12.280164
  C           24.691349       -6.632220       10.294139
  C           21.172725       -6.865946       12.449698
  S           25.698980        1.649678        2.772739
  S           26.990242       -0.059595        0.893569
  F           27.613277        1.495223        4.664568
  F           25.551102        1.318129        5.410039
  F           26.501657       -0.379708        4.377136
  F           29.210364       -1.494633        0.644994
  F           29.580111        0.677133        0.907912
  F           28.995796       -0.548831        2.623289
  O           24.435599        0.940465        2.617947
  O           25.706197        3.087218        3.011794
  O           27.012342        0.151215       -0.549402
  O           26.298612       -1.220729        1.441320
  N           26.812325        1.338940        1.666989
  C           26.386034        0.974440        4.380296
  C           28.788157       -0.361227        1.293620
  S           -2.415387       -8.696040        0.769432
  S           -4.486303      -10.610287        1.178355
  F           -0.820992       -9.567565        2.760852
  F           -1.048460       -7.382848        2.638703
  F           -2.674920       -8.618078        3.464492
  F           -5.082697      -12.647275        2.773679
  F           -3.230255      -12.955793        1.592289
  F           -3.212939      -11.620839        3.325646
  O           -3.376152       -7.602159        0.710880
  O           -1.213548       -8.658710       -0.053921
  O           -5.228811      -11.277370        0.114975
  O           -5.181344       -9.698410        2.079472
  N           -3.029381      -10.169086        0.660228
  C           -1.715183       -8.571443        2.503334
  C           -3.964407      -12.031001        2.270472
  S           24.234774        4.697623       -2.115207
  S           23.074653        4.105969        0.419416
  F           23.630796        2.335861       -3.266162
  F           25.672509        3.061621       -3.646075
  F           25.157407        2.186515       -1.691094
  F           21.796984        2.135066        1.657629
  F           20.724536        2.909143       -0.123683
  F           22.463961        1.605897       -0.374453
  O           25.459435        5.182408       -1.492099
  O           23.742285        5.316686       -3.339108
  O           22.322457        5.052594        1.235012
  O           24.348317        3.588890        0.906265
  N           22.984783        4.503180       -1.136180
  C           24.690849        2.974839       -2.695068
  C           21.954238        2.613749        0.381025
  S           -0.628293       -6.773447       13.982706
  S           -0.585022       -5.558117       16.559788
  F            2.042282       -7.064198       13.757100
  F            1.033043       -6.304070       11.956185
  F            1.371371       -4.972001       13.677876
  F            1.153557       -4.789823       18.413739
  F            1.206598       -6.967560       17.992955
  F            2.108118       -5.558418       16.582808
  O           -1.535191       -5.755661       13.468194
  O           -0.726624       -8.147875       13.508365
  O           -1.542781       -5.827283       17.626250
  O           -0.532038       -4.231163       15.957294
  N           -0.466538       -6.822503       15.573369
  C            1.044184       -6.242838       13.324296
  C            1.058175       -5.738289       17.426370
  S           17.368471       -5.581475        3.378722
  S           18.017544       -2.978301        4.339158
  F           14.768558       -5.509493        4.087720
  F           15.810760       -7.388406        4.560111
  F           16.148509       -5.597027        5.797035
  F           16.865130       -0.913746        5.547306
  F           15.978456       -1.396112        3.571568
  F           15.526675       -2.647454        5.308510
  O           18.532087       -6.163046        4.035111
  O           16.911114       -6.108276        2.099259
  O           18.906448       -2.037664        3.666740
  O           18.397561       -3.527426        5.635561
  N           17.351331       -3.985184        3.277046
  C           15.952374       -6.026735        4.522681
  C           16.512522       -1.935784        4.701913
  S           -9.285354      -13.455075       17.490151
  S           -8.262092      -11.739554       15.457868
  F           -7.394469      -12.886258       19.325473
  F           -7.886267      -15.021229       19.126261
  F           -6.640521      -14.028245       17.604685
  F           -6.254340      -10.051464       15.046343
  F           -7.591592       -9.453422       16.712629
  F           -6.151574      -11.076426       16.993937
  O           -9.417783      -14.562121       16.552076
  O          -10.252128      -13.290211       18.568060
  O           -9.077346      -10.925623       14.563457
  O           -7.461128      -12.828665       14.911144
  N           -9.039523      -12.015168       16.838220
  C           -7.711427      -13.858475       18.424095
  C           -7.005017      -10.516839       16.096816
  S           25.224428       -1.917207       -4.211498
  S           23.778509       -3.843161       -5.734742
  F           26.132153       -3.644489       -2.351407
  F           25.363657       -1.741647       -1.558776
  F           23.963776       -3.295821       -2.250130
  F           23.225720       -6.440160       -5.725392
  F           25.391808       -5.992711       -5.899352
  F           24.383181       -5.784798       -3.968970
  O           24.090285       -1.002453       -4.207335
  O           26.584399       -1.395799       -4.259792
  O           23.707880       -3.873891       -7.191163
  O           22.570836       -3.581237       -4.960446
  N           25.136213       -3.131487       -5.249055
  C           25.158804       -2.703717       -2.511698
  C           24.229445       -5.602990       -5.306745
  S           20.436609      -10.859742        1.641659
  S           20.871967      -13.675761        1.669108
  F           17.743771      -10.985306        1.625386
  F           18.616379       -9.528469        0.226875
  F           18.672084      -11.680129       -0.242538
  F           19.491806      -15.944069        1.669505
  F           19.098417      -14.663520        3.438077
  F           18.226075      -14.148798        1.498745
  O           21.400720      -10.675649        0.564777
  O           20.292337       -9.843190        2.675839
  O           21.909020      -14.353018        2.439133
  O           20.922354      -13.704299        0.211967
  N           20.466240      -12.285101        2.367093
  C           18.781487      -10.776309        0.766539
  C           19.338305      -14.649232        2.097778
  S           29.451074       -0.819959       -2.461365
  S           30.822850       -3.310339       -2.270339
  F           31.655768        0.729420       -2.382888
  F           29.988625        1.417916       -1.123420
  F           31.224095       -0.290030       -0.483397
  F           33.295044       -4.256187       -2.061310
  F           32.940761       -3.096587       -3.919326
  F           33.191998       -2.055935       -2.011223
  O           28.507127       -1.208670       -1.421683
  O           29.013100        0.016969       -3.571073
  O           30.464818       -4.519366       -3.003252
  O           30.706298       -3.288068       -0.816883
  N           30.342170       -2.000720       -3.070077
  C           30.652537        0.304011       -1.563921
  C           32.655840       -3.162526       -2.589429
  S          -12.323703       -0.048393       -4.498794
  S          -12.466752        0.044145       -1.654287
  F           -9.921395        1.157308       -4.705204
  F          -11.443628        1.865150       -6.126971
  F          -11.525147        2.494714       -4.017445
  F          -11.049566        0.894896        0.423663
  F          -10.015147       -0.651660       -0.784870
  F          -10.146375        1.404805       -1.520166
  O          -13.678731        0.471261       -4.628926
  O          -11.817348       -1.019477       -5.460211
  O          -12.990960       -1.022775       -0.809312
  O          -13.159919        1.325997       -1.708944
  N          -11.908464       -0.553337       -3.038867
  C          -11.246703        1.447424       -4.837658
  C          -10.828517        0.438354       -0.851598
  S            0.299305       15.293660       11.562115
  S            2.127817       14.663938        9.469211
  F           -1.118387       17.113598       10.167347
  F           -0.615539       17.703924       12.226063
  F            0.924170       17.767037       10.651767
  F            2.650328       15.343699        6.956250
  F            0.632291       14.466149        7.238812
  F            1.027271       16.525360        7.863770
  O            1.382861       15.445568       12.524353
  O           -0.985400       14.752441       11.986774
  O            2.624613       13.326031        9.168726
  O            3.053864       15.687063        9.940662
  N            0.688081       14.586166       10.181142
  C           -0.139970       17.059817       11.114954
  C            1.568747       15.280810        7.798752
  S          -19.795547       -0.969480        8.888926
  S          -18.960878       -0.766334       11.605967
  F          -17.668767        0.311314        7.838317
  F          -19.617267        0.906210        7.008197
  F          -19.001745        1.617854        9.000128
  F          -16.960167        0.218075       13.047549
  F          -16.329774       -1.338719       11.597926
  F          -16.801799        0.680148       10.899144
  O          -21.136279       -0.503971        9.218794
  O          -19.603384       -1.960321        7.837723
  O          -19.113229       -1.815897       12.607118
  O          -19.690721        0.486821       11.759409
  N          -18.882444       -1.399507       10.129934
  C          -18.971545        0.548578        8.161776
  C          -17.167476       -0.281880       11.786338
  S           -1.711179       17.606391       14.980980
  S            1.039748       16.897076       15.203525
  F           -1.290899       20.089693       14.019738
  F           -2.822112       19.947028       15.592852
  F           -0.685438       19.840360       16.118532
  F            3.445646       17.934496       14.772848
  F            2.200235       17.787079       12.942649
  F            1.801617       19.356653       14.413862
  O           -1.990282       17.127523       16.328518
  O           -2.714964       17.469070       13.933469
  O            1.592283       15.585247       14.885872
  O            1.075589       17.379833       16.579125
  N           -0.304199       17.163808       14.361862
  C           -1.604773       19.465713       15.190330
  C            2.171685       18.056392       14.277118
  S           10.322089       -7.880845        0.073853
  S           11.629901       -6.902780       -2.261370
  F            7.808712       -7.490419       -0.819404
  F            8.167627       -6.858217        1.256928
  F            8.902395       -5.626504       -0.415224
  F           11.042160       -5.883932       -4.641827
  F           10.269136       -7.941505       -4.339775
  F            9.270858       -6.246135       -3.382649
  O           11.173494       -7.077906        0.941882
  O            9.866288       -9.194917        0.508803
  O           12.831427       -7.482769       -2.850474
  O           11.681043       -5.559229       -1.696687
  N           10.805995       -8.016375       -1.444779
  C            8.722844       -6.906153        0.005912
  C           10.486800       -6.744495       -3.728268
  S           22.194183       -6.232080        2.360718
  S           20.492082       -3.956479        2.149196
  F           21.741869       -7.161816       -0.128942
  F           21.713371       -8.688677        1.454578
  F           20.001668       -7.324572        1.204810
  F           18.872776       -2.787362        0.399602
  F           20.979303       -2.913963       -0.285177
  F           19.708704       -4.694785       -0.319560
  O           21.618195       -6.599636        3.647658
  O           23.606831       -6.473142        2.096077
  O           20.789910       -2.637192        2.694976
  O           19.369195       -4.719500        2.681677
  N           21.849913       -4.759862        1.838385
  C           21.357814       -7.399998        1.157107
  C           19.998006       -3.573085        0.390668
  S           23.013529       10.561090        4.505012
  S           21.997775        8.884431        6.573178
  F           22.223097        8.999442        2.454675
  F           24.267128        9.794922        2.284964
  F           23.842264        8.125400        3.658018
  F           20.713292        6.579904        6.872053
  F           19.562669        8.098282        5.734950
  F           21.217841        7.035949        4.776418
  O           24.298509       10.691138        5.179539
  O           22.470644       11.678959        3.743853
  O           21.347190        9.359084        7.789130
  O           23.275051        8.186760        6.665020
  N           21.823595        9.953022        5.384268
  C           23.347869        9.292236        3.166934
  C           20.807823        7.589794        5.947516
  S           26.462129        1.254506       12.285469
  S           24.190646        2.745598       13.144107
  F           25.811129        1.219688        9.669672
  F           26.512128       -0.701534       10.480324
  F           24.475776        0.009265       10.928795
  F           22.004876        3.873001       12.143388
  F           23.890559        4.713044       11.330409
  F           23.179168        2.759776       10.648061
  O           26.270322        0.268505       13.340972
  O           27.807429        1.610233       11.852635
  O           24.212535        3.787262       14.164672
  O           23.447102        1.514837       13.386973
  N           25.630603        2.612141       12.440938
  C           25.764144        0.409779       10.765113
  C           23.279385        3.566206       11.737078
  S           14.613365       14.802245       18.027990
  S           12.878968       13.167104       16.466443
  F           16.580188       14.970360       16.192030
  F           17.257538       14.586959       18.249663
  F           16.354373       12.964765       17.063969
  F           12.791008       11.995226       14.085470
  F           12.948812       14.205894       13.983212
  F           14.705622       13.006001       14.493904
  O           14.450857       13.941247       19.192184
  O           14.773931       16.240566       18.198788
  O           11.428463       13.307076       16.406940
  O           13.463188       11.960736       17.040878
  N           13.568029       14.571321       16.839408
  C           16.279559       14.294080       17.336766
  C           13.360955       13.101314       14.664532
  S           19.355092        9.528013        2.973061
  S           19.212448        6.843470        2.028005
  F           17.746177        9.167818        5.105913
  F           17.360105       10.997340        3.946840
  F           16.698209        9.042154        3.177272
  F           18.066463        4.530195        2.648928
  F           19.435848        5.293803        4.218672
  F           17.456502        6.190274        3.962822
  O           19.089255       10.058404        1.642238
  O           20.245965       10.240615        3.879849
  O           20.332461        6.093596        1.470909
  O           18.076796        7.180065        1.177352
  N           19.738066        7.976398        3.040889
  C           17.700871        9.675077        3.841481
  C           18.510657        5.659991        3.289112
  S           27.444100       20.861747       -3.393101
  S           24.884333       19.618275       -3.540133
  F           28.858830       18.698919       -4.159992
  F           29.695099       19.799619       -2.448629
  F           27.941291       18.495409       -2.172434
  F           23.799085       17.268815       -4.133718
  F           24.905660       18.189181       -5.822157
  F           26.001830       17.251988       -4.176858
  O           27.153638       21.406763       -2.073381
  O           28.262711       21.617471       -4.332504
  O           23.671926       20.258988       -4.036775
  O           24.969552       19.226939       -2.137918
  N           26.188933       20.286810       -4.201051
  C           28.526865       19.377031       -3.025041
  C           24.908350       18.002118       -4.473397
  S           24.410685        8.070166       14.022642
  S           22.877616        8.441353       11.649422
  F           24.347284       10.647095       14.811834
  F           26.312364        9.671583       14.974596
  F           25.553735       10.305437       13.005890
  F           21.654790       10.376186       10.303620
  F           20.848485       10.067936       12.347456
  F           22.757893       11.099091       12.068501
  O           25.421586        7.305464       13.304044
  O           24.083216        7.734261       15.402371
  O           21.868153        7.512825       11.153525
  O           24.091925        8.666648       10.873980
  N           23.033663        8.308553       13.244335
  C           25.187855        9.766413       14.198652
  C           21.987882       10.081366       11.601971
  S          -12.435051      -10.292475       18.954171
  S          -14.549474       -8.393676       18.744347
  F          -10.449558       -8.485701       19.200729
  F          -10.028601      -10.149711       17.824676
  F          -11.372511       -8.517639       17.205529
  F          -14.924143       -5.765097       18.728178
  F          -14.029157       -6.524165       20.611054
  F          -12.800577       -6.346566       18.809394
  O          -12.926645      -11.034880       17.800809
  O          -11.808388      -10.997637       20.064919
  O          -15.864875       -8.537362       19.357673
  O          -14.429194       -8.387521       17.291038
  N          -13.445564       -9.218150       19.573418
  C          -11.008283       -9.296483       18.258067
  C          -14.041189       -6.672693       19.257560
  S           -9.198210        5.479655       -2.854824
  S           -9.681106        7.915440       -1.456963
  F           -6.562328        5.350128       -2.304588
  F           -7.101999        4.894793       -4.388114
  F           -7.099143        6.980370       -3.678569
  F           -8.372063        9.730870       -0.028437
  F           -8.327551        7.698638        0.860640
  F           -7.065797        8.166028       -0.864601
  O           -9.916730        5.958188       -4.028625
  O           -9.251221        4.069959       -2.489219
  O          -10.866507        8.197489       -0.655485
  O           -9.431259        8.686330       -2.669365
  N           -9.402344        6.332914       -1.517267
  C           -7.397254        5.703043       -3.322675
  C           -8.286370        8.390648       -0.311358
  S            5.143238        1.636788       -5.877685
  S            4.488486        3.142537       -3.548679
  F            2.715720        0.503860       -6.179411
  F            4.419644       -0.864837       -6.430337
  F            3.812980       -0.214521       -4.414861
  F            2.433565        3.581437       -1.925493
  F            2.053264        4.187876       -4.025495
  F            2.018817        2.070723       -3.474673
  O            6.370306        1.141599       -5.267631
  O            5.095041        1.905885       -7.309112
  O            4.940745        4.502634       -3.279059
  O            4.935734        2.051411       -2.690759
  N            4.441120        2.865478       -5.131944
  C            3.955334        0.197955       -5.701988
  C            2.651008        3.250283       -3.239509
  S          -19.991125        6.956454        7.995925
  S          -22.494316        8.147079        7.335097
  F          -18.623122        9.268596        8.219475
  F          -17.585539        7.676266        7.111522
  F          -19.227177        8.794902        6.159277
  F          -23.563824       10.547291        6.954048
  F          -22.756355       10.248022        8.998759
  F          -21.392853       10.604764        7.325281
  O          -20.103532        6.003725        6.899227
  O          -19.350758        6.562420        9.244280
  O          -23.790853        7.690603        7.822659
  O          -22.187000        8.055920        5.912472
  N          -21.329027        7.749711        8.369473
  C          -18.809096        8.250526        7.332289
  C          -22.546429        9.980573        7.680216
  S           23.164095      -11.896562       16.974082
  S           23.882391      -14.613811       16.504127
  F           25.682773      -10.978375       17.257978
  F           24.246133      -10.231618       18.747298
  F           25.028327      -12.285361       18.900285
  F           26.047411      -16.141100       16.330503
  F           25.974894      -14.525345       14.811790
  F           26.489291      -14.055276       16.885762
  O           22.161642      -12.284498       17.957783
  O           22.936889      -10.741809       16.114638
  O           23.232199      -15.494882       15.540769
  O           23.786213      -14.908612       17.929068
  N           23.732511      -13.076771       16.056046
  C           24.612115      -11.334665       18.022766
  C           25.692862      -14.834112       16.107658
  S            6.126287       16.786594       17.296081
  S            3.691840       15.545245       18.104021
  F            7.514805       14.501239       16.954650
  F            8.596245       16.098551       18.012353
  F            7.039284       14.940787       19.055688
  F            2.689497       13.122639       18.523970
  F            3.356180       13.459239       16.434797
  F            4.832130       13.107085       18.011024
  O            6.070221       17.724623       18.409648
  O            6.676863       17.205930       16.013605
  O            2.358760       15.984708       17.707960
  O            4.090163       15.625443       19.504564
  N            4.780104       15.974572       17.000802
  C            7.370531       15.505715       17.864795
  C            3.647597       13.715190       17.740063
  S          -17.844464       -4.636518       15.832039
  S          -19.992810       -5.922086       14.471094
  F          -17.422936       -2.732873       13.970357
  F          -15.602410       -3.683871       14.758355
  F          -16.868555       -4.754684       13.308069
  F          -21.386213       -5.712442       12.220639
  F          -21.548563       -3.933186       13.536048
  F          -19.731152       -4.265218       12.363997
  O          -17.179414       -5.909284       16.078712
  O          -17.760569       -3.564737       16.815893
  O          -21.187309       -6.457719       15.114028
  O          -19.061072       -6.829885       13.812021
  N          -19.366014       -4.728065       15.346979
  C          -16.897422       -3.921562       14.381461
  C          -20.698130       -4.894677       13.081677
  S           18.863603       -9.931430       16.157804
  S           16.653289       -8.178133       15.756914
  F           20.742415       -8.002072       16.280477
  F           21.280310       -9.748967       15.056271
  F           19.861764       -8.252084       14.281569
  F           16.136225       -5.585191       15.513267
  F           17.034287       -6.133121       17.466641
  F           18.286345       -6.038054       15.674926
  O           18.435869      -10.793883       15.064053
  O           19.505949      -10.505209       17.333342
  O           15.335940       -8.343527       16.360515
  O           16.801446       -8.286605       14.310230
  N           17.784095       -8.867418       16.668999
  C           20.247271       -8.918723       15.401423
  C           17.056838       -6.394566       16.130493
  S          -21.945872        9.726351       12.011146
  S          -19.422047        8.497377       11.521062
  F          -23.355440        7.434055       12.172085
  F          -24.300564        9.026829       10.984875
  F          -22.617321        7.877345       10.149127
  F          -18.362380        6.079949       11.232587
  F          -19.292374        6.411879       13.219379
  F          -20.552913        6.053653       11.467338
  O          -21.752469       10.665404       10.913947
  O          -22.657965       10.142132       13.212716
  O          -18.152723        8.943028       12.084362
  O          -19.638401        8.576603       10.081087
  N          -20.644536        8.920664       12.476092
  C          -23.100891        8.439843       11.287921
  C          -19.415744        6.667309       11.887580
  S          -20.855962       13.989528       11.819862
  S          -18.683225       15.741561       12.394183
  F          -21.535291       15.133051        9.475022
  F          -23.224520       14.647571       10.798074
  F          -21.952434       16.394291       11.226864
  F          -17.435091       17.839180       11.349090
  F          -17.352602       16.027649       10.070825
  F          -19.195894       17.200351       10.189046
  O          -21.397453       14.147456       13.163335
  O          -20.976788       12.712601       11.128068
  O          -17.415163       15.332815       12.987515
  O          -19.569338       16.634033       13.132364
  N          -19.360314       14.514723       11.605416
  C          -21.936193       15.111682       10.777701
  C          -18.142322       16.745398       10.916599
