        2399
  Built with Packmol                                             
  Ti          -2.855441        2.229755       11.246400
  Ti           7.975036        5.110976        1.881588
  Ti           1.241250       -1.706436        9.426417
  Ti           2.752440        7.455698        3.653386
  Ti           1.753864        9.134007        1.748999
  Ti           3.129451       -1.960779       11.379785
  Ti          -1.906242        0.493870        9.354922
  Ti           5.987220        5.413529        3.729051
  H            3.754491        1.533189        8.602241
  H           -0.186252       -4.222307        6.483198
  H            4.786307       10.856196        4.661866
  H           -2.353563        6.126849       11.026946
  H            8.783818        1.204924        2.202274
  H           -6.815340        1.473136       10.863946
  H           11.357185        7.115275        2.082244
  H            4.105056       -5.995319       10.993862
  H           -2.304659        8.544108        2.071053
  H            4.727684        3.049654        6.848996
  H            0.035867        3.681430        8.401220
  H           -3.665336       -1.693995        6.360589
  H            2.248323        7.497205       -0.124086
  H            6.099510        4.868281        0.181652
  H            3.639358       -2.627888        5.868686
  H            1.029000        9.292718        7.272349
  H           -5.978856        3.882496        8.999012
  H           10.729794        3.026651        4.187587
  H           -3.677750        2.435055        5.665173
  H           -1.346210       10.961867        4.102241
  H            2.146109       12.236841        2.604467
  H            8.625987       -0.813916        3.404762
  H            4.845063        7.135828        2.314757
  H            0.160550        0.141959       10.720043
  H            7.364193       -0.025926        9.769448
  H            5.883069       -0.494990       10.516784
  H            7.938314        4.407710        8.670546
  H            7.368596        4.766292        7.052003
  H            6.875380       -4.980756        9.579418
  H            5.596233       -3.880175       10.036813
  H            1.425195        1.874323        9.361458
  H            1.008323        5.203049        6.646973
  H            6.031760        8.869380        3.866525
  H           -7.731962        8.890218        4.689364
  C            8.553073        4.369740        4.745117
  C           -3.815986        2.491148        8.399367
  C            3.821751       -2.717141        8.501695
  C            0.816322        9.426210        4.612746
  C            9.449095        3.765425        5.740308
  C           -4.747890        3.116163        7.422320
  C            4.761950       -3.331489        7.554506
  C           -0.073496       10.073008        5.612538
  C            9.200332        3.840338        7.146730
  C           -4.531496        2.996185        6.034299
  C            5.891402       -4.091792        8.007572
  C           -1.168225       10.845965        5.167611
  C            0.180998        9.902249        6.967423
  C            4.514243       -3.199354        6.170583
  C           10.582770        3.066439        5.264601
  C           -5.848054        3.808578        7.921002
  C            2.924977        4.216078        6.650019
  C            1.843075        2.527811        8.597691
  C            6.470568        9.512288        4.627853
  C           -1.867744       -2.873623        6.521957
  C            8.764846        1.283992        0.058179
  C            2.295114       13.075580        0.083188
  C           11.249281        7.047107       -0.067827
  C           -2.109052        8.589544       -0.087215
  C            3.499155        5.112520        5.617977
  C           -1.256933       -1.981851        7.536115
  C            8.628990        2.738849        0.034982
  C            2.202361       11.642063        0.045700
  C            9.951446        6.430279       -0.020963
  C           -0.706742        9.003887       -0.062753
  C            1.597294        4.398121        7.081602
  C            3.162817        2.337892        8.169008
  C            5.769511       10.639236        5.075943
  C           -1.171243       -4.011621        6.072589
  C            8.804195        0.614878        1.287859
  C           -2.342636        6.715246       11.940841
  C           11.904581        7.321910        1.166133
  C           -7.376828        1.293757       11.779304
  C            7.737945        9.211994        5.142878
  C           -3.143621       -2.579527        6.003644
  C            3.705306        3.179589        7.197444
  C            1.059848        3.553593        8.053957
  C            7.308935        0.249396       11.793799
  C           -2.806243        8.359124        1.125256
  C            4.146699       -6.522481       11.942914
  C            2.308891       13.826772        1.312468
  N            2.363948       13.227937        2.550629
  N            6.729903        0.066554       10.554829
  N            8.119448        4.486580        7.678019
  N            6.222410       -4.250040        9.324967
  O            7.376747        4.774832        5.110912
  O           -3.046995        1.540283        8.001084
  O            4.203207       -2.592658        9.722805
  O            0.750449        9.855877        3.413146
  O            1.586781        8.468994        4.999201
  O            2.651328       -2.348700        8.096181
  O            8.964947        4.450494        3.533371
  O           -3.858000        2.927396        9.599082
  O            6.292442        4.195622        2.534358
  O           -1.353778        2.054229       10.099438
  O            7.231229        6.482910        2.984337
  O           -3.105958        0.329551       10.592107
  O            1.500552       -2.878399       10.686834
  O            3.268988        9.017012        2.914910
  O            2.454501       -0.616911       10.222657
  O            1.562756        7.259902        2.397478
  O            4.720279        4.932652        5.263729
  O           -1.914597       -0.946915        7.914344
  O            3.871775       -3.732640       11.988892
  O            2.119252       10.940626        1.140895
  O            4.673921       -0.944457       11.983764
  O           -0.116683        9.104896        1.080821
  O           -0.095110       -2.276397        7.993933
  O            2.757324        6.033407        5.124635
  O            9.412111        6.130103        1.127024
  O           -4.742224        2.169711       11.914840
  O            8.616546        3.375778        1.156429
  O           -2.474026        3.952051       11.996107
  O            4.484231        6.587072        3.035431
  O           -0.217709       -0.416738       10.016450
  O            6.938339        5.361952        0.102630
  O            2.370688        8.464002       -0.064115
  N            2.363059        4.586123       11.641469
  N            1.489408        3.087240       12.966990
  C           -6.246380       -8.828250       10.598021
  C           -4.789278       -8.689945       11.068554
  C          -10.529557        4.599805       11.090753
  C            2.301075        3.266184       11.908502
  C            8.073073       -9.357019       12.603399
  C            1.008679        4.315727       13.381668
  C           -4.416080       11.884697       -1.650466
  C            1.154130        1.793039       13.564150
  H          -12.834383        5.187464        9.624599
  H           -6.693390       -7.848114       10.391792
  H           -0.123349       -1.097963       -1.057928
  H           -4.288499       -8.021295       10.347334
  H          -10.977477        3.934281       11.842726
  H          -10.615842        4.069400       10.131165
  H            2.802976        2.476178       11.365087
  H           -3.422620       -0.659364       -0.618464
  H            0.329015        4.406565       14.220647
  H           -4.305476       12.424431       -0.699599
  H           -3.904670       12.492719       -2.411730
  H           -3.878578       10.930862       -1.553581
  H            0.132331        1.512025       13.268699
  H            1.881446        1.040165       13.238308
  H            1.208292        1.901042       14.654502
  S           21.683224       15.459254       12.348252
  S           19.251653       14.365417       11.342650
  F           23.034262       13.127924       12.431939
  F           23.272084       14.406072       14.206603
  F           21.412415       13.262904       13.910139
  F           18.221128       12.026094       10.624560
  F           19.982025       12.630158        9.417597
  F           20.257717       11.869469       11.450398
  O           20.974338       16.201577       13.382423
  O           22.876238       16.023769       11.730382
  O           18.398895       15.002198       10.345450
  O           18.752425       14.171289       12.699005
  N           20.775049       14.853504       11.179036
  C           22.372406       13.978231       13.266851
  C           19.450039       12.635358       10.671039
  S          -18.034540       -5.316582        8.377062
  S          -16.076591       -6.231222        6.519612
  F          -17.172134       -2.764138        8.470300
  F          -17.657179       -3.654920       10.422451
  F          -15.786466       -4.199356        9.394290
  F          -13.998442       -5.315462        5.143841
  F          -15.911024       -4.310094        4.640183
  F          -14.875427       -3.820723        6.504314
  O          -17.792029       -6.450101        9.259897
  O          -19.376513       -4.762899        8.249531
  O          -16.330284       -7.171537        5.434005
  O          -15.188154       -6.613732        7.610932
  N          -17.420133       -5.436169        6.904995
  C          -17.100801       -3.914430        9.198237
  C          -15.178572       -4.840007        5.658446
  S           -8.485474       -1.700796        0.186707
  S           -7.453451        0.900783       -0.348985
  F           -9.845079       -1.952851       -2.127455
  F          -10.939404       -2.594287       -0.330050
  F          -10.690972       -0.448994       -0.764897
  F           -7.527725        2.765693       -2.237546
  F           -6.651621        0.844587       -2.918869
  F           -8.817011        1.031674       -2.667844
  O           -8.916370       -1.304415        1.520980
  O           -8.003941       -3.054987       -0.054155
  O           -6.107282        1.350608       -0.013456
  O           -8.602371        1.515349        0.305923
  N           -7.483405       -0.694420       -0.549394
  C          -10.068195       -1.655909       -0.815892
  C           -7.620446        1.399894       -2.139662
  S           23.568278       -0.924750       -4.355375
  S           21.460544        0.786939       -5.220148
  F           24.769806        0.883552       -2.757320
  F           26.131432       -0.281622       -4.033250
  F           24.932621        1.351072       -4.899422
  F           20.595532        3.274178       -4.880348
  F           20.628213        2.080798       -3.010272
  F           22.495252        2.858456       -3.844745
  O           23.850359       -1.342938       -5.722351
  O           23.726031       -1.867072       -3.254983
  O           20.075208        0.373835       -5.413239
  O           22.250743        1.216416       -6.368080
  N           22.184967       -0.152436       -4.134552
  C           24.909006        0.334809       -3.997343
  C           21.290464        2.323875       -4.174957
  S           -3.222111       13.305216       14.611979
  S           -2.422192       14.735897       16.942973
  F           -5.560267       14.601923       14.267043
  F           -5.663377       12.417260       14.029833
  F           -5.522862       13.304295       16.041429
  F           -3.297657       16.667940       18.540107
  F           -2.999651       17.317291       16.439644
  F           -4.741134       16.105240       16.973590
  O           -2.911012       12.025604       15.235587
  O           -3.011780       13.492312       13.182127
  O           -1.059895       15.170826       17.229469
  O           -3.054967       13.738960       17.798733
  N           -2.651111       14.600408       15.357106
  C           -5.086695       13.422433       14.759674
  C           -3.418744       16.288265       17.226803
  S           14.745666       12.972542       13.904445
  S           13.277191       10.599161       14.479681
  F           17.086004       11.742222       13.378578
  F           17.240796       13.537105       14.641151
  F           16.493960       11.648121       15.493835
  F           13.632418        7.970643       14.601215
  F           14.000989        8.825578       12.587350
  F           15.484080        9.085836       14.174687
  O           14.247966       13.626177       15.107828
  O           14.987546       13.750705       12.696274
  O           11.896202       10.354009       14.079851
  O           13.608005       10.711382       15.895513
  N           13.982589       11.634841       13.471953
  C           16.474849       12.431448       14.383372
  C           14.149420        9.045877       13.922861
  S           15.611142       16.363645       15.766811
  S           17.339023       18.112422       17.207802
  F           13.341663       17.106941       17.017565
  F           13.587276       14.937760       16.745566
  F           14.734533       15.992437       18.302663
  F           17.234822       19.938100       19.132927
  F           16.037011       20.465569       17.341438
  F           15.298356       18.960563       18.747239
  O           16.504373       15.232325       15.979714
  O           14.856197       16.475899       14.525369
  O           18.457939       18.846021       16.627324
  O           17.595066       17.076262       18.201496
  N           16.223531       17.805390       16.091046
  C           14.256931       16.096918       17.034564
  C           16.420635       19.437668       18.147914
  S            9.527339       17.965654       13.358748
  S           10.113175       15.196445       13.688182
  F           11.274408       18.851421       15.210928
  F            9.289291       19.797329       15.275891
  F            9.566589       17.757026       16.059066
  F           11.675833       13.609305       15.133573
  F           12.795748       15.041456       13.861903
  F           11.825328       15.734186       15.696390
  O            8.093279       17.716562       13.425833
  O           10.047098       19.019190       12.496406
  O           10.198921       14.226083       12.602760
  O            9.057513       15.069344       14.686198
  N           10.449707       16.675021       13.153118
  C            9.940263       18.610237       15.069372
  C           11.688889       14.890011       14.640415
  S           25.180345       13.193508       10.683154
  S           22.969075       12.328473        9.107639
  F           25.341633       15.665383        9.619562
  F           27.267628       14.632365        9.870701
  F           25.916132       14.064675        8.226232
  F           21.360467       13.230224        7.197327
  F           21.248258       14.399318        9.079623
  F           22.958546       14.647334        7.737858
  O           25.919401       11.970388       10.398821
  O           25.311652       13.842289       11.981446
  O           21.864967       11.510241        9.596043
  O           23.871763       11.790633        8.096453
  N           23.624869       13.170090       10.310697
  C           25.953958       14.450904        9.528726
  C           22.091820       13.731819        8.244757
  S           18.638961       -3.705652       16.152690
  S           20.433517       -4.176226       13.989734
  F           20.472110       -2.647347       17.822110
  F           19.104791       -4.103845       18.743363
  F           20.750037       -4.796737       17.452565
  F           22.999861       -3.876093       13.378287
  F           21.963379       -1.966391       13.826789
  F           22.523105       -3.316205       15.455175
  O           18.090470       -5.051621       16.049736
  O           17.779710       -2.593180       16.537154
  O           20.115112       -3.972847       12.581064
  O           20.705577       -5.522577       14.479564
  N           19.531912       -3.220900       14.917201
  C           19.815316       -3.822282       17.606930
  C           22.058815       -3.278332       14.178723
  S           17.547378       -9.301949       13.262684
  S           17.349604       -7.089268       15.047392
  F           18.248836      -11.115513       15.129861
  F           19.408488      -11.205475       13.262572
  F           19.802147       -9.611485       14.731354
  F           17.653758       -6.525123       17.624075
  F           16.072195       -8.028694       17.223651
  F           18.180597       -8.602818       17.114310
  O           18.345676       -8.528597       12.320494
  O           16.606328      -10.302260       12.775322
  O           16.325813       -6.052597       14.982110
  O           18.744496       -6.740315       14.804245
  N           16.808301       -8.460260       14.404658
  C           18.818110      -10.351061       14.155339
  C           17.306623       -7.598523       16.842478
  S           17.102165      -13.163208        8.412453
  S           19.476060      -12.513213        9.848552
  F           16.338396      -10.619005        7.953004
  F           14.729815      -11.970711        8.604932
  F           16.197651      -11.216310       10.064188
  F           20.827731      -10.384515       10.680234
  F           20.623835      -10.502261        8.474113
  F           18.920161       -9.882226        9.698850
  O           16.695894      -14.124111        9.429646
  O           16.798939      -13.411785        7.008892
  O           20.744642      -13.222948        9.729922
  O           18.747478      -12.546491       11.111355
  N           18.617807      -12.658686        8.496527
  C           16.050609      -11.657898        8.787288
  C           19.983095      -10.727518        9.654310
  S           17.777737        9.045732        3.020371
  S           15.580386        7.721982        1.779571
  F           19.606715        7.142748        2.471831
  F           19.680222        7.941926        4.520138
  F           18.098549        6.520251        3.945471
  F           15.037969        5.474171        0.474505
  F           16.538913        6.752875       -0.542595
  F           17.110987        5.579540        1.213237
  O           16.996001        9.315826        4.219959
  O           18.774367       10.006583        2.565163
  O           14.543732        8.381534        0.993801
  O           15.228653        7.077670        3.039635
  N           16.946156        8.569801        1.739456
  C           18.833724        7.576131        3.507599
  C           16.104878        6.314719        0.671401
  S           21.873547       10.192792        0.226859
  S           19.817901       12.092370       -0.308092
  F           23.935096       11.895148       -0.118690
  F           24.187844        9.923393       -1.061004
  F           22.858392       11.422622       -1.976407
  F           19.536621       14.652269       -0.954519
  F           20.548610       14.333171        0.993933
  F           21.638061       13.995338       -0.873123
  O           21.267231        9.216810       -0.669196
  O           22.559735        9.750177        1.433904
  O           18.550223       12.175095        0.408319
  O           19.824304       11.734016       -1.721653
  N           20.953313       11.439268        0.624662
  C           23.275948       10.908488       -0.789643
  C           20.425507       13.856822       -0.275748
  S           -4.946767        7.971788       16.809710
  S           -7.728475        8.327797       17.315283
  F           -5.019452        5.279841       16.685024
  F           -3.349171        6.113216       17.849198
  F           -5.380889        6.081181       18.700192
  F           -9.934469        6.885953       17.638925
  F           -8.988595        6.629510       15.648455
  F           -8.115762        5.664135       17.407189
  O           -4.587852        8.878456       17.892395
  O           -4.131911        7.915033       15.602850
  O           -8.552297        9.386972       16.743826
  O           -7.493547        8.295073       18.754155
  N           -6.480229        8.001776       16.355427
  C           -4.676843        6.272975       17.553619
  C           -8.736082        6.793715       16.976396
  S           11.516942       -6.092938        7.069912
  S           13.409590       -3.971459        7.263456
  F           11.199684       -6.438240        9.724629
  F           11.411925       -8.294425        8.563086
  F           13.178319       -7.047301        8.984541
  F           14.685605       -2.550427        9.108048
  F           12.478151       -2.346943        9.198337
  F           13.441273       -4.162074        9.949753
  O           12.339862       -6.798727        6.096393
  O           10.063680       -6.153831        6.980239
  O           13.442810       -2.800119        6.395151
  O           14.513425       -4.923870        7.230662
  N           11.919654       -4.570209        7.349016
  C           11.856310       -7.003615        8.672324
  C           13.496479       -3.221719        8.970460
  S           11.167139       18.570708       18.300542
  S            9.838117       16.051703       18.393099
  F           13.565061       17.661309       19.131427
  F           12.904283       19.537499       20.071075
  F           12.015485       17.619313       20.690509
  F           10.332975       13.515876       19.005279
  F           11.567495       14.283212       17.329104
  F           12.038161       14.857819       19.387072
  O           10.079842       19.221693       19.019623
  O           11.900648       19.295964       17.271131
  O            8.866377       15.583585       17.411426
  O            9.412394       16.301997       19.765224
  N           10.848445       17.111374       17.728216
  C           12.474713       18.318145       19.619135
  C           11.013797       14.608579       18.529815
  S           23.803416        5.000454       10.155281
  S           23.117193        2.285010       10.680368
  F           22.508872        5.173253        7.796955
  F           24.525104        6.053012        7.818954
  F           24.275414        3.865604        7.741546
  F           21.766558        0.282177        9.578319
  F           20.514935        2.058353       10.026706
  F           21.864895        2.077531        8.305029
  O           25.204392        4.754781       10.471483
  O           23.194549        6.284007       10.480076
  O           22.760847        1.751978       11.990326
  O           24.336078        1.827060       10.023698
  N           22.778279        3.854698       10.597003
  C           23.772077        5.006762        8.281460
  C           21.739813        1.654303        9.590160
  S           -6.571071       -5.334337        0.091891
  S           -6.567961       -4.557902       -2.649895
  F           -3.895718       -5.259627        0.414867
  F           -4.890199       -7.017096        1.287772
  F           -4.583067       -6.890144       -0.889990
  F           -4.857567       -3.917053       -4.577052
  F           -4.781485       -2.551318       -2.830230
  F           -3.875363       -4.538855       -2.705455
  O           -7.480359       -6.440970       -0.175752
  O           -6.652414       -4.609697        1.353636
  O           -7.535808       -3.655754       -3.263489
  O           -6.519016       -5.954127       -3.067954
  N           -6.427461       -4.252297       -1.077445
  C           -4.895513       -6.164606        0.215934
  C           -4.933531       -3.850577       -3.208332
  S           23.268258       10.234465        5.757974
  S           26.033204        9.703657        6.197939
  F           22.369514        8.877542        7.907027
  F           21.239118        8.536245        6.050855
  F           23.207481        7.588743        6.335246
  F           27.607295        8.416504        7.905434
  F           26.421938       10.042052        8.840811
  F           25.460218        8.147156        8.319854
  O           23.373174        9.858894        4.354047
  O           22.360287       11.299472        6.164261
  O           27.111380       10.663346        5.989066
  O           25.959463        8.510231        5.363128
  N           24.654123       10.463997        6.523136
  C           22.496956        8.725605        6.558388
  C           26.389526        9.049439        7.909241
  S            9.460099       21.015466        0.777136
  S           12.061253       22.171767        0.645925
  F            8.922323       21.217872       -1.856727
  F            7.278399       21.814799       -0.522244
  F            9.001476       23.154827       -0.819605
  F           13.735020       23.208956       -1.135314
  F           13.226083       21.084891       -1.524852
  F           11.779118       22.659362       -1.987738
  O            9.091801       21.861068        1.905138
  O            8.946553       19.654782        0.684775
  O           13.217966       21.714196        1.407331
  O           11.508999       23.496992        0.901676
  N           11.019069       20.967840        0.421995
  C            8.637789       21.852325       -0.684267
  C           12.728467       22.276901       -1.093988
  S           31.084192      -10.793010       11.973251
  S           31.471771       -8.115904       12.869431
  F           28.427415      -10.579142       11.569268
  F           29.068704      -12.418864       12.590947
  F           29.007320      -10.509952       13.688845
  F           30.075672       -5.902343       13.317897
  F           30.014933       -6.579397       11.205951
  F           28.828918       -7.618594       12.722648
  O           31.850455      -11.326338       13.091945
  O           31.137500      -11.447353       10.672208
  O           32.615164       -7.277818       12.526856
  O           31.268981       -8.526729       14.253885
  N           31.215566       -9.217958       11.726815
  C           29.304269      -11.073654       12.488364
  C           30.019663       -7.003046       12.500035
  S           20.582782        4.909406       14.049723
  S           18.479804        3.746806       12.518027
  F           20.789654        7.165244       12.588283
  F           22.704664        6.226148       13.127254
  F           21.461681        5.360493       11.527652
  F           16.984899        4.278392       10.389003
  F           16.747559        5.750208       12.032121
  F           18.535285        5.796330       10.771630
  O           21.347673        3.669497       14.024396
  O           20.628632        5.773186       15.222541
  O           17.354234        3.004061       13.073472
  O           19.447366        3.060520       11.669824
  N           19.053462        4.793905       13.595168
  C           21.416062        5.964639       12.744213
  C           17.646272        4.965296       11.376086
  S           -6.735698      -12.167820       15.279528
  S           -4.926829      -10.730395       16.947477
  F           -7.592181      -10.031417       13.876094
  F           -9.175467      -11.412456       14.528467
  F           -8.249612      -10.031825       15.974062
  F           -4.075607       -8.248561       17.354891
  F           -3.650385       -9.010896       15.315175
  F           -5.678634       -8.388663       15.849930
  O           -7.309109      -12.863623       16.424139
  O           -6.613779      -12.847682       13.996312
  O           -3.610699      -11.206695       17.357399
  O           -5.968368      -10.539951       17.950243
  N           -5.360014      -11.397697       15.550053
  C           -7.994112      -10.830635       14.904614
  C           -4.566070       -9.008949       16.322980
  S          -12.484481       -1.880592       -3.889992
  S          -13.788500       -0.348002       -5.907653
  F          -14.700455       -3.134520       -3.004255
  F          -13.365996       -2.377456       -1.427636
  F          -14.657703       -0.985123       -2.543878
  F          -16.217543        0.050380       -6.903198
  F          -15.506434       -2.041628       -7.103786
  F          -16.194934       -1.301310       -5.163470
  O          -11.775570       -0.708175       -3.394053
  O          -11.843233       -3.188934       -3.862385
  O          -13.244089       -0.077244       -7.233323
  O          -13.988902        0.753032       -4.972680
  N          -13.186854       -1.717652       -5.317894
  C          -13.884960       -2.096717       -2.663543
  C          -15.513168       -0.952881       -6.286021
  S            9.531794       16.499589       -4.851252
  S            7.621555       14.410963       -5.181217
  F            7.735537       18.482716       -4.522503
  F            9.414276       18.959649       -5.861914
  F            7.779251       17.658935       -6.560432
  F            4.990899       14.055344       -5.238215
  F            5.738959       14.851369       -3.307112
  F            5.585080       16.168350       -5.047461
  O           10.281230       16.060372       -6.021085
  O           10.231073       17.066010       -3.704998
  O            7.751473       13.066014       -4.632283
  O            7.629006       14.602699       -6.626829
  N            8.445653       15.467104       -4.291744
  C            8.551058       17.965612       -5.484626
  C            5.899362       14.904995       -4.658241
  S           26.723420        3.914431        3.070376
  S           25.229104        6.298723        2.620467
  F           25.529829        3.261966        5.397829
  F           27.719919        3.054648        5.384443
  F           26.800486        5.051455        5.527615
  F           23.313534        7.740506        3.761485
  F           22.681037        5.680550        3.233340
  F           23.957031        6.019923        4.977930
  O           27.980381        4.595131        2.787941
  O           26.547243        2.517814        2.693356
  O           24.734069        6.741570        1.322037
  O           26.239726        7.089062        3.313735
  N           25.395584        4.699563        2.647061
  C           26.681796        3.830708        4.942136
  C           23.715772        6.429552        3.705009
  S           -5.715521       19.246146       13.297158
  S           -7.315081       21.185394       11.955153
  F           -3.367576       20.012932       12.217066
  F           -3.700154       17.839057       12.274643
  F           -4.738823       19.075885       10.776472
  F           -7.061027       23.174824       10.215127
  F           -5.927683       23.488773       12.096450
  F           -5.178929       22.091869       10.588154
  O           -6.636872       18.174547       12.942388
  O           -5.013897       19.214603       14.574048
  O           -8.432968       21.905258       12.554503
  O           -7.561769       20.255587       10.859153
  N           -6.262386       20.734172       13.083853
  C           -4.315563       19.044878       12.067590
  C           -6.309903       22.554914       11.182137
  S           15.514694       -3.734014       -0.938728
  S           15.282545       -5.726446        1.085271
  F           15.545432       -1.623241        0.737904
  F           14.263330       -1.386217       -1.034012
  F           13.603591       -2.650073        0.645424
  F           15.111266       -5.926921        3.727342
  F           16.994649       -4.986144        3.027189
  F           15.127965       -3.845099        3.006252
  O           14.437869       -4.333648       -1.715878
  O           16.637938       -3.097699       -1.614854
  O           15.966827       -7.014339        1.071737
  O           13.827881       -5.682723        0.992247
  N           16.109867       -4.637308        0.239664
  C           14.686353       -2.283189       -0.089503
  C           15.656053       -5.079225        2.795569
  S           -9.813395       14.655385        5.735598
  S           -7.694144       16.546862        5.509017
  F          -11.753072       16.456670        6.245925
  F          -11.790386       14.662536        7.518460
  F          -10.296053       16.240727        7.878147
  F           -7.283417       19.165217        5.668978
  F           -8.695587       18.583320        4.059760
  F           -9.350735       18.572178        6.147243
  O           -9.024323       13.809638        6.621684
  O          -10.745601       14.054938        4.789988
  O           -6.613501       16.477222        4.532054
  O           -7.391263       16.410544        6.928980
  N           -9.004496       15.795312        4.957762
  C          -10.961539       15.564045        6.905355
  C           -8.297495       18.304143        5.331662
  S           -0.557580       15.797999       13.968600
  S           -1.581543       18.434564       13.621788
  F            1.951939       16.546139       14.608918
  F            1.813304       14.878051       13.181362
  F            1.420305       16.939827       12.512240
  F           -0.772968       20.960359       13.750754
  F           -0.591921       19.869422       15.674159
  F            0.849408       19.504081       14.069159
  O           -1.141336       15.356902       12.708546
  O           -0.474618       14.879886       15.097274
  O           -2.905333       18.878489       14.043220
  O           -1.251906       18.399415       12.201677
  N           -1.083619       17.201893       14.526403
  C            1.247001       16.071363       13.543178
  C           -0.461977       19.752653       14.323740
  S            3.602872       22.625902        5.366609
  S            4.810819       20.599475        3.768264
  F            1.763796       21.025903        6.517787
  F            1.004164       22.972261        5.829090
  F            1.417481       21.370529        4.374196
  F            4.569001       18.005971        3.253168
  F            5.037355       18.451123        5.375641
  F            3.014129       18.778130        4.609772
  O            3.516384       23.533882        4.230315
  O            3.851797       23.149286        6.703706
  O            6.242456       20.474861        3.519299
  O            3.911287       20.905158        2.661912
  N            4.542687       21.347047        5.166468
  C            1.861692       21.950003        5.520486
  C            4.331434       18.872863        4.290300
  S          -10.484070       -8.032456       16.460626
  S          -13.092459       -7.897370       15.321194
  F          -10.290359      -10.720952       16.417406
  F           -9.613395       -9.768548       18.281353
  F          -11.766829       -9.964474       17.860133
  F          -14.999829       -9.508604       14.417905
  F          -13.090711       -9.676591       13.300114
  F          -13.281717      -10.583663       15.281948
  O          -10.852149       -7.108346       17.525338
  O           -9.133531       -8.017117       15.913332
  O          -13.528604       -6.901409       14.349116
  O          -13.697194       -7.921954       16.647959
  N          -11.502335       -8.118540       15.229974
  C          -10.558614       -9.710387       17.292020
  C          -13.632596       -9.502692       14.537156
  S          -21.401903       16.403448        2.485962
  S          -21.659442       13.967790        3.942498
  F          -23.951221       17.211920        2.824717
  F          -23.161060       17.453235        0.785829
  F          -23.747012       15.458452        1.514247
  F          -23.489235       12.586193        5.281570
  F          -23.080618       14.589326        6.143486
  F          -24.288776       14.404745        4.328765
  O          -20.744156       15.723747        1.377607
  O          -21.019020       17.764207        2.840158
  O          -20.647407       13.419253        4.838036
  O          -22.006995       13.249153        2.722096
  N          -21.521024       15.566821        3.844140
  C          -23.160763       16.628922        1.879497
  C          -23.209875       13.895400        4.979050
  S           16.872480        2.913849       16.170620
  S           19.665611        2.785840       15.620819
  F           16.530372        0.265365       16.539265
  F           14.987132        1.241650       15.312508
  F           16.972828        0.817928       14.457778
  F           21.615510        0.995011       15.418603
  F           20.679546        1.067322       17.428864
  F           19.634499        0.096896       15.769624
  O           16.637481        3.765270       15.011771
  O           16.081848        3.092410       17.381709
  O           20.654076        3.750429       16.089434
  O           19.401012        2.662077       14.192084
  N           18.400526        2.744997       16.612597
  C           16.328939        1.218378       15.585670
  C           20.430150        1.149912       16.092775
  S          -16.611167        3.334456       17.855160
  S          -15.084700        5.562706       16.946835
  F          -14.520529        1.660966       18.165114
  F          -16.281295        0.779446       17.184157
  F          -14.961946        2.144241       16.066238
  F          -12.565563        6.222827       16.428901
  F          -12.918777        5.653586       18.543993
  F          -12.817901        4.109232       16.997473
  O          -17.569584        3.490638       16.768827
  O          -17.057473        2.873418       19.163584
  O          -15.329899        6.951001       17.320478
  O          -15.263169        5.147710       15.560278
  N          -15.618234        4.566293       18.090618
  C          -15.526353        1.917932       17.281690
  C          -13.254006        5.370106       17.255035
  S          -13.481455       -8.685088        3.804442
  S          -16.063856       -9.594021        4.595199
  F          -12.482223      -11.122177        3.230386
  F          -11.137159       -9.810336        4.374733
  F          -12.834943      -10.794645        5.375613
  F          -17.429348      -11.856524        4.853222
  F          -16.764180      -11.451341        2.775775
  F          -15.328423      -12.163782        4.265056
  O          -13.362786       -7.848458        4.991474
  O          -12.899798       -8.249212        2.541348
  O          -17.318486       -8.918874        4.283469
  O          -15.626829       -9.697170        5.982636
  N          -14.945923       -9.247888        3.492406
  C          -12.444563      -10.188967        4.223288
  C          -16.406821      -11.356667        4.086303
  S           -0.909036      -13.555029       15.897111
  S           -3.738597      -13.869300       15.774372
  F           -0.379762      -16.052226       16.763877
  F            0.727277      -14.454754       17.794508
  F           -1.399937      -14.797518       18.253384
  F           -5.600234      -15.703849       16.242139
  F           -4.149092      -16.290368       14.669691
  F           -3.567184      -16.362849       16.777548
  O           -1.035043      -12.291693       16.612077
  O            0.177948      -13.752253       14.946695
  O           -4.594613      -13.325222       14.726368
  O           -3.874246      -13.380135       17.141460
  N           -2.248283      -14.108882       15.220027
  C           -0.485142      -14.782464       17.248387
  C           -4.281475      -15.652695       15.865517
  S           14.123977       13.156429        5.190312
  S           16.866378       12.738474        5.842077
  F           14.308035       15.826989        4.871498
  F           12.559806       15.144658        6.019442
  F           14.554608       15.166599        6.953989
  F           19.112503       14.119381        6.155266
  F           18.259896       14.259878        4.111806
  F           17.354530       15.385670        5.754923
  O           13.685431       12.347260        6.319912
  O           13.362160       13.152004        3.948001
  O           17.670434       11.610132        5.386627
  O           16.574139       12.887657        7.262976
  N           15.672389       13.036681        4.807091
  C           13.891128       14.914989        5.794859
  C           17.946865       14.205128        5.435878
  S           14.461697       16.397471        1.381858
  S           14.153557       19.096207        0.520391
  F           16.676794       16.818522        2.859514
  F           16.733659       15.025109        1.586687
  F           17.006590       17.021107        0.695287
  F           15.333761       21.459860        0.785592
  F           14.610194       20.607252        2.701818
  F           16.426674       19.819835        1.770525
  O           14.287698       15.896833        0.024597
  O           13.962365       15.628566        2.514631
  O           12.878002       19.791869        0.393475
  O           14.950385       18.829795       -0.671542
  N           14.052844       17.925758        1.618408
  C           16.316717       16.328556        1.639502
  C           15.183882       20.301023        1.505466
  S          -16.198663       -0.532050        0.328452
  S          -17.681299       -1.433839       -1.931818
  F          -17.718533        1.639174        0.821593
  F          -15.547547        1.979194        0.925813
  F          -16.542461        1.785866       -1.030169
  F          -19.797110       -0.743161       -3.379704
  F          -20.272291       -1.158309       -1.252672
  F          -19.295469        0.718602       -1.809406
  O          -14.935839       -0.684972       -0.382157
  O          -16.268452       -0.793734        1.760364
  O          -17.982070       -2.829307       -2.230650
  O          -16.817286       -0.675217       -2.828806
  N          -17.469115       -1.226725       -0.351370
  C          -16.528725        1.310774        0.243093
  C          -19.348596       -0.609955       -2.089481
  S           10.549239       10.153503       -3.484646
  S           10.982881        7.683784       -4.838415
  F            8.257425        9.417471       -2.270870
  F            8.233117       11.426810       -3.166202
  F            8.070205        9.643801       -4.449725
  F            9.851727        5.298617       -5.123965
  F           10.430100        5.763905       -3.033175
  F            8.655588        6.695565       -3.910697
  O           10.795030       10.915790       -4.701848
  O           10.955513       10.689131       -2.191678
  O           12.281986        7.044605       -5.014112
  O           10.255944        8.170472       -6.005168
  N           10.982958        8.614390       -3.527040
  C            8.680493       10.144609       -3.343454
  C            9.924997        6.293536       -4.181441
  S           17.911277       18.904580       13.090641
  S           20.629285       19.249726       13.873942
  F           17.447498       16.728568       14.612906
  F           16.671042       16.609971       12.557984
  F           18.826052       16.359503       12.940463
  F           22.448319       18.123013       15.446106
  F           20.666909       18.867592       16.539079
  F           20.543880       17.017250       15.378033
  O           18.253054       19.041135       11.680813
  O           16.638083       19.410961       13.586903
  O           21.270182       20.536247       14.121345
  O           21.078369       18.423895       12.759070
  N           19.044620       19.348851       14.128396
  C           17.720449       17.054099       13.317653
  C           21.084203       18.263919       15.392085
  S           -8.891362      -12.900053        9.025441
  S          -11.351651      -13.988072        8.085526
  F           -7.387530      -15.067213        8.469280
  F           -7.013790      -14.154320       10.435647
  F           -8.815260      -15.380213       10.111627
  F          -12.305595      -16.220351        7.009891
  F          -10.755497      -15.228090        5.770930
  F          -10.175199      -16.352204        7.556022
  O           -9.512185      -12.448089       10.263739
  O           -7.826343      -12.116396        8.412794
  O          -12.364128      -13.245164        7.343856
  O          -11.661615      -14.494923        9.417306
  N           -9.897201      -13.339752        7.861941
  C           -7.994178      -14.465684        9.531491
  C          -11.124214      -15.522885        7.048152
  S          -13.308690       -3.062290        1.834837
  S          -15.901590       -4.071111        1.218882
  F          -11.952352       -4.766322        0.246118
  F          -11.090933       -4.475395        2.249359
  F          -12.881147       -5.732541        1.988945
  F          -17.049960       -5.949295       -0.265617
  F          -15.913167       -4.454004       -1.446387
  F          -14.848414       -6.005884       -0.330636
  O          -13.587840       -3.090690        3.264642
  O          -12.466572       -2.013053        1.274784
  O          -17.094219       -3.252144        1.034427
  O          -15.831486       -4.998740        2.341915
  N          -14.576930       -3.227253        0.874039
  C          -12.268733       -4.597164        1.561200
  C          -15.919722       -5.171088       -0.288846
  S          -23.338485      -13.139692       13.709489
  S          -21.001235      -14.728456       14.074652
  F          -22.065310      -10.977719       12.723435
  F          -23.613111      -10.542375       14.224915
  F          -21.660672      -11.346711       14.852706
  F          -18.371576      -14.579400       13.738882
  F          -19.522490      -14.358555       11.854994
  F          -19.421524      -12.698427       13.276511
  O          -23.814520      -13.450950       15.050975
  O          -24.288688      -12.964839       12.618499
  O          -20.914179      -16.159630       13.807714
  O          -20.856443      -14.240563       15.441257
  N          -22.142163      -14.051788       13.165730
  C          -22.616450      -11.419640       13.889241
  C          -19.508983      -14.051069       13.181426
  S          -20.067509       16.905152        7.924872
  S          -20.937267       19.361728        9.077697
  F          -17.563932       16.990627        8.920968
  F          -17.704859       16.402334        6.805855
  F          -17.955955       18.513172        7.384133
  F          -20.012113       21.330250       10.600548
  F          -19.994719       19.349527       11.599968
  F          -18.485083       19.826396       10.089828
  O          -20.600461       17.276349        6.620553
  O          -20.094397       15.513608        8.356848
  O          -22.258919       19.594541        9.648775
  O          -20.530108       20.091954        7.882873
  N          -20.553431       17.802200        9.156928
  C          -18.230379       17.235474        7.757331
  C          -19.794698       19.988041       10.414032
  S           21.684839       20.601218       18.149326
  S           19.562599       21.638138       16.555230
  F           21.274678       22.222377       20.263804
  F           23.378771       21.984583       19.667231
  F           22.033471       23.266414       18.483943
  F           17.658430       23.485526       16.661844
  F           17.475493       21.928333       18.231586
  F           18.989178       23.497100       18.417750
  O           22.621850       20.684698       17.036619
  O           21.793311       19.517012       19.117031
  O           18.682473       20.836548       15.712660
  O           20.466771       22.602698       15.939835
  N           20.138447       20.757267       17.771042
  C           22.101973       22.105192       19.186770
  C           18.361522       22.685202       17.527133
  S          -18.401976       21.904231       18.843329
  S          -19.797133       19.815355       17.497823
  F          -18.093438       23.483513       16.680442
  F          -16.304713       23.275355       17.944081
  F          -16.905499       21.635194       16.601687
  F          -20.675114       19.195392       15.069889
  F          -21.572926       21.049558       15.893547
  F          -19.522116       21.071832       15.131568
  O          -17.500490       20.953162       19.480404
  O          -18.813271       23.109451       19.551850
  O          -20.922606       19.071147       18.051501
  O          -18.542522       19.124802       17.222685
  N          -19.705524       21.277975       18.159703
  C          -17.380687       22.598925       17.433862
  C          -20.425364       20.320849       15.814575
  S           -7.995331      -11.239302        5.224406
  S           -5.572439      -12.662758        4.751522
  F           -9.518810      -13.413108        5.694497
  F          -10.435752      -11.898104        4.389264
  F           -8.864794      -13.227769        3.603660
  F           -4.664413      -15.156654        4.673819
  F           -5.468875      -14.564555        6.654897
  F           -6.837674      -15.026032        5.011620
  O           -7.808394      -10.432715        4.025428
  O           -8.619205      -10.658693        6.406520
  O           -4.252589      -12.238507        5.204403
  O           -5.859540      -12.720620        3.322943
  N           -6.717778      -12.069472        5.711701
  C           -9.256017      -12.521834        4.697139
  C           -5.647849      -14.441870        5.310624
  S            5.850871       13.198783        7.114928
  S            4.875442       15.800927        7.745510
  F            3.524606       12.248499        6.138786
  F            4.597952       10.879245        7.485160
  F            3.494797       12.598946        8.309035
  F            2.630270       17.213038        7.622167
  F            3.364460       16.535336        5.641235
  F            2.382916       15.117618        6.987926
  O            6.473892       13.065493        8.425330
  O            6.480414       12.605659        5.942068
  O            5.618961       17.040799        7.553176
  O            4.532039       15.369027        9.095380
  N            5.378617       14.673818        6.714892
  C            4.277049       12.193812        7.274123
  C            3.230574       16.178870        6.948583
  S           18.479403        8.583650       13.443971
  S           20.777063       10.023572       14.320120
  F           19.453863        7.937867       11.014814
  F           17.370511        8.644412       11.024507
  F           19.024914       10.080911       11.253671
  F           23.180204       10.739172       13.446682
  F           22.892119        8.542080       13.557155
  F           21.975917        9.685405       11.932250
  O           17.589014        9.654158       13.873264
  O           18.052299        7.193774       13.541672
  O           21.324782        9.980260       15.671128
  O           20.218025       11.269779       13.809182
  N           19.981217        8.666223       13.988503
  C           18.603041        8.833717       11.590755
  C           22.280245        9.720683       13.256059
  S          -18.489587      -10.378710       16.116228
  S          -20.273986       -8.790883       14.562208
  F          -19.463662       -9.638290       18.518386
  F          -17.268724       -9.679384       18.376223
  F          -18.404024       -8.028580       17.460235
  F          -22.275265       -7.076592       14.888028
  F          -22.693603       -9.097180       15.703274
  F          -21.367541       -7.733903       16.784923
  O          -17.338475       -9.910348       15.355537
  O          -18.523786      -11.743972       16.624765
  O          -20.890858       -9.211522       13.309361
  O          -19.323815       -7.684634       14.561400
  N          -19.921712      -10.066524       15.475651
  C          -18.413613       -9.367654       17.692369
  C          -21.727453       -8.151148       15.542869
  S           15.827690       12.666500        2.272162
  S           14.871848       13.321824       -0.331137
  F           14.925139       10.126271        2.278780
  F           14.565816       11.246866        4.137491
  F           13.325616       11.632565        2.358099
  F           13.544032       12.213157       -2.345542
  F           15.456305       11.192559       -1.872252
  F           13.713214       10.903515       -0.581896
  O           15.270680       13.890104        2.833952
  O           17.078642       12.127316        2.789967
  O           15.591826       14.134289       -1.305113
  O           13.617557       13.811606        0.228756
  N           15.899103       12.602569        0.675418
  C           14.589256       11.351784        2.772190
  C           14.378926       11.823191       -1.328457
  S           16.089270       -5.168162       -3.850998
  S           15.986129       -2.423018       -4.608490
  F           18.267023       -4.950438       -2.277023
  F           18.260266       -6.691722       -3.621469
  F           18.693380       -4.683696       -4.417292
  F           17.301974       -0.153111       -4.200884
  F           16.451585       -1.032654       -2.350032
  F           18.249753       -1.898295       -3.246798
  O           15.937238       -5.602109       -5.233622
  O           15.498436       -5.947592       -2.770662
  O           14.763000       -1.641778       -4.752413
  O           16.810565       -2.692812       -5.780724
  N           15.768812       -3.627242       -3.565250
  C           17.924730       -5.367162       -3.528953
  C           17.051156       -1.327535       -3.536503
  S           26.444557        0.602556       12.238442
  S           27.656155       -1.955783       12.565828
  F           28.507187        2.026610       13.230931
  F           26.519944        2.646599       13.942362
  F           27.458568        0.820455       14.740658
  F           29.909757       -3.035576       13.463264
  F           30.204728       -1.657686       11.749549
  F           29.811364       -0.852725       13.745603
  O           25.204795        0.143991       12.851452
  O           26.408379        1.579522       11.157724
  O           27.555064       -3.055739       11.613477
  O           27.060880       -2.092593       13.890042
  N           27.479493       -0.542741       11.818942
  C           27.285029        1.559415       13.613307
  C           29.491421       -1.860062       12.891648
  S            8.887453      -15.421204       11.541286
  S            6.541050      -15.258935       13.150108
  F           10.443405      -13.918154       13.149783
  F           10.606702      -13.460907       11.004110
  F            8.850531      -12.781527       12.147526
  F            5.707856      -14.164969       15.421472
  F            7.379261      -15.599803       15.686170
  F            7.768802      -13.602384       14.882736
  O            8.138994      -15.087956       10.336368
  O           10.010544      -16.347260       11.471945
  O            5.611910      -16.358288       13.385092
  O            6.092644      -14.081334       12.416077
  N            8.010434      -15.821280       12.817827
  C            9.727507      -13.808529       11.994957
  C            6.878014      -14.628422       14.874183
  S           -1.668060       17.040309        6.818003
  S           -0.713000       19.375740        5.493665
  F           -4.289777       17.594051        6.522411
  F           -3.708702       16.878794        8.520013
  F           -3.252154       18.946168        7.911224
  F           -1.643966       21.548971        4.285182
  F           -2.266049       19.654786        3.311793
  F           -3.223894       20.295147        5.171740
  O           -0.758007       17.247707        7.936870
  O           -1.997719       15.688678        6.384253
  O            0.434336       19.415453        4.594145
  O           -0.661576       20.098899        6.758976
  N           -1.370333       17.908277        5.507748
  C           -3.311574       17.662317        7.469306
  C           -2.036225       20.253651        4.512915
  S          -11.439276      -11.685099       -0.108072
  S          -13.284246      -10.162206       -1.656339
  F          -10.922910       -9.756185        1.703021
  F           -9.154816      -10.836015        0.963113
  F          -10.132596       -9.320389       -0.301766
  F          -14.380348       -7.744398       -1.709564
  F          -14.850836       -8.893739        0.128931
  F          -12.874563       -7.988535       -0.119834
  O          -10.716997      -12.107152       -1.301076
  O          -11.568400      -12.589820        1.027061
  O          -14.508544      -10.686791       -2.250479
  O          -12.206833       -9.695028       -2.520942
  N          -12.871952      -11.019713       -0.360026
  C          -10.366681      -10.317052        0.592081
  C          -13.876678       -8.622746       -0.783063
  S           -9.637120       12.464424        1.134629
  S           -8.642363        9.858176        1.716164
  F           -7.237791       13.693491        1.129989
  F           -8.831770       14.767059        2.200660
  F           -7.875526       13.007780        3.119154
  F           -6.339197        8.619383        2.175386
  F           -6.460309        9.555890        0.167726
  F           -6.128680       10.799539        1.936989
  O          -10.662011       12.352180        2.164227
  O           -9.912766       13.196434       -0.094964
  O           -9.143996        8.622068        1.126676
  O           -8.804344       10.091600        3.146510
  N           -8.903393       11.101645        0.730577
  C           -8.318990       13.523653        1.942586
  C           -6.797189        9.709183        1.478133
  S          -20.799473       12.800994       10.643643
  S          -22.657170       12.025006        8.626949
  F          -19.583156       10.404184       10.851684
  F          -20.046385       11.382551       12.766852
  F          -21.648650       10.415263       11.604874
  F          -23.331297        9.889609        7.200169
  F          -21.242077       10.558066        6.867405
  F          -21.768489        9.483636        8.699186
  O          -21.851790       13.421428       11.437850
  O          -19.460916       13.376892       10.625559
  O          -23.061473       12.856837        7.499257
  O          -23.639275       11.659875        9.641228
  N          -21.188167       12.436375        9.135416
  C          -20.515524       11.158295       11.499879
  C          -22.214973       10.407161        7.808071
  S            6.541012       19.501729        6.954289
  S            7.812191       17.056550        7.679173
  F            8.702884       21.069679        7.322056
  F            6.822315       21.871128        8.134949
  F            7.878336       20.249639        9.187891
  F           10.176759       16.158762        8.487170
  F           10.225390       17.115773        6.486127
  F           10.094215       18.351329        8.286995
  O            5.399269       19.215183        7.813001
  O            6.350367       20.214934        5.697820
  O            7.596099       15.774839        7.017647
  O            7.400890       17.228855        9.067609
  N            7.522435       18.271736        6.666701
  C            7.547820       20.723176        7.957600
  C            9.673447       17.186059        7.728935
  S           19.527137       -1.845289        7.950771
  S           18.785927       -4.596763        7.934916
  F           17.081844       -0.892379        8.567144
  F           18.132434        0.200686        6.973053
  F           17.211179       -1.754963        6.549000
  F           16.647146       -6.125885        8.305686
  F           17.206563       -4.931675       10.089874
  F           16.208158       -3.968796        8.397839
  O           20.217987       -1.977435        6.674709
  O           20.038221       -0.935923        8.968399
  O           19.605237       -5.685387        8.455227
  O           18.495295       -4.532887        6.507308
  N           19.140762       -3.216121        8.678997
  C           17.896543       -1.047341        7.485291
  C           17.127413       -4.912483        8.730639
  S            6.447299       -4.200187       -1.221430
  S            7.548348       -1.609929       -0.775886
  F            8.669596       -5.274698       -2.305050
  F            6.797188       -5.749688       -3.357727
  F            7.711787       -3.757413       -3.575534
  F            9.818881       -0.279979       -1.130816
  F           10.016802       -2.034689        0.212399
  F            9.864053       -2.324418       -1.950852
  O            5.251118       -3.636043       -1.832958
  O            6.357006       -5.417244       -0.424976
  O            7.296443       -0.786588        0.401292
  O            7.079352       -1.161861       -2.081984
  N            7.374196       -3.169175       -0.423523
  C            7.467846       -4.759482       -2.690410
  C            9.409195       -1.571924       -0.914905
  S           10.042471       -7.657225       18.604399
  S           12.471127       -7.975091       17.148090
  F           10.036425       -4.961658       18.568480
  F            9.532599       -5.868079       20.508638
  F           11.624644       -5.825153       19.819728
  F           14.359804       -6.501696       16.002632
  F           12.342383       -6.195163       15.131738
  F           12.844392       -5.309043       17.068154
  O           10.474556       -8.607924       19.620542
  O            8.636312       -7.574828       18.230704
  O           12.710032       -8.997154       16.135465
  O           13.237679       -7.997054       18.388464
  N           10.901887       -7.640858       17.255357
  C           10.339744       -5.990992       19.409088
  C           13.021384       -6.410394       16.292249
  S            0.561687       13.384675       -4.279990
  S            2.758067       11.629061       -4.742576
  F            0.616930       14.559554       -6.705688
  F            0.363035       15.937233       -5.009459
  F            2.340671       15.066730       -5.438733
  F            4.506570       11.022029       -6.646339
  F            2.396562       10.659587       -7.228502
  F            3.182103       12.700951       -7.176662
  O            1.106141       13.799980       -2.993846
  O           -0.880091       13.279651       -4.464295
  O            2.830055       10.244399       -4.290222
  O            3.687384       12.613254       -4.200037
  N            1.227240       12.083855       -4.930902
  C            1.007777       14.801732       -5.422434
  C            3.223445       11.498443       -6.545319
  S          -20.276632        8.785548        2.329383
  S          -19.705077        6.131466        1.463693
  F          -22.702657        8.233294        3.367084
  F          -22.603686       10.066845        2.155495
  F          -22.627158        8.094640        1.174195
  F          -20.813667        3.718852        1.443951
  F          -20.484656        4.529612        3.482781
  F          -22.134320        5.282866        2.258794
  O          -19.881372        9.339260        1.040877
  O          -20.022883        9.531969        3.555021
  O          -18.399572        5.487252        1.551683
  O          -20.283853        6.410358        0.154552
  N          -19.853575        7.265718        2.593805
  C          -22.148902        8.778283        2.247042
  C          -20.845036        4.856496        2.211001
  S            4.758906      -11.507269       17.884711
  S            4.410357       -8.788209       18.662834
  F            3.625012      -11.257648       15.451733
  F            3.016197      -13.042888       16.583949
  F            2.199615      -11.066891       17.114724
  F            3.406502       -6.518549       17.718913
  F            5.075126       -7.327398       16.500772
  F            3.090155       -8.239711       16.380347
  O            4.225741      -11.985862       19.153473
  O            5.821808      -12.244373       17.213416
  O            5.386951       -8.000617       19.406513
  O            3.124782       -9.104997       19.274027
  N            5.139982       -9.954652       17.830493
  C            3.321231      -11.712835       16.700202
  C            3.979243       -7.667594       17.233889
  S            4.126798        5.673051       13.117258
  S            4.937933        6.816274       15.598256
  F            5.561869        7.334182       11.552451
  F            3.499604        6.970009       10.878583
  F            3.884229        8.316602       12.579126
  F            6.475865        8.771339       16.526995
  F            7.586621        7.241517       15.365843
  F            6.354793        8.721948       14.327647
  O            2.725176        5.692288       13.514951
  O            4.634995        4.593166       12.281014
  O            5.238074        6.059234       16.808174
  O            3.794734        7.721468       15.580019
  N            5.187145        5.914647       14.290321
  C            4.281600        7.159748       11.986773
  C            6.419667        7.939617       15.436736
  S           30.883035      -14.095173       17.114293
  S           29.329420      -11.807505       16.426466
  F           33.276220      -13.007836       16.516151
  F           32.983378      -15.066591       15.798220
  F           32.012664      -13.385322       14.756999
  F           29.648658       -9.339600       15.500402
  F           30.660480       -9.698619       17.441981
  F           31.525751      -10.489335       15.594550
  O           30.005824      -14.975627       16.353783
  O           31.507102      -14.568204       18.343318
  O           28.163650      -11.336689       17.165660
  O           29.167313      -12.300156       15.063517
  N           30.320976      -12.623897       17.393965
  C           32.358056      -13.862091       15.981944
  C           30.352268      -10.257592       16.239190
  S           20.423474        2.185865        5.256482
  S           22.143865       -0.055943        5.623631
  F           22.351721        3.904751        4.485314
  F           20.909607        4.713379        5.936548
  F           22.482483        3.321399        6.601037
  F           24.712712       -0.698095        5.426820
  F           23.810980       -0.040867        3.509181
  F           24.311349        1.434434        5.045426
  O           19.786819        1.966098        6.548553
  O           19.645550        2.697565        4.135448
  O           21.813715       -1.429950        5.262796
  O           22.336679        0.293927        7.026138
  N           21.323371        0.981796        4.709508
  C           21.616088        3.592598        5.589649
  C           23.827295        0.179476        4.852809
  S          -14.951043       -6.920374       10.284177
  S          -12.680472       -6.758438        8.569961
  F          -13.759622       -5.830868       12.443089
  F          -14.978636       -7.615509       12.853840
  F          -12.993046       -7.824705       11.922840
  F          -10.152809       -5.946902        8.618910
  F          -11.615204       -4.324985        9.010311
  F          -11.161249       -5.789130       10.571444
  O          -15.189930       -8.308562        9.911429
  O          -16.073690       -6.036465       10.570687
  O          -12.725211       -6.404130        7.155903
  O          -12.260110       -8.098124        8.963853
  N          -13.928432       -6.115410        9.354081
  C          -14.111845       -7.053747       11.954562
  C          -11.341291       -5.640120        9.232896
  S           23.608132      -13.838665        2.597182
  S           21.453339      -14.784651        0.990251
  F           25.412259      -13.689003        0.599650
  F           26.160165      -14.584776        2.464558
  F           24.849028      -15.747140        1.129297
  F           20.933329      -15.434130       -1.531223
  F           21.534784      -13.315261       -1.264667
  F           23.041846      -14.899180       -1.181628
  O           23.366292      -14.863324        3.604485
  O           24.075109      -12.517016        2.995801
  O           20.062913      -14.366358        1.127524
  O           21.820758      -16.167330        1.272764
  N           22.445004      -13.634192        1.518246
  C           25.072244      -14.506126        1.636400
  C           21.764035      -14.588424       -0.839636
  S          -13.989263      -10.711157       10.511764
  S          -16.552750      -11.722852        9.787017
  F          -12.792541      -11.246245        8.156145
  F          -11.619043      -11.779362        9.938935
  F          -13.311155      -13.043052        9.312090
  F          -17.778138      -12.859969        7.724141
  F          -17.002129      -10.827828        7.287539
  F          -15.626301      -12.525980        7.389058
  O          -14.007675      -11.441054       11.772711
  O          -13.353703       -9.402078       10.433690
  O          -17.825692      -11.114661       10.156905
  O          -16.204966      -13.039445       10.308784
  N          -15.388229      -10.614878        9.742087
  C          -12.884881      -11.756799        9.416684
  C          -16.741668      -11.988997        7.949356
  S           22.440973       -6.761772        4.622251
  S           23.827713       -9.110244        3.796490
  F           23.907670       -5.033714        3.162792
  F           23.503537       -4.397619        5.229604
  F           25.016261       -5.947660        4.826947
  F           25.847944       -9.831109        2.231535
  F           24.188849       -8.839903        1.141892
  F           25.568819       -7.648949        2.351950
  O           22.521692       -7.152276        6.023702
  O           21.271962       -6.045002        4.128919
  O           23.198217      -10.393804        3.507865
  O           24.741918       -8.994353        4.926716
  N           22.789893       -7.905087        3.559300
  C           23.797970       -5.481300        4.445673
  C           24.906858       -8.834411        2.298864
  S          -17.616597       12.036464        0.727106
  S          -17.562503       14.270401       -1.041183
  F          -20.238994       12.208700        1.327752
  F          -18.911746       11.852880        3.045732
  F          -19.035613       13.858409        2.142625
  F          -19.191752       16.122476       -2.023747
  F          -19.780518       14.049581       -2.551827
  F          -20.151652       14.812300       -0.535035
  O          -16.431984       12.508420        1.432104
  O          -17.843342       10.607456        0.553195
  O          -16.806584       14.331279       -2.286966
  O          -17.210715       15.160618        0.058986
  N          -17.923787       12.747486       -0.672487
  C          -19.025728       12.529030        1.860224
  C          -19.264163       14.831440       -1.563785
  S           26.248365        9.011213       -5.295815
  S           24.634580        6.903104       -4.260525
  F           28.306564        7.447891       -6.062138
  F           28.880839        9.301378       -5.025581
  F           28.076551        7.599631       -3.880910
  F           24.698609        4.268634       -3.935666
  F           24.815280        4.906024       -6.057583
  F           26.567044        5.095015       -4.760456
  O           26.041939        9.817431       -4.099791
  O           26.369387        9.653037       -6.598557
  O           23.186716        6.809659       -4.409026
  O           25.212417        7.082803       -2.933715
  N           25.273133        7.754711       -5.465826
  C           27.959413        8.288395       -5.046662
  C           25.213475        5.210012       -4.791413
  S           32.226783        9.730608       10.809089
  S           29.955347        8.010904       10.750347
  F           30.870587       12.014074       10.346574
  F           32.729493       11.785183        9.192567
  F           30.927551       10.654859        8.619445
  F           27.326202        8.130587       10.399155
  F           28.043435        9.291758       12.148346
  F           28.335638       10.069597       10.124361
  O           32.971207        8.852428        9.915944
  O           32.920763       10.462677       11.860844
  O           29.744722        6.874865       11.640373
  O           30.137835        7.782442        9.321671
  N           30.898739        9.109757       11.449108
  C           31.643411       11.109254        9.681596
  C           28.336548        8.932398       10.868073
  S           -8.472528       -2.075570       14.277430
  S           -8.414300       -3.940436       12.123565
  F           -6.461764       -0.525892       13.370384
  F           -6.383633       -0.988974       15.519594
  F           -5.810640       -2.516468       14.039210
  F           -7.078888       -4.406400        9.876430
  F           -8.140568       -2.458326        9.892239
  F           -6.287115       -2.703566       11.028682
  O           -8.495297       -3.147319       15.264298
  O           -9.194218       -0.834679       14.528577
  O           -9.592016       -4.532751       11.499673
  O           -7.482746       -4.790501       12.855829
  N           -8.773690       -2.511791       12.768195
  C           -6.686564       -1.507740       14.288855
  C           -7.431896       -3.334163       10.656991
  S          -18.282828        0.177145        3.885319
  S          -20.864660       -1.021382        4.019210
  F          -16.917603       -2.120022        3.529519
  F          -16.032386       -0.726503        4.983531
  F          -17.801725       -1.918682        5.532386
  F          -21.998510       -3.419668        3.906631
  F          -20.908317       -2.863744        2.056000
  F          -19.797486       -3.487283        3.834816
  O          -18.540184        0.971896        5.079141
  O          -17.469447        0.721544        2.805614
  O          -22.075434       -0.465003        3.426280
  O          -20.760096       -1.136633        5.469174
  N          -19.561741       -0.518273        3.222330
  C          -17.217681       -1.229511        4.516989
  C          -20.883930       -2.787296        3.415306
  S           -1.023972      -12.865992        6.213463
  S           -2.576147      -11.180927        7.908031
  F           -1.681318      -15.180461        7.429412
  F            0.452539      -14.957621        6.942945
  F           -0.409755      -13.869377        8.653286
  F           -4.193467      -11.347584       10.007214
  F           -4.929834      -12.449146        8.227682
  F           -3.302840      -13.279032        9.432303
  O            0.142132      -12.002667        6.347422
  O           -1.280817      -13.558483        4.957196
  O           -3.342140      -10.023553        7.459885
  O           -1.437022      -10.989922        8.798269
  N           -2.410789      -12.246358        6.715031
  C           -0.655733      -14.283730        7.382499
  C           -3.815677      -12.121594        8.938679
  S           12.296954       -9.188300       -1.445342
  S           14.934906      -10.077724       -0.836751
  F           13.043944       -7.104697       -2.984178
  F           11.433049       -6.672367       -1.549688
  F           13.515925       -6.843121       -0.852864
  F           17.461481       -9.432878       -1.337409
  F           16.296274       -9.940724       -3.155868
  F           16.009939       -8.004469       -2.178187
  O           11.900840       -9.260780       -0.045016
  O           11.335262       -9.501312       -2.494576
  O           15.348325      -11.474212       -0.759289
  O           14.959949       -9.251461        0.364613
  N           13.672051       -9.915199       -1.818848
  C           12.605187       -7.360111       -1.719105
  C           16.234975       -9.323795       -1.943518
  S            9.526506       -3.436570        5.433946
  S           10.403988       -1.993454        7.729092
  F            6.898512       -3.352541        6.028918
  F            7.634626       -5.307044        5.337754
  F            8.071559       -4.623755        7.385997
  F            9.409596       -0.827558        9.897487
  F            8.676863        0.054713        7.998248
  F            7.890110       -1.867080        8.687203
  O           10.531087       -4.470806        5.644296
  O            9.139506       -3.057249        4.081146
  O           11.471708       -0.999948        7.733076
  O           10.573859       -3.236316        8.472765
  N            9.726490       -2.090034        6.273962
  C            7.954204       -4.212288        6.096029
  C            9.017034       -1.111484        8.613406
  S           14.196233       13.079553       10.755646
  S           12.686849       15.480557       11.033477
  F           14.579287       13.287011        8.095263
  F           14.011553       11.282070        8.800630
  F           12.494691       12.873282        8.658268
  F           11.749594       17.473167        9.549858
  F           13.962404       17.313641        9.529098
  F           12.752816       15.902818        8.374366
  O           13.223558       12.324527       11.534692
  O           15.614081       12.754205       10.842695
  O           12.803911       16.416604       12.145776
  O           11.442018       14.746595       10.837749
  N           14.061377       14.671854       10.827553
  C           13.789646       12.620917        8.984610
  C           12.805192       16.596109        9.541814
  S          -12.114903       14.041421       19.797541
  S          -13.816402       13.714949       17.535115
  F           -9.804081       13.579015       18.488462
  F           -9.989003       12.571403       20.435299
  F          -11.080186       11.799426       18.684167
  F          -13.664629       13.155885       14.943884
  F          -12.591973       15.011341       15.517557
  F          -11.720784       13.057510       15.976368
  O          -12.954140       13.171291       20.610946
  O          -11.437652       15.180190       20.404383
  O          -14.992097       14.529497       17.249901
  O          -13.977941       12.296727       17.833718
  N          -12.757525       14.540235       18.420224
  C          -10.680915       12.937078       19.311402
  C          -12.891953       13.743659       15.913975
  S            5.394690       18.849594       13.923459
  S            7.421085       20.845688       14.095456
  F            3.316196       20.560957       13.787426
  F            3.028238       18.852325       15.142900
  F            4.313841       20.536380       15.746452
  F            7.668391       23.488720       14.152804
  F            6.741174       22.722624       12.288461
  F            5.573918       22.805222       14.137143
  O            5.964591       18.110390       15.042326
  O            4.761659       18.135793       12.821878
  O            8.717954       20.778560       13.431589
  O            7.355275       20.818204       15.552002
  N            6.328050       19.983909       13.290256
  C            3.948505       19.760790       14.691898
  C            6.811171       22.549080       13.637215
  S            4.272230       18.678058        0.316233
  S            1.989065       20.378059        0.448161
  F            2.900384       16.377212        0.013660
  F            4.563775       16.287364        1.450569
  F            2.678389       17.283094        2.004584
  F           -0.660758       20.229430        0.368051
  F            0.326781       19.505935       -1.482282
  F            0.328718       18.261540        0.317276
  O            4.861513       19.302703        1.493364
  O            5.126364       18.205001       -0.765614
  O            1.893883       21.697723       -0.165452
  O            1.954083       20.254992        1.900829
  N            3.043587       19.459700       -0.345774
  C            3.551112       17.081672        0.982391
  C            0.421013       19.543237       -0.124385
  S            3.198836       15.916114       -2.828021
  S            3.488820       18.559475       -3.852131
  F            0.503082       15.908116       -2.812066
  F            1.447308       15.081823       -1.005044
  F            1.391545       17.260872       -1.323991
  F            1.993820       20.612104       -4.627859
  F            1.669545       18.772978       -5.825719
  F            0.821840       18.932806       -3.815052
  O            4.169477       16.170445       -1.771496
  O            3.108636       14.594617       -3.435666
  O            4.490853       18.971590       -4.828443
  O            3.535425       19.102042       -2.499333
  N            3.156235       16.994074       -4.009108
  C            1.548847       16.065929       -1.952053
  C            1.907782       19.243574       -4.570357
  S           10.582651      -10.211019        7.844596
  S           12.734507       -9.399696        6.161884
  F           10.648929      -12.817478        7.159479
  F            8.638167      -11.929741        7.251201
  F            9.959936      -11.496153        5.542979
  F           14.442002      -10.430787        4.409349
  F           14.626406      -11.294748        6.444533
  F           12.963321      -11.885736        5.151548
  O            9.745881       -9.112121        7.380577
  O           10.488445      -10.669777        9.224591
  O           13.757338       -8.425604        6.525283
  O           11.803931       -9.097534        5.080524
  N           12.135677      -10.108016        7.475436
  C            9.936334      -11.687509        6.888312
  C           13.741073      -10.833663        5.518391
  S           -6.558491      -12.002051       -0.277917
  S           -4.476443      -11.183841        1.487263
  F           -5.416277      -14.331804       -1.009356
  F           -6.284339      -13.162387       -2.658169
  F           -4.363770      -12.555862       -1.765626
  F           -2.124877      -12.029989        2.384055
  F           -3.807950      -13.385862        2.885339
  F           -3.002986      -13.346702        0.851272
  O           -6.585982      -10.696083       -0.923492
  O           -7.790647      -12.762579       -0.113273
  O           -4.681457      -10.519280        2.769223
  O           -3.809101      -10.470245        0.404650
  N           -5.755532      -12.079559        1.103397
  C           -5.591351      -13.064876       -1.480943
  C           -3.300989      -12.566540        1.923125
  S           12.922232       -3.147115       15.666763
  S           13.554445       -3.701230       18.389540
  F           13.268699       -0.478557       15.828525
  F           11.471080       -1.119399       14.734203
  F           11.515482       -1.210669       16.934837
  F           14.256632       -2.427610       20.611001
  F           15.710762       -2.189925       18.952260
  F           13.827902       -1.075916       18.924779
  O           11.721544       -3.970096       15.730972
  O           13.699233       -3.081919       14.435609
  O           14.327454       -4.848854       18.850529
  O           12.149780       -3.582103       18.762820
  N           13.951941       -3.321508       16.878400
  C           12.263333       -1.399007       15.815756
  C           14.385320       -2.270678       19.253653
  S            5.015406       14.371639       12.294776
  S            4.075216       11.794536       11.523520
  F            7.633913       13.730781       12.306271
  F            6.959044       14.920776       14.029094
  F            6.482677       12.772906       13.915872
  F            5.015023        9.380339       10.941731
  F            5.742364       10.970535        9.576205
  F            6.574804       10.794077       11.591853
  O            4.037657       14.455780       13.371809
  O            5.405496       15.571658       11.565733
  O            2.980510       11.549396       10.591522
  O            3.932161       11.404231       12.921308
  N            4.769844       13.212659       11.219953
  C            6.601714       13.908473       13.178706
  C            5.428271       10.687142       10.870496
  S          -18.842915        0.662460        8.145687
  S          -16.158780        0.042222        8.874368
  F          -18.224960        2.664119        6.448955
  F          -19.899543        3.083163        7.812710
  F          -17.827373        3.139379        8.558395
  F          -13.679367        0.844613        8.365695
  F          -14.756073        0.094932        6.576536
  F          -15.217918        2.076466        7.380995
  O          -19.266249        0.675121        9.539854
  O          -19.750981        0.186730        7.109918
  O          -15.638642       -1.305106        9.077487
  O          -16.228332        0.964946       10.001469
  N          -17.406092        0.020153        7.859746
  C          -18.673068        2.480384        7.723158
  C          -14.895448        0.803689        7.730828
  S           -9.041767       20.785887        6.616868
  S          -11.825111       21.335028        6.349119
  F           -8.526280       22.763852        8.374518
  F           -7.059250       22.557758        6.748172
  F           -9.020210       23.481865        6.356060
  F          -13.656770       23.030575        7.254773
  F          -12.711331       21.808830        8.847222
  F          -11.619110       23.483924        7.959504
  O           -8.871586       20.710316        5.171737
  O           -8.254631       19.926554        7.491902
  O          -12.870049       20.322696        6.247222
  O          -11.564543       22.217594        5.217838
  N          -10.552111       20.756199        7.142946
  C           -8.394512       22.491671        7.045343
  C          -12.478524       22.469370        7.679472
  S          -18.229960        8.067997        9.608448
  S          -18.181895        7.759085       12.440852
  F          -20.101588        6.183831        9.145488
  F          -18.374973        6.135594        7.783090
  F          -18.180864        5.369665        9.839487
  F          -19.331413        6.309335       14.345294
  F          -20.760308        7.551335       13.188531
  F          -19.939913        5.722928       12.310573
  O          -16.775521        8.022512        9.533531
  O          -18.983512        8.912563        8.690522
  O          -18.066779        8.853117       13.398420
  O          -17.109276        6.776528       12.337485
  N          -18.846102        8.274516       11.070124
  C          -18.749492        6.345551        9.083574
  C          -19.635714        6.789181       13.096001
  S          -12.140068       11.511856       -2.368959
  S           -9.806598       13.076452       -2.845624
  F          -10.841238        9.202072       -1.873635
  F          -12.598391        9.019520       -3.184643
  F          -10.716737        9.853931       -3.969646
  F           -7.165028       12.815662       -2.910142
  F           -8.055075       12.363514       -0.928782
  F           -8.224361       10.915732       -2.560407
  O          -12.781425       12.018998       -3.575003
  O          -12.938320       11.210691       -1.187514
  O           -9.619992       14.453783       -2.403773
  O           -9.872712       12.780321       -4.272000
  N          -10.840950       12.308732       -1.883098
  C          -11.526967        9.815966       -2.879150
  C           -8.237539       12.243687       -2.272844
  S           15.061114       20.509244        9.273038
  S           16.411812       18.012347        9.520768
  F           17.285045       22.026062        9.128815
  F           15.707443       22.809667       10.446687
  F           16.959350       21.121075       11.105835
  F           18.880564       17.041253        9.631715
  F           18.426127       18.100710        7.736076
  F           18.807469       19.242207        9.563231
  O           14.178631       20.193921       10.388774
  O           14.565520       21.289644        8.146502
  O           15.994524       16.770018        8.880782
  O           16.385647       18.117526       10.975026
  N           15.898493       19.282611        8.678945
  C           16.329302       21.662707       10.030303
  C           18.223217       18.113552        9.082485
  S           15.153990        3.318534        3.315093
  S           13.633325        4.611413        5.348881
  F           17.149559        2.493448        4.928891
  F           17.798747        3.360281        3.014000
  F           17.092523        4.671808        4.637033
  F           13.730473        5.098439        7.957221
  F           13.676944        2.937456        7.457522
  F           15.525351        4.076985        7.189576
  O           15.040578        4.472984        2.433358
  O           15.169639        1.971834        2.758430
  O           12.178524        4.584338        5.448465
  O           14.313873        5.874033        5.085713
  N           14.171988        3.307210        4.577759
  C           16.881471        3.477235        4.024212
  C           14.173254        4.146009        7.073815
  S           29.987681       13.787050        7.481767
  S           28.039956       15.755195        6.808698
  F           31.935455       14.753376        5.888093
  F           31.680416       12.569145        5.826927
  F           30.245752       13.878088        4.786977
  F           27.766140       17.895062        5.260776
  F           29.360931       18.101479        6.789319
  F           29.702793       16.874872        5.010135
  O           29.029107       12.706953        7.287859
  O           31.010607       13.680475        8.514232
  O           27.111151       16.367677        7.751716
  O           27.525676       14.911204        5.736407
  N           29.369846       15.260183        7.565063
  C           31.004732       13.757628        5.907928
  C           28.765758       17.231588        5.927222
  S            9.745583       12.961973        8.575799
  S           10.072771       10.168467        8.118065
  F            9.289917       12.767652       11.225708
  F            7.943764       14.133037       10.147167
  F            7.665630       11.953514        9.987743
  F           10.025860        7.872954        9.451664
  F           11.594558        9.276638       10.152568
  F            9.501603        9.617051       10.691630
  O            8.833579       13.086146        7.446241
  O           10.655582       14.051798        8.904287
  O           11.057369        9.579419        7.217685
  O            8.651657       10.028147        7.822503
  N           10.578517       11.598451        8.652012
  C            8.602443       12.935432       10.060640
  C           10.316451        9.192853        9.690426
  S           -3.564829       11.271184        9.148338
  S           -5.573371       10.198193       10.861434
  F           -4.106162        9.681307        7.039629
  F           -1.968446        9.920771        7.500587
  F           -3.227686        8.613446        8.748909
  F           -7.472617        8.342711       10.850410
  F           -7.764848        9.923388        9.321205
  F           -6.260054        8.365728        9.011009
  O           -2.556403       11.175167       10.195684
  O           -3.524739       12.371014        8.193096
  O           -6.399622       10.981804       11.772674
  O           -4.626664        9.228856       11.400642
  N           -5.082359       11.101074        9.624727
  C           -3.210404        9.785911        8.061797
  C           -6.831269        9.160220        9.953785
  S           28.124263      -10.963291       -1.792823
  S           26.445411      -12.681156       -3.326004
  F           26.263064      -10.306298        0.043398
  F           27.466145       -8.623862       -0.706040
  F           25.864541       -9.478550       -1.954025
  F           23.950181      -13.588487       -3.351409
  F           25.082579      -14.151532       -1.528483
  F           24.328635      -12.110897       -1.761524
  O           28.585764      -10.271719       -2.989409
  O           29.030310      -11.164995       -0.669384
  O           26.867195      -13.940180       -3.929371
  O           26.051648      -11.568362       -4.182305
  N           27.347898      -12.339929       -2.039608
  C           26.851234       -9.791190       -1.073236
  C           24.875905      -13.156580       -2.434854
  S           23.321513       -2.615030       18.931188
  S           25.512825       -1.166090       17.827117
  F           21.446431       -0.754259       18.393596
  F           21.329004       -1.640775       20.403559
  F           22.878348       -0.143046       19.945922
  F           26.020631        1.151742       16.635541
  F           24.603157       -0.133638       15.512610
  F           23.927838        0.944723       17.292500
  O           24.069430       -2.908399       20.146765
  O           22.376500       -3.589393       18.400824
  O           26.599490       -1.756286       17.053861
  O           25.796550       -0.563616       19.124475
  N           24.180418       -2.057620       17.702223
  C           22.197234       -1.204098       19.438628
  C           24.978059        0.267727       16.758606
  S           26.846642        8.022936       -1.227344
  S           27.105561        5.237288       -0.685699
  F           28.965572        8.800581        0.246703
  F           27.158340       10.030601        0.492909
  F           27.283308        8.048290        1.445757
  F           28.652746        3.570136        0.684298
  F           29.737582        4.704665       -0.883626
  F           29.168889        5.690878        0.984770
  O           25.420921        7.994654       -0.928024
  O           27.358642        8.908735       -2.265099
  O           26.889929        4.173523       -1.659865
  O           26.213085        5.355046        0.461573
  N           27.546098        6.597512       -1.421533
  C           27.605767        8.747085        0.325578
  C           28.757167        4.786741        0.057758
  S           -9.297863       15.444417       17.050470
  S           -9.332406       13.450730       15.014723
  F           -9.812750       17.528825       15.420273
  F           -8.223344       17.875524       16.901233
  F           -7.823263       16.642568       15.119984
  F           -9.677489       13.233199       12.391049
  F          -11.445670       14.046636       13.456067
  F           -9.698532       15.316621       13.107387
  O           -8.047739       14.930959       17.595101
  O          -10.306217       16.007497       17.939225
  O           -9.906609       12.118027       15.160633
  O           -7.895301       13.597952       14.815553
  N          -10.050056       14.488243       16.011858
  C           -8.761111       16.940417       16.057441
  C          -10.084609       14.050774       13.415455
  S           28.153458       -1.177507       -1.725012
  S           29.385730       -1.904849       -4.189302
  F           27.321789        1.258068       -2.527325
  F           28.235080        1.198379       -0.526828
  F           29.504654        1.092339       -2.324056
  F           29.821563       -0.911480       -6.612799
  F           27.670527       -1.124094       -6.112553
  F           28.838762        0.510844       -5.247028
  O           29.323809       -1.595541       -0.964354
  O           26.818501       -1.349108       -1.166297
  O           29.338047       -3.234637       -4.786367
  O           30.661980       -1.364218       -3.735963
  N           28.104252       -1.660514       -3.249171
  C           28.320006        0.687867       -1.794805
  C           28.892782       -0.797795       -5.608794
  S           25.934366       -6.841486       -3.949793
  S           27.090688       -5.556497       -6.215179
  F           24.421960       -4.749297       -3.173406
  F           25.492759       -5.777410       -1.549821
  F           26.580373       -4.426150       -2.907866
  F           27.031904       -3.219364       -7.473918
  F           25.066373       -4.246741       -7.413965
  F           25.834273       -3.248584       -5.624847
  O           27.236346       -7.312380       -3.495720
  O           24.747062       -7.660418       -3.741516
  O           27.342475       -6.197539       -7.500778
  O           28.214262       -5.095702       -5.407799
  N           25.878975       -6.283789       -5.448020
  C           25.596230       -5.361715       -2.850626
  C           26.199088       -3.991004       -6.702832
  S            2.603721      -12.771874       -1.337702
  S            2.120210      -10.259570       -2.592610
  F            1.657288      -12.069095        1.086709
  F            3.551565      -13.187382        1.115069
  F            3.533579      -11.059783        0.544023
  F            1.150151       -7.855719       -2.017672
  F           -0.323143       -9.494298       -1.759075
  F            1.255479       -9.197733       -0.273500
  O            3.960757      -12.825427       -1.865586
  O            1.829906      -13.997146       -1.183949
  O            1.630648      -10.087360       -3.955610
  O            3.461289       -9.803531       -2.245988
  N            1.643478      -11.674136       -1.994727
  C            2.846270      -12.227558        0.439125
  C            0.986311       -9.154242       -1.604660
  S           23.091508       14.638030        1.525779
  S           23.308700       15.794101        4.121271
  F           25.628605       13.735426        1.399881
  F           24.899109       14.720516       -0.426889
  F           25.465662       15.926741        1.327287
  F           25.099612       16.125492        6.053337
  F           24.663022       13.997784        5.600951
  F           25.924834       15.167197        4.249199
  O           22.467864       15.841996        0.992294
  O           22.696546       13.327118        1.026543
  O           22.271179       15.748563        5.145269
  O           23.693291       17.076005        3.542113
  N           23.171250       14.542921        3.120575
  C           24.867336       14.769072        0.941408
  C           24.827719       15.231316        5.048297
  S            5.801088      -10.692975       11.243748
  S            4.257802       -8.814056        9.757752
  F            4.409633      -10.455460       13.540451
  F            6.596946      -10.475181       13.774818
  F            5.582431       -8.667575       13.028888
  F            2.177100       -7.194784       10.071922
  F            1.690239       -9.337711       10.377270
  F            2.769192       -8.229519       11.924753
  O            7.049447      -10.083491       10.804200
  O            5.724040      -12.133220       11.452265
  O            3.876674       -8.967291        8.358340
  O            5.158814       -7.734716       10.144814
  N            4.489679      -10.250851       10.441555
  C            5.575816      -10.025776       12.980505
  C            2.639204       -8.382640       10.580883
  S            8.188950       -9.469556        2.021470
  S            9.713442      -11.761436        1.284271
  F            9.451045       -9.025399        4.361822
  F            7.258171       -8.868896        4.442213
  F            8.221568      -10.848032        4.352891
  F           11.696479      -13.265018        2.209946
  F           12.268842      -11.148398        1.871225
  F           11.062436      -11.690141        3.614220
  O            6.936538      -10.147728        1.713863
  O            8.323894       -8.038519        1.781383
  O           10.170869      -12.060593       -0.067898
  O            8.743905      -12.640469        1.927630
  N            9.516287      -10.177265        1.477315
  C            8.295180       -9.572434        3.889720
  C           11.266541      -11.964721        2.299201
  S           18.799820       -0.762478       13.108140
  S           16.635621       -2.609919       13.261298
  F           17.877124        0.583981       10.962659
  F           20.022785        0.101592       10.907031
  F           18.527672       -1.466026       10.506652
  F           14.370355       -3.192732       12.004731
  F           14.409039       -1.148326       12.865729
  F           15.522073       -1.585134       11.033439
  O           19.781230       -1.832892       13.226982
  O           19.066057        0.542768       13.699045
  O           16.022654       -3.077368       14.499384
  O           17.352277       -3.553639       12.411351
  N           17.291992       -1.156654       13.468501
  C           18.793017       -0.376327       11.274273
  C           15.160693       -2.095591       12.239742
  S           23.335707       -6.105194       16.117004
  S           21.905538       -7.700256       17.996005
  F           25.142070       -7.993049       15.453329
  F           25.975023       -5.985000       15.790346
  F           25.371717       -7.232112       17.503187
  F           21.953417      -10.141050       19.040178
  F           21.649641      -10.119842       16.842525
  F           23.636281       -9.738831       17.676205
  O           23.405526       -4.988238       17.050068
  O           23.205283       -5.856537       14.687011
  O           20.455990       -7.702960       18.156931
  O           22.749905       -7.216791       19.082246
  N           22.307870       -7.269551       16.499891
  C           25.038083       -6.880148       16.233579
  C           22.309666       -9.518059       17.870327
  S           23.278049        1.722840        1.138515
  S           25.500131       -0.053997        0.978972
  F           21.765443        0.150108        2.721532
  F           20.696359        1.080858        1.039148
  F           22.028819       -0.637523        0.685861
  F           26.257178       -2.442828        1.856714
  F           25.863141       -0.982829        3.480150
  F           24.192980       -1.916803        2.419403
  O           23.278092        1.924636       -0.304521
  O           22.912655        2.816303        2.029888
  O           26.899872        0.354874        1.004362
  O           24.950835       -0.667955       -0.224332
  N           24.582399        1.022227        1.743984
  C           21.881369        0.503082        1.409998
  C           25.444266       -1.412336        2.257767
  S           26.465073        8.761659       14.123834
  S           24.756298        9.205759       16.360598
  F           27.391901        6.365807       14.941326
  F           28.922208        7.737669       14.156591
  F           28.088504        8.049402       16.171747
  F           24.027938        8.026645       18.625383
  F           23.529320        6.851551       16.810736
  F           25.593846        6.929259       17.530893
  O           27.027627       10.101541       14.230237
  O           26.287596        8.144742       12.815539
  O           23.427728        9.803375       16.290928
  O           25.824420        9.904774       17.065657
  N           25.131638        8.497001       14.966857
  C           27.776222        7.673107       14.903686
  C           24.463178        7.666480       17.374611
  S           20.691349       20.016132        4.546865
  S           21.891578       21.434077        6.707682
  F           18.469226       19.280975        5.884444
  F           19.393097       17.695312        4.671271
  F           20.296817       18.284509        6.592008
  F           21.410877       22.057833        9.243411
  F           19.902213       22.860981        7.828739
  F           19.882439       20.738911        8.361052
  O           21.930450       19.302111        4.267804
  O           19.800920       20.389900        3.455464
  O           22.622992       22.689302        6.579068
  O           22.595732       20.230695        7.135060
  N           20.819334       21.279751        5.519318
  C           19.665081       18.761164        5.487107
  C           20.700670       21.791741        8.099564
  S           17.199708        2.857283       -2.973229
  S           14.632188        2.055708       -3.914275
  F           16.699869        5.506260       -2.995332
  F           18.651517        4.920082       -3.824259
  F           16.814508        4.611887       -5.000486
  F           12.321671        3.123962       -4.669532
  F           12.862749        3.571958       -2.565026
  F           13.867460        4.622194       -4.200414
  O           17.871868        1.993900       -3.935437
  O           17.777690        3.069487       -1.652386
  O           13.892739        0.893323       -3.435558
  O           15.102367        2.091995       -5.294213
  N           15.633601        2.596385       -2.778241
  C           17.332585        4.559864       -3.745103
  C           13.360877        3.419150       -3.823069
  S            3.110841        9.635547       18.174098
  S            2.381940       10.797718       15.676437
  F            3.475471       11.965650       19.479882
  F            5.032515       10.450648       19.826346
  F            4.986926       11.574226       17.931989
  F            2.058404       13.187817       14.566112
  F            0.701095       12.812703       16.280583
  F            2.809319       13.277866       16.635472
  O            4.055248        8.732354       17.529573
  O            2.366111        9.198876       19.348158
  O            1.340308       10.289471       14.791122
  O            3.772429       10.779692       15.237314
  N            2.083024       10.379695       17.200130
  C            4.205139       10.985801       18.875207
  C            1.962185       12.611560       15.807988
  S            1.249493      -15.284082       12.565254
  S            2.818555      -12.921117       12.838548
  F           -0.525834      -14.250044       10.819865
  F           -1.404986      -15.445717       12.443783
  F           -0.680478      -13.403994       12.843221
  F            2.898678      -10.422049       11.945066
  F            3.095340      -11.945486       10.344168
  F            1.140088      -11.547626       11.241737
  O            1.189261      -15.465423       14.009747
  O            1.302865      -16.443644       11.684182
  O            4.273528      -12.891258       12.934762
  O            2.012588      -12.491037       13.975237
  N            2.331085      -14.229017       12.040110
  C           -0.419788      -14.541828       12.147181
  C            2.466829      -11.652063       11.515932
  S           -9.043312       -1.134220       -4.931048
  S          -10.657414        1.213663       -4.882328
  F           -8.262754       -0.893212       -7.500105
  F           -8.864436       -2.921239       -6.896171
  F          -10.394026       -1.379600       -7.266031
  F          -11.421803        3.186131       -6.487053
  F           -9.228040        3.099502       -6.167200
  F          -10.197411        1.658932       -7.498368
  O          -10.098285       -1.926922       -4.313207
  O           -7.645597       -1.413529       -4.627571
  O          -10.744429        2.144199       -3.762674
  O          -11.831899        0.440807       -5.269485
  N           -9.241138        0.452176       -4.876343
  C           -9.156938       -1.591899       -6.744842
  C          -10.348619        2.344290       -6.334861
  S           -4.378436       10.086273       -6.284931
  S           -5.867446       12.515506       -6.328761
  F           -6.080018        8.734839       -4.689421
  F           -3.950453        8.500973       -4.189508
  F           -5.010254       10.359751       -3.665236
  F           -8.105068       13.543983       -5.336113
  F           -8.439070       11.780760       -6.640680
  F           -7.677938       11.509056       -4.607509
  O           -3.140638       10.797462       -5.993141
  O           -4.356405        8.892131       -7.119952
  O           -6.043065       13.366371       -7.500206
  O           -5.124210       13.017471       -5.178872
  N           -5.604345       10.991897       -6.770492
  C           -4.891506        9.398616       -4.618763
  C           -7.613086       12.315320       -5.699325
  S           13.181832       20.244878       12.875469
  S           12.022874       20.712192       10.314476
  F           10.971255       20.831171       14.302710
  F           12.839040       21.692500       15.083188
  F           11.871543       22.575035       13.311698
  F            9.714603       21.459561        9.235871
  F            9.580928       19.581602       10.409673
  F            9.708520       21.508270       11.438557
  O           14.354185       21.042695       12.540583
  O           13.314565       19.074079       13.732984
  O           12.271608       19.905142        9.125402
  O           12.460876       22.102801       10.345684
  N           12.241379       19.838848       11.646865
  C           12.153787       21.400232       13.934010
  C           10.159788       20.813177       10.361740
  S           10.005819       22.336019        4.524591
  S            9.181005       19.617991        4.753181
  F           12.423526       21.813583        3.452604
  F           12.419205       23.332449        5.044043
  F           12.237123       21.197243        5.554761
  F           10.087229       17.172181        4.256351
  F            9.918643       18.442908        2.445484
  F           11.566711       18.753548        3.850585
  O            9.598692       22.621925        5.894109
  O            9.869865       23.356387        3.493044
  O            7.832712       19.129277        4.487927
  O            9.720323       19.545192        6.106123
  N            9.472796       20.957497        3.912756
  C           11.865564       22.142760        4.651967
  C           10.246132       18.444601        3.767188
  S           29.351176        6.247648        5.607237
  S           28.729700        8.247781        3.675014
  F           31.855989        7.105875        6.113956
  F           31.648395        4.928981        5.873770
  F           31.606298        6.244001        4.106840
  F           29.849009       10.343364        2.489372
  F           29.678753       10.553536        4.691473
  F           31.220272        9.260718        3.831664
  O           28.850516        5.189649        4.739452
  O           29.191339        6.145389        7.052130
  O           27.439678        8.916736        3.550765
  O           29.200095        7.384548        2.597902
  N           28.960624        7.739744        5.183094
  C           31.210873        6.138270        5.402817
  C           29.934127        9.673541        3.684226
  S          -11.140010       -3.327745       18.602755
  S          -12.847288       -5.577677       18.224258
  F          -13.112348       -1.501437       18.807423
  F          -11.417122       -0.902907       17.539503
  F          -12.899625       -2.350021       16.790410
  F          -15.432249       -6.158882       18.050342
  F          -14.849451       -5.271571       19.998529
  F          -15.029996       -3.999922       18.227303
  O          -10.299910       -3.719084       17.478407
  O          -10.548048       -2.685565       19.769334
  O          -12.630259       -6.897783       18.805044
  O          -12.785872       -5.408523       16.777113
  N          -12.160286       -4.440916       19.130645
  C          -12.209956       -1.961455       17.895159
  C          -14.628664       -5.225387       18.655669
  S           20.238792       -2.765173       -0.515710
  S           22.010571       -4.425054        0.976217
  F           21.677800       -2.784508       -2.795247
  F           20.901070       -0.813858       -2.201206
  F           22.636146       -1.678320       -1.154636
  F           24.310873       -5.718601        0.683967
  F           22.718832       -6.412534       -0.696711
  F           23.749712       -4.520751       -1.077989
  O           20.161863       -1.795198        0.568865
  O           19.074731       -3.017154       -1.355465
  O           21.593372       -5.460382        1.914905
  O           22.728750       -3.254685        1.467206
  N           20.877578       -4.182441       -0.138772
  C           21.438309       -1.978915       -1.722020
  C           23.254172       -5.315417       -0.093471
  S           14.412281       -0.636193        2.960725
  S           17.113129       -1.322806        2.365550
  F           14.948871        0.684052        5.249050
  F           13.229515       -0.684969        5.345222
  F           15.281713       -1.485131        5.381505
  F           19.553079       -1.022739        3.368880
  F           18.551708        0.895076        2.877298
  F           17.966635       -0.217136        4.668277
  O           13.963989       -2.000860        2.716205
  O           13.550617        0.488723        2.620400
  O           17.703270       -1.311356        1.031872
  O           16.972469       -2.586233        3.080098
  N           15.887322       -0.285563        2.450731
  C           14.488859       -0.528830        4.830173
  C           18.352691       -0.357431        3.373052
  S           31.137377      -11.565466       -3.626045
  S           29.184216      -13.316247       -4.739677
  F           33.272148      -13.100133       -4.221827
  F           33.276201      -12.246039       -2.194474
  F           31.973109      -13.957682       -2.669155
  F           29.028026      -15.660906       -5.975898
  F           30.213416      -14.148304       -7.084634
  F           31.071419      -15.143139       -5.335044
  O           30.368744      -11.416374       -2.397205
  O           31.912216      -10.445388       -4.144477
  O           28.008977      -12.887537       -5.489422
  O           29.014603      -13.981106       -3.452895
  N           30.359849      -12.225584       -4.858309
  C           32.474092      -12.793596       -3.160086
  C           29.921770      -14.627754       -5.843980
  S           29.356608      -11.394821        4.659806
  S           28.162574       -8.899710        5.344609
  F           30.374095      -10.587848        2.297409
  F           29.392037      -12.556130        2.264550
  F           28.179446      -10.717639        2.316198
  F           27.875228       -6.448917        4.364247
  F           29.989430       -7.026335        4.709427
  F           28.903427       -7.827914        2.987509
  O           28.136229      -12.120229        4.987727
  O           30.657726      -12.001811        4.909559
  O           28.142262       -8.323303        6.684175
  O           26.910345       -9.300945        4.714096
  N           29.425034       -9.880183        5.169677
  C           29.316258      -11.293230        2.788903
  C           28.775172       -7.482821        4.295481
  S           15.862565      -13.559999       16.820231
  S           16.911290      -15.232352       14.765076
  F           18.207888      -12.402504       17.473740
  F           16.970667      -13.028390       19.181723
  F           18.089450      -14.528871       18.019838
  F           19.224669      -15.800708       13.592339
  F           18.611446      -13.680289       13.368307
  F           19.418427      -14.390418       15.273938
  O           15.136041      -14.672888       17.417488
  O           15.296203      -12.217555       16.848480
  O           16.245057      -15.517890       13.499494
  O           17.129903      -16.309845       15.723111
  N           16.434278      -13.811481       15.347587
  C           17.369555      -13.380467       17.919766
  C           18.628253      -14.738710       14.224820
  S          -20.548506        2.438841       12.167707
  S          -17.837802        3.261404       11.858309
  F          -20.024891        0.304859       13.729551
  F          -21.487182       -0.051986       12.125175
  F          -19.338669        0.070466       11.654017
  F          -15.396529        2.532619       12.606053
  F          -16.732214        3.039644       14.303486
  F          -16.967040        1.131858       13.258430
  O          -20.792980        2.549913       10.735587
  O          -21.606300        2.759924       13.117285
  O          -17.380434        4.646287       11.855570
  O          -17.709163        2.458012       10.648091
  N          -19.200938        3.117443       12.699064
  C          -20.320973        0.597411       12.431514
  C          -16.682514        2.448220       13.077966
  S            7.871459       13.052776        0.156346
  S            9.707873       14.222008       -1.682331
  F            9.718724       11.724306        1.602092
  F            7.913763       10.567285        1.109069
  F            9.447908       10.929576       -0.429840
  F           12.312636       14.274360       -2.194716
  F           11.784512       15.066286       -0.190633
  F           11.770267       12.908660       -0.553091
  O            6.996267       12.618067       -0.924460
  O            7.305446       13.470843        1.432500
  O            9.619069       15.582553       -2.200138
  O            9.549530       13.093346       -2.592090
  N            8.997017       14.116621       -0.243821
  C            8.798843       11.492568        0.623181
  C           11.482286       14.112288       -1.114051
  S           18.291369      -10.223018        1.348274
  S           19.185383       -9.204824        3.855118
  F           18.600048      -12.828057        1.969479
  F           19.330311      -12.253534       -0.024586
  F           20.497917      -11.736193        1.770448
  F           20.086927      -10.075849        6.195760
  F           18.032485      -10.766273        5.721425
  F           19.752319      -11.687626        4.731367
  O           19.146230       -9.297511        0.616342
  O           16.990747      -10.599333        0.809302
  O           18.599470       -8.064336        4.550164
  O           20.553508       -9.119764        3.357510
  N           18.096026       -9.908609        2.904477
  C           19.235606      -11.840318        1.277676
  C           19.259069      -10.507419        5.189786
  S           -3.757322       -5.456553       15.990413
  S           -4.864683       -6.025529       13.427160
  F           -5.943862       -6.147249       17.407941
  F           -4.976123       -4.276047       18.041771
  F           -6.205572       -4.319570       16.214299
  F           -7.124076       -6.898512       12.339450
  F           -6.172190       -8.362621       13.707919
  F           -7.246402       -6.640148       14.524059
  O           -3.268290       -4.159558       15.541274
  O           -2.994615       -6.229088       16.962621
  O           -4.140389       -6.645425       12.323429
  O           -5.332292       -4.650147       13.299568
  N           -4.227243       -6.461151       14.837705
  C           -5.310411       -5.030876       16.949027
  C           -6.429223       -7.039480       13.514563
  S            4.902285       -8.014366        1.801286
  S            4.887203       -5.205218        2.279522
  F            2.240014       -8.261659        1.456949
  F            3.163603       -9.810123        2.717463
  F            2.823579       -7.788131        3.523083
  F            3.175311       -3.182054        2.441702
  F            3.197339       -4.171233        0.455891
  F            2.198145       -5.134648        2.147155
  O            5.751740       -8.252864        2.960863
  O            5.041590       -8.842103        0.609998
  O            5.886451       -4.267649        1.779962
  O            4.762919       -5.428138        3.715305
  N            4.790238       -6.492676        1.320990
  C            3.190896       -8.475861        2.409889
  C            3.279210       -4.389430        1.797472
  S           15.652391      -10.862355       -6.153349
  S           17.514858       -8.710091       -6.014693
  F           17.380459      -12.787259       -5.394447
  F           16.093462      -13.311125       -7.099984
  F           17.804736      -11.953180       -7.383915
  F           20.067458       -8.267804       -5.432728
  F           18.900465       -9.099546       -3.738992
  F           19.515588      -10.400314       -5.387190
  O           15.194751      -10.441032       -7.470970
  O           14.715341      -11.458319       -5.209694
  O           17.210921       -7.373452       -5.516582
  O           17.864554       -8.893314       -7.418529
  N           16.535386       -9.798070       -5.349360
  C           16.805781      -12.291509       -6.526759
  C           19.074343       -9.150332       -5.088562
  S           30.014035       12.173429       17.603431
  S           27.922723       14.048519       17.123114
  F           28.530509        9.967396       17.156250
  F           29.834830        9.869469       18.925094
  F           27.975431       11.049204       18.987988
  F           25.348373       14.097341       16.474731
  F           26.635161       13.149701       14.935717
  F           26.139166       12.061954       16.768127
  O           30.395001       12.846287       18.838422
  O           31.030948       11.548425       16.767383
  O           28.082938       15.316303       16.420156
  O           27.568536       14.049082       18.537739
  N           29.032074       12.989508       16.639820
  C           29.022940       10.697611       18.196658
  C           26.441680       13.291865       16.276055
  S          -14.337156       16.445627       -0.710709
  S          -11.773189       16.939770       -1.851826
  F          -15.618338       16.039106       -3.047528
  F          -16.689486       17.311344       -1.607491
  F          -14.981613       18.120762       -2.739350
  F          -10.600809       17.074585       -4.230358
  F          -11.470745       15.084059       -3.779327
  F          -12.776511       16.746400       -4.343710
  O          -14.234691       17.622902        0.141698
  O          -15.023813       15.253027       -0.231203
  O          -10.508326       16.468652       -1.299319
  O          -12.047872       18.371014       -1.903829
  N          -12.978929       15.971780       -1.410329
  C          -15.450243       17.012260       -2.107918
  C          -11.657705       16.425866       -3.642381
  S           23.363471       20.433007       -3.901216
  S           20.820686       21.112393       -4.993429
  F           23.422626       17.912826       -4.856516
  F           24.060109       18.129862       -2.762199
  F           21.921277       18.225660       -3.281152
  F           18.877963       20.028521       -6.442950
  F           20.825723       20.129984       -7.500467
  F           20.497701       18.617191       -5.954250
  O           22.993854       20.961428       -2.594606
  O           24.736892       20.547911       -4.374747
  O           20.480888       22.405020       -5.577166
  O           20.154841       20.676558       -3.771418
  N           22.400090       20.835146       -5.113223
  C           23.165757       18.580674       -3.696279
  C           20.236773       19.906907       -6.293187
  S           10.114169        8.136089       15.341700
  S            8.698271       10.567731       14.891594
  F           10.583050        8.557387       17.962781
  F           12.303210        7.800624       16.819097
  F           11.698120        9.911017       16.636889
  F            7.906391       12.730847       16.212171
  F            7.047588       10.843365       17.001018
  F            9.129888       11.360897       17.428940
  O           10.947097        8.350644       14.165574
  O            9.720115        6.785700       15.722349
  O            7.520004       10.703214       14.042814
  O            9.935250       11.244861       14.520121
  N            8.818645        9.067257       15.457120
  C           11.225015        8.643232       16.763338
  C            8.167342       11.408548       16.471044
  S           -1.315569       -7.913998       13.228607
  S           -1.480882       -9.583768       15.531819
  F            1.335889       -7.456311       13.395047
  F            0.110229       -5.681869       12.960577
  F            0.172893       -6.507965       15.001834
  F            0.080927      -10.580646       17.433674
  F            0.648655      -11.225355       15.388082
  F            1.130231       -9.203384       16.071197
  O           -2.460419       -7.124373       13.663215
  O           -1.092220       -8.158629       11.809455
  O           -2.306719      -10.781217       15.637674
  O           -1.773798       -8.430039       16.374270
  N           -1.091902       -9.298566       13.997842
  C            0.153348       -6.843355       13.684934
  C            0.185583      -10.178580       16.125632
  S           -2.687544       17.101860        2.647931
  S           -4.229619       14.750879        3.111769
  F           -0.345178       15.832607        2.235954
  F           -0.226720       17.609486        3.527589
  F           -1.054625       15.725613        4.314155
  F           -3.930837       12.114751        3.219571
  F           -3.435852       12.985543        1.239894
  F           -2.037947       13.198731        2.909428
  O           -3.238541       17.751095        3.830288
  O           -2.364901       17.889066        1.464745
  O           -5.590799       14.537130        2.633653
  O           -3.975346       14.840350        4.544931
  N           -3.450484       15.784254        2.157402
  C           -0.997822       16.521908        3.214254
  C           -3.357202       13.187521        2.584205
  S          -23.409135       -7.461758        6.990396
  S          -21.141574       -9.104457        7.519506
  F          -22.243844       -5.131496        7.682770
  F          -24.286470       -5.414813        8.448970
  F          -22.599293       -6.480831        9.381780
  F          -18.639259       -8.895052        8.382429
  F          -19.031674       -7.769570        6.511143
  F          -19.743473       -6.989023        8.427134
  O          -24.287871       -8.358537        7.729777
  O          -23.903528       -6.759917        5.812807
  O          -20.723190      -10.238495        6.703414
  O          -21.596327       -9.329769        8.886637
  N          -21.961775       -8.042101        6.633841
  C          -23.104347       -6.057299        8.193236
  C          -19.561283       -8.130334        7.712608
  S           11.641684      -10.568274       14.194069
  S           11.968084       -8.663521       12.099881
  F           14.145682      -10.354800       15.169687
  F           13.394197      -12.413313       14.976164
  F           14.047037      -11.303365       13.188733
  F           13.822879       -7.054947       11.088795
  F           13.309375       -6.603892       13.199547
  F           14.566665       -8.330227       12.724239
  O           11.039672      -11.533492       13.283568
  O           11.193118      -10.490335       15.578423
  O           10.959461       -7.693785       11.688313
  O           12.374478       -9.716146       11.176064
  N           11.764229       -9.072054       13.641723
  C           13.403168      -11.180716       14.379315
  C           13.495363       -7.609657       12.300659
  S           -9.209824       -7.121398       -4.427293
  S           -7.071491       -8.985035       -4.154088
  F           -8.703272       -5.767068       -2.152078
  F          -10.823880       -6.233937       -2.505217
  F           -9.445792       -7.809324       -1.818105
  F           -5.093074       -9.575331       -2.484512
  F           -4.949676       -7.536543       -3.347758
  F           -6.396000       -7.953155       -1.759831
  O          -10.159164       -8.185644       -4.725970
  O           -9.347471       -5.818313       -5.065057
  O           -6.237004       -9.465115       -5.249648
  O           -7.945130       -9.917939       -3.451907
  N           -7.664201       -7.528608       -4.490612
  C           -9.550551       -6.722971       -2.628018
  C           -5.814881       -8.474253       -2.872076
  S            6.408862      -12.159820       -3.365723
  S            6.868126       -9.371549       -3.732971
  F            9.006152      -12.856301       -3.174926
  F            7.780608      -14.170452       -4.444060
  F            8.413973      -12.195408       -5.186450
  F            8.882893       -7.650941       -3.907007
  F            8.789168       -8.716815       -1.963418
  F            9.534751       -9.749102       -3.742581
  O            5.478632      -12.200209       -4.486489
  O            6.189510      -13.009458       -2.202228
  O            6.062812       -8.307812       -3.143880
  O            6.886791       -9.543005       -5.181028
  N            6.794320      -10.701772       -2.832530
  C            7.989655      -12.865993       -4.083107
  C            8.609931       -8.854325       -3.306221
  S           -6.321623       15.101275       11.397249
  S           -7.892074       12.920857       10.448717
  F           -7.544585       16.998818        9.923784
  F           -5.348619       17.123855        9.965617
  F           -6.344337       15.592855        8.733677
  F           -9.885880       12.436018        8.763566
  F          -10.429234       13.821759       10.408832
  F           -9.207958       14.532209        8.738301
  O           -5.084398       14.361813       11.183837
  O           -6.437160       16.025637       12.517930
  O           -8.372524       11.817206       11.272256
  O           -6.927906       12.660067        9.386181
  N           -7.667270       14.238087       11.343201
  C           -6.404048       16.252281        9.920558
  C           -9.434247       13.466191        9.549922
  S          -13.719231       13.216905        6.318707
  S          -13.553326       15.100530        4.186881
  F          -13.256027       11.032238        4.808715
  F          -14.892306       10.827734        6.264882
  F          -15.198666       11.983242        4.414467
  F          -13.139168       15.168910        1.565076
  F          -11.432044       14.338883        2.713636
  F          -13.223068       13.125840        2.385477
  O          -14.958599       13.808721        6.805322
  O          -12.756370       12.659000        7.259644
  O          -12.926550       16.414141        4.280015
  O          -14.990434       15.002693        3.959370
  N          -12.903464       14.086763        5.252569
  C          -14.296084       11.695396        5.388934
  C          -12.790761       14.388808        2.639151
  S           15.815566        7.691106       17.512336
  S           18.326621        8.890870       16.899623
  F           16.827715        5.532776       18.771134
  F           15.189992        5.107672       17.365146
  F           17.209581        5.552835       16.606079
  F           20.923935        8.440485       17.217712
  F           19.813986        8.631831       19.129206
  F           19.653771        6.795888       17.949981
  O           15.341963        7.878254       16.147144
  O           14.885532        7.793519       18.629597
  O           18.607094       10.320624       16.964679
  O           18.363746        8.207471       15.611912
  N           17.136695        8.501276       17.908596
  C           16.302175        5.881993       17.562826
  C           19.745688        8.148452       17.858052
  S           -0.189491       -4.930569       -5.851636
  S           -0.378126       -3.289331       -3.529782
  F           -1.840597       -3.450495       -7.384814
  F           -2.165894       -5.623437       -7.495079
  F           -2.859749       -4.490660       -5.737673
  F           -1.586617       -1.075211       -2.700753
  F           -0.225769       -0.753827       -4.423314
  F           -2.179693       -1.688587       -4.732074
  O           -0.421515       -6.139100       -5.071449
  O            0.702618       -4.963675       -7.003489
  O            0.733337       -2.967579       -2.641965
  O           -1.491842       -4.086905       -3.029654
  N            0.156760       -3.614447       -5.010974
  C           -1.853783       -4.595641       -6.645477
  C           -1.127149       -1.615201       -3.875864
