        2399
  Built with Packmol                                             
  Ti          -2.855441        2.229755       11.246400
  Ti           7.975036        5.110976        1.881588
  Ti           1.241250       -1.706436        9.426417
  Ti           2.752440        7.455698        3.653386
  Ti           1.753864        9.134007        1.748999
  Ti           3.129451       -1.960779       11.379785
  Ti          -1.906242        0.493870        9.354922
  Ti           5.987220        5.413529        3.729051
  H            3.754491        1.533189        8.602241
  H           -0.186252       -4.222307        6.483198
  H            4.786307       10.856196        4.661866
  H           -2.353563        6.126849       11.026946
  H            8.783818        1.204924        2.202274
  H           -6.815340        1.473136       10.863946
  H           11.357185        7.115275        2.082244
  H            4.105056       -5.995319       10.993862
  H           -2.304659        8.544108        2.071053
  H            4.727684        3.049654        6.848996
  H            0.035867        3.681430        8.401220
  H           -3.665336       -1.693995        6.360589
  H            2.248323        7.497205       -0.124086
  H            6.099510        4.868281        0.181652
  H            3.639358       -2.627888        5.868686
  H            1.029000        9.292718        7.272349
  H           -5.978856        3.882496        8.999012
  H           10.729794        3.026651        4.187587
  H           -3.677750        2.435055        5.665173
  H           -1.346210       10.961867        4.102241
  H            2.146109       12.236841        2.604467
  H            8.625987       -0.813916        3.404762
  H            4.845063        7.135828        2.314757
  H            0.160550        0.141959       10.720043
  H            7.364193       -0.025926        9.769448
  H            5.883069       -0.494990       10.516784
  H            7.938314        4.407710        8.670546
  H            7.368596        4.766292        7.052003
  H            6.875380       -4.980756        9.579418
  H            5.596233       -3.880175       10.036813
  H            1.425195        1.874323        9.361458
  H            1.008323        5.203049        6.646973
  H            6.031760        8.869380        3.866525
  H           -7.731962        8.890218        4.689364
  C            8.553073        4.369740        4.745117
  C           -3.815986        2.491148        8.399367
  C            3.821751       -2.717141        8.501695
  C            0.816322        9.426210        4.612746
  C            9.449095        3.765425        5.740308
  C           -4.747890        3.116163        7.422320
  C            4.761950       -3.331489        7.554506
  C           -0.073496       10.073008        5.612538
  C            9.200332        3.840338        7.146730
  C           -4.531496        2.996185        6.034299
  C            5.891402       -4.091792        8.007572
  C           -1.168225       10.845965        5.167611
  C            0.180998        9.902249        6.967423
  C            4.514243       -3.199354        6.170583
  C           10.582770        3.066439        5.264601
  C           -5.848054        3.808578        7.921002
  C            2.924977        4.216078        6.650019
  C            1.843075        2.527811        8.597691
  C            6.470568        9.512288        4.627853
  C           -1.867744       -2.873623        6.521957
  C            8.764846        1.283992        0.058179
  C            2.295114       13.075580        0.083188
  C           11.249281        7.047107       -0.067827
  C           -2.109052        8.589544       -0.087215
  C            3.499155        5.112520        5.617977
  C           -1.256933       -1.981851        7.536115
  C            8.628990        2.738849        0.034982
  C            2.202361       11.642063        0.045700
  C            9.951446        6.430279       -0.020963
  C           -0.706742        9.003887       -0.062753
  C            1.597294        4.398121        7.081602
  C            3.162817        2.337892        8.169008
  C            5.769511       10.639236        5.075943
  C           -1.171243       -4.011621        6.072589
  C            8.804195        0.614878        1.287859
  C           -2.342636        6.715246       11.940841
  C           11.904581        7.321910        1.166133
  C           -7.376828        1.293757       11.779304
  C            7.737945        9.211994        5.142878
  C           -3.143621       -2.579527        6.003644
  C            3.705306        3.179589        7.197444
  C            1.059848        3.553593        8.053957
  C            7.308935        0.249396       11.793799
  C           -2.806243        8.359124        1.125256
  C            4.146699       -6.522481       11.942914
  C            2.308891       13.826772        1.312468
  N            2.363948       13.227937        2.550629
  N            6.729903        0.066554       10.554829
  N            8.119448        4.486580        7.678019
  N            6.222410       -4.250040        9.324967
  O            7.376747        4.774832        5.110912
  O           -3.046995        1.540283        8.001084
  O            4.203207       -2.592658        9.722805
  O            0.750449        9.855877        3.413146
  O            1.586781        8.468994        4.999201
  O            2.651328       -2.348700        8.096181
  O            8.964947        4.450494        3.533371
  O           -3.858000        2.927396        9.599082
  O            6.292442        4.195622        2.534358
  O           -1.353778        2.054229       10.099438
  O            7.231229        6.482910        2.984337
  O           -3.105958        0.329551       10.592107
  O            1.500552       -2.878399       10.686834
  O            3.268988        9.017012        2.914910
  O            2.454501       -0.616911       10.222657
  O            1.562756        7.259902        2.397478
  O            4.720279        4.932652        5.263729
  O           -1.914597       -0.946915        7.914344
  O            3.871775       -3.732640       11.988892
  O            2.119252       10.940626        1.140895
  O            4.673921       -0.944457       11.983764
  O           -0.116683        9.104896        1.080821
  O           -0.095110       -2.276397        7.993933
  O            2.757324        6.033407        5.124635
  O            9.412111        6.130103        1.127024
  O           -4.742224        2.169711       11.914840
  O            8.616546        3.375778        1.156429
  O           -2.474026        3.952051       11.996107
  O            4.484231        6.587072        3.035431
  O           -0.217709       -0.416738       10.016450
  O            6.938339        5.361952        0.102630
  O            2.370688        8.464002       -0.064115
  N            2.363059        4.586123       11.641469
  N            1.489408        3.087240       12.966990
  C           -6.246380       -8.828250       10.598021
  C           -4.789278       -8.689945       11.068554
  C          -10.529557        4.599805       11.090753
  C            2.301075        3.266184       11.908502
  C            8.073073       -9.357019       12.603399
  C            1.008679        4.315727       13.381668
  C           -4.416080       11.884697       -1.650466
  C            1.154130        1.793039       13.564150
  H          -12.834383        5.187464        9.624599
  H           -6.693390       -7.848114       10.391792
  H           -0.123349       -1.097963       -1.057928
  H           -4.288499       -8.021295       10.347334
  H          -10.977477        3.934281       11.842726
  H          -10.615842        4.069400       10.131165
  H            2.802976        2.476178       11.365087
  H           -3.422620       -0.659364       -0.618464
  H            0.329015        4.406565       14.220647
  H           -4.305476       12.424431       -0.699599
  H           -3.904670       12.492719       -2.411730
  H           -3.878578       10.930862       -1.553581
  H            0.132331        1.512025       13.268699
  H            1.881446        1.040165       13.238308
  H            1.208292        1.901042       14.654502
  S            1.398632       -5.376314       13.112505
  S           -1.371009       -4.893906       13.577932
  F            1.125061       -7.963475       12.405992
  F            2.787484       -7.545666       13.784918
  F            0.715224       -7.579872       14.531684
  F           -3.696452       -6.173013       13.498772
  F           -2.664074       -6.082641       11.537028
  F           -1.967602       -7.472018       13.076992
  O            1.765844       -4.755180       14.378373
  O            2.272474       -5.246534       11.953506
  O           -2.077428       -3.669643       13.218420
  O           -1.219652       -5.251849       14.983486
  N           -0.100294       -5.116550       12.618012
  C            1.494627       -7.211298       13.481074
  C           -2.473819       -6.226900       12.877605
  S           26.631966       21.461621        9.396055
  S           27.307921       18.889205       10.418801
  F           28.749024       21.678449        7.741226
  F           28.292150       23.485206        8.910221
  F           29.280720       21.767784        9.872658
  F           29.189778       17.033312       10.165137
  F           28.087993       17.445412        8.284006
  F           29.597050       18.858482        9.000183
  O           26.397323       21.982706       10.736385
  O           25.824635       21.930855        8.277235
  O           26.351617       17.824440       10.699606
  O           28.052097       19.496737       11.515943
  N           26.743041       19.870322        9.276850
  C           28.333368       22.117318        8.963018
  C           28.609499       18.017228        9.404368
  S            0.639889       20.927199        2.111402
  S            2.998935       22.218868        1.169732
  F           -0.798220       21.276796       -0.141825
  F           -1.878376       21.700447        1.727249
  F           -0.403565       23.142128        0.952921
  F            3.910613       23.454826       -0.996213
  F            3.347178       21.338440       -1.350976
  F            1.793249       22.865493       -1.150124
  O            0.673936       21.676454        3.360614
  O            0.159097       19.551576        2.096528
  O            4.360493       21.770430        1.438354
  O            2.541505       23.494763        1.707748
  N            1.973566       20.981638        1.229858
  C           -0.665144       21.816892        1.102658
  C            3.005849       22.472699       -0.679334
  S          -16.233761       -8.108796       10.113052
  S          -14.344545      -10.162244       10.691378
  F          -14.431246       -6.118293        9.875897
  F          -16.228772       -5.612904       11.039141
  F          -14.653584       -6.868938       11.930351
  F          -11.727191      -10.485449       10.999702
  F          -12.302812       -9.767775        8.980788
  F          -12.318728       -8.387580       10.678356
  O          -17.082975       -8.514348       11.225453
  O          -16.830381       -7.591872        8.888080
  O          -14.412996      -11.527405       10.182709
  O          -14.485122       -9.918908       12.122335
  N          -15.092825       -9.148171        9.692645
  C          -15.326725       -6.609879       10.778455
  C          -12.585975       -9.667590       10.308920
  S          -11.189464       -4.419618        0.314480
  S           -8.590883       -3.275753        0.071172
  F          -10.371328       -6.988118        0.343986
  F          -12.117015       -6.581610       -0.931546
  F          -10.100901       -5.996859       -1.599711
  F           -6.050451       -4.026492       -0.109560
  F           -7.031548       -4.655938        1.778205
  F           -7.463598       -5.716668       -0.085961
  O          -11.707349       -3.583974       -0.760958
  O          -12.043010       -4.773559        1.441381
  O           -8.143594       -2.066423        0.752751
  O           -8.699116       -3.284734       -1.383069
  N           -9.764801       -3.993075        0.903697
  C          -10.913923       -6.078075       -0.513665
  C           -7.220320       -4.487731        0.440212
  S           -3.543505       -8.043777       -2.871802
  S           -2.045285       -9.344344       -4.917313
  F           -4.653193      -10.282804       -1.860488
  F           -6.035454       -8.589763       -2.110730
  F           -5.391264       -9.757956       -3.863852
  F           -1.597466      -11.782756       -5.867929
  F           -0.975764      -11.524471       -3.753884
  F           -3.095626      -11.733752       -4.253200
  O           -4.052983       -7.053796       -3.811719
  O           -3.265862       -7.667010       -1.491700
  O           -0.690795       -8.982179       -5.318918
  O           -3.145181       -9.176615       -5.860027
  N           -2.312913       -8.925829       -3.387949
  C           -4.972755       -9.240540       -2.678852
  C           -1.923057      -11.190708       -4.673335
  S           13.989401        8.878902        7.546281
  S           16.662063        7.891270        7.587674
  F           14.368564       10.811580        9.387042
  F           12.524058        9.638567        9.635017
  F           14.467507        8.775409       10.210392
  F           18.978109        8.350486        8.802219
  F           18.238267       10.074181        7.617348
  F           17.331311        9.607014        9.552837
  O           13.442361        7.533088        7.658548
  O           13.290929        9.889207        6.761971
  O           17.409583        7.455359        6.413669
  O           16.311146        6.921785        8.618969
  N           15.543155        8.970774        7.177246
  C           13.846277        9.556386        9.287763
  C           17.857633        9.050462        8.430533
  S           18.543540        7.476087       -6.141005
  S           16.292432        7.555266       -4.395584
  F           20.244811        8.737938       -4.473427
  F           20.317458        9.415261       -6.565222
  F           18.654036       10.035332       -5.260756
  F           15.626145        8.431357       -1.979266
  F           17.244203        6.913490       -1.959880
  F           17.679397        8.968932       -2.570369
  O           17.749468        7.964607       -7.260769
  O           19.619742        6.520408       -6.369453
  O           15.329144        6.473498       -4.225436
  O           15.859103        8.820869       -4.976176
  N           17.716608        6.975779       -4.866386
  C           19.475963        8.997681       -5.568670
  C           16.745068        7.984561       -2.636508
  S           15.586303       13.757747        6.285249
  S           15.917852       12.686876        3.665409
  F           17.586983       12.355251        7.424411
  F           15.723901       12.435163        8.591540
  F           15.868274       11.119560        6.830450
  F           17.445501       10.951995        2.359062
  F           18.574957       12.651069        3.230776
  F           17.863957       11.033172        4.520667
  O           14.147865       13.528813        6.245737
  O           16.123271       14.917934        6.984786
  O           15.798166       13.451606        2.429303
  O           14.957505       11.627800        3.952995
  N           16.348530       13.644219        4.883500
  C           16.227847       12.334507        7.322088
  C           17.539975       11.791476        3.440695
  S            8.907839       -1.328639       -0.986630
  S           11.260442       -0.650300        0.471233
  F            9.202314       -4.000388       -0.780599
  F            8.633758       -3.277725       -2.779138
  F           10.705375       -3.042372       -2.067726
  F           13.281944       -1.828347        1.726542
  F           11.296743       -2.305754        2.594568
  F           11.927745       -3.247369        0.723171
  O            9.248398       -0.399782       -2.056358
  O            7.513480       -1.545599       -0.622747
  O           11.366275        0.452602        1.419654
  O           12.040914       -0.618672       -0.760220
  N            9.740430       -1.165008        0.369392
  C            9.403136       -2.997223       -1.681422
  C           11.967266       -2.087389        1.429721
  S            4.594053       -2.012402       -2.550926
  S            4.476604       -1.241111        0.189797
  F            4.934135        0.474218       -3.535036
  F            3.476883       -0.765585       -4.620835
  F            2.938423        0.127442       -2.680305
  F            4.591918        0.946225        1.690574
  F            6.435670        0.577717        0.512785
  F            4.647111        1.363981       -0.471986
  O            3.404093       -2.842246       -2.415176
  O            5.668945       -2.416385       -3.448215
  O            5.079900       -1.981214        1.292238
  O            3.025626       -1.115823        0.115092
  N            5.264920       -1.527324       -1.182199
  C            3.951071       -0.456236       -3.373817
  C            5.076406        0.501301        0.486042
  S            3.661011       -8.850734       -5.590565
  S            2.987579      -10.119300       -3.129370
  F            6.279432       -8.524158       -5.038635
  F            5.291709       -6.774906       -5.935392
  F            4.954839       -7.266803       -3.814626
  F            4.133253      -10.887167       -0.860477
  F            4.968614      -11.881404       -2.659386
  F            5.499635       -9.807082       -2.209791
  O            2.530531       -7.937938       -5.481511
  O            4.089695       -9.331070       -6.897939
  O            2.058967      -11.235481       -2.991841
  O            2.659166       -8.831104       -2.529946
  N            3.641684      -10.105232       -4.598275
  C            5.120612       -7.806427       -5.050919
  C            4.480952      -10.705665       -2.175675
  S           20.692802        6.226980        2.858426
  S           20.224479        7.759417        5.214813
  F           21.670999        8.260103        1.382978
  F           20.229014        6.964536        0.342864
  F           19.523755        8.438778        1.820129
  F           20.475111       10.249863        6.100775
  F           22.399517        9.319874        5.505638
  F           21.002569       10.019634        3.974037
  O           19.362989        5.635126        2.924612
  O           21.817441        5.444971        2.361064
  O           20.465110        7.293334        6.575680
  O           18.861920        8.048095        4.782712
  N           21.181654        6.990963        4.176051
  C           20.517119        7.552805        1.545585
  C           21.078534        9.418789        5.190402
  S           -5.709587       15.736834       16.448451
  S           -7.332058       14.142480       18.164807
  F           -5.336389       17.753892       18.197623
  F           -5.807776       18.379467       16.141874
  F           -7.398932       17.601311       17.451756
  F           -8.363203       14.195690       20.611023
  F           -6.145293       14.243689       20.579707
  F           -7.285850       16.041114       20.074410
  O           -6.645209       15.578981       15.342662
  O           -4.277826       15.817763       16.189162
  O           -7.260077       12.689588       18.269770
  O           -8.540348       14.767689       17.639677
  N           -5.920408       14.745764       17.686237
  C           -6.093456       17.449402       17.105704
  C           -7.266889       14.688301       19.948442
  S           25.368022       -3.354734       11.077391
  S           23.350743       -2.894001        9.118167
  F           27.430147       -2.478387        9.578371
  F           27.803965       -4.349639       10.673054
  F           26.553035       -4.361981        8.859738
  F           23.100708       -1.986495        6.635430
  F           23.915248       -0.486405        8.052704
  F           25.192103       -2.104231        7.318393
  O           24.868788       -4.697997       11.340988
  O           25.934976       -2.559825       12.159242
  O           22.016224       -2.377074        9.399131
  O           23.504707       -4.251655        8.608574
  N           24.395175       -2.402314       10.237603
  C           26.855790       -3.648806        9.976348
  C           23.927495       -1.805699        7.715855
  S          -17.224507       -0.698936        4.190980
  S          -18.723215        0.001454        1.870726
  F          -14.915964        0.445531        3.398371
  F          -14.706833       -1.559585        4.278956
  F          -15.470617       -1.329401        2.225485
  F          -18.411572        1.267004       -0.442568
  F          -18.065230        2.555838        1.329822
  F          -16.548944        1.100232        0.722352
  O          -17.688588       -2.078763        4.129496
  O          -16.991357       -0.062537        5.481080
  O          -20.115367        0.436181        1.875517
  O          -18.364560       -1.259316        1.231635
  N          -18.018538        0.344574        3.274804
  C          -15.496492       -0.785686        3.470796
  C          -17.888496        1.303304        0.825761
  S           27.722308       -9.710309       11.879926
  S           26.143015      -12.071187       11.651141
  F           26.030450       -8.389637       13.511138
  F           26.859930       -7.191747       11.862904
  F           25.261567       -8.655609       11.468649
  F           23.831279      -13.058706       12.505978
  F           25.257375      -12.591645       14.140149
  F           24.179386      -10.975617       13.133510
  O           27.918478       -9.647436       10.437484
  O           28.783227       -9.280286       12.781731
  O           26.671057      -13.430560       11.631860
  O           25.479947      -11.539198       10.466261
  N           27.138740      -11.088659       12.444177
  C           26.387666       -8.433269       12.196358
  C           24.789244      -12.173020       12.931944
  S            0.445222       16.277110       19.204355
  S           -2.168563       15.295583       18.634284
  F            1.775708       14.306727       17.933605
  F            2.579881       14.850382       19.907788
  F            0.743726       13.642445       19.757729
  F           -3.350253       13.269837       17.389283
  F           -2.105667       14.530348       16.053421
  F           -1.152720       13.115099       17.423053
  O            0.115823       16.468077       20.610805
  O            1.353628       17.198803       18.534279
  O           -3.315114       16.126788       18.285551
  O           -2.180111       14.538870       19.880825
  N           -0.795315       16.025927       18.226217
  C            1.422204       14.677836       19.196722
  C           -2.185239       13.989894       17.300710
  S           20.150037        9.378707       18.506888
  S           19.453081        8.024057       16.098688
  F           17.643853        9.527004       19.488955
  F           18.825528       11.373777       19.669864
  F           17.976803       10.792105       17.721938
  F           17.310804        7.075395       14.849387
  F           17.680920        6.130308       16.822261
  F           16.834267        8.144944       16.715723
  O           20.960906       10.347271       17.780633
  O           20.549002        8.943497       19.839232
  O           20.234676        6.956730       15.484672
  O           19.298624        9.295876       15.402101
  N           19.715796        8.077396       17.684207
  C           18.559857       10.309004       18.850547
  C           17.731102        7.305062       16.135538
  S          -14.500550       17.436009        2.933695
  S          -16.505869       18.462665        1.188725
  F          -12.437717       18.759937        1.811490
  F          -12.046204       16.644775        2.272425
  F          -13.279567       17.185160        0.528896
  F          -16.745978       20.097214       -0.889895
  F          -15.967548       21.088811        0.935808
  F          -14.659616       19.795774       -0.249224
  O          -14.982011       16.072045        2.757988
  O          -13.955887       17.859683        4.217269
  O          -17.850611       18.850855        1.598693
  O          -16.326691       17.333883        0.282988
  N          -15.479601       18.591971        2.419898
  C          -12.998162       17.517347        1.816358
  C          -15.932278       19.940917        0.204201
  S            7.703328       21.029518       -2.814479
  S            6.312140       19.101747       -4.385640
  F            6.002619       20.977596       -0.723475
  F            6.638241       22.986155       -1.356981
  F            5.145493       21.876607       -2.537531
  F            4.140136       17.578414       -4.276449
  F            5.612058       17.144485       -2.674088
  F            4.351113       18.928019       -2.547782
  O            7.813046       21.939809       -3.946912
  O            8.774101       20.956154       -1.828688
  O            6.947700       18.068440       -5.195230
  O            5.542814       20.155516       -5.037038
  N            7.266790       19.531059       -3.164956
  C            6.288414       21.743530       -1.814263
  C            5.044686       18.139660       -3.410206
  S            1.264745       16.262769       13.767983
  S            3.147568       14.363073       12.784934
  F           -0.757060       14.512828       14.110649
  F           -1.324343       16.418021       13.168266
  F           -0.257199       14.883687       12.002026
  F            3.317003       11.772066       12.229921
  F            2.879852       12.197799       14.363008
  F            1.302413       12.402670       12.860794
  O            1.565949       17.189416       12.684621
  O            0.929397       16.770091       15.092327
  O            4.566802       14.343425       13.120319
  O            2.735534       14.632257       11.412207
  N            2.297929       15.056882       13.960722
  C           -0.342632       15.464957       13.227556
  C            2.628595       12.595580       13.085200
  S           21.957593       11.816485       -1.337657
  S           23.698951       10.172736       -2.882329
  F           20.452726        9.803798       -0.362015
  F           19.322322       11.555166       -1.065257
  F           20.185732       10.141913       -2.517955
  F           24.085131        7.611934       -3.468182
  F           24.293792        8.071105       -1.307619
  F           22.306553        7.965504       -2.216830
  O           21.746596       12.723833       -2.458047
  O           21.989351       12.332049        0.025027
  O           25.135379       10.380951       -3.025213
  O           22.831866       10.310467       -4.046720
  N           23.173434       10.788686       -1.493023
  C           20.407706       10.762913       -1.329602
  C           23.587189        8.364401       -2.434049
  S           19.478606       -6.768735       15.846342
  S           18.919844       -4.786602       13.876777
  F           22.071505       -6.113741       16.185846
  F           21.667788       -8.271284       16.038614
  F           21.636964       -7.015934       14.228576
  F           20.143118       -2.835246       12.555461
  F           20.115933       -2.539376       14.754127
  F           21.491840       -3.987760       13.861942
  O           18.842244       -7.807360       15.046733
  O           19.392634       -6.809587       17.300529
  O           17.685892       -4.013252       13.796849
  O           19.254116       -5.721911       12.809035
  N           19.191958       -5.263154       15.388262
  C           21.307913       -7.044779       15.546904
  C           20.238830       -3.470541       13.768236
  S          -21.858280      -13.930608       -3.478984
  S          -22.465606      -13.807325       -0.697580
  F          -19.786790      -15.639932       -3.245435
  F          -19.442667      -13.939290       -4.597859
  F          -19.383634      -13.644340       -2.415517
  F          -21.608924      -14.794233        1.613734
  F          -22.307980      -16.344872        0.189217
  F          -20.364315      -15.384616       -0.105751
  O          -21.903061      -12.479189       -3.599200
  O          -22.308829      -14.770053       -4.581734
  O          -23.811748      -13.770826       -0.137523
  O          -21.586052      -12.655676       -0.534173
  N          -22.468583      -14.537088       -2.130469
  C          -20.023766      -14.308155       -3.413854
  C          -21.644244      -15.160327        0.291497
  S          -21.725332       -5.779673       -0.025857
  S          -20.525416       -7.802513       -1.634761
  F          -23.873983       -7.232970        0.708055
  F          -24.310658       -5.160269        0.114019
  F          -23.867052       -6.678451       -1.419419
  F          -20.969564      -10.298191       -2.424944
  F          -20.767884      -10.084309       -0.225855
  F          -22.611534       -9.455132       -1.221857
  O          -21.547622       -4.779805       -1.070730
  O          -21.617334       -5.398978        1.376686
  O          -19.094825       -8.078712       -1.699709
  O          -21.216916       -7.302826       -2.817450
  N          -20.910523       -7.142466       -0.219924
  C          -23.533297       -6.250550       -0.173384
  C          -21.259434       -9.494847       -1.350607
  S           16.722483       -1.237081       14.498795
  S           18.232099       -2.027183       16.782881
  F           14.350817       -2.159555       15.388538
  F           14.799898       -2.621973       13.285172
  F           15.789599       -3.748298       14.899167
  F           17.893486       -3.239139       19.120950
  F           16.720212       -1.367816       18.911220
  F           16.068092       -3.188571       17.888224
  O           17.705113       -1.817010       13.592597
  O           16.006906       -0.024516       14.122821
  O           19.301384       -1.242492       17.389499
  O           18.543157       -3.309092       16.161138
  N           17.190678       -1.069145       16.019114
  C           15.351738       -2.514596       14.533990
  C           17.164428       -2.470990       18.248021
  S          -10.049456       14.785525       -6.143107
  S          -12.482429       16.190411       -5.666465
  F          -11.178912       12.361218       -6.481447
  F           -9.375234       12.380477       -5.222070
  F          -11.292204       13.108477       -4.416876
  F          -15.092735       15.733009       -5.501694
  F          -14.228693       15.248764       -7.486976
  F          -13.899737       13.903761       -5.792962
  O           -9.414367       15.401262       -4.985262
  O           -9.265181       14.485714       -7.334218
  O          -12.788315       17.525036       -6.168764
  O          -12.351752       15.973804       -4.230283
  N          -11.420218       15.455224       -6.624036
  C          -10.513771       13.076337       -5.530476
  C          -13.998173       15.212344       -6.145452
  S            5.275022       -8.781643        7.564826
  S            4.381127      -11.483706        7.423209
  F            7.535565       -9.298356        8.939730
  F            6.386723       -7.563891        9.654884
  F            5.699764       -9.607064       10.109439
  F            5.123954      -13.911745        8.199674
  F            6.567435      -12.937268        6.825204
  F            6.460157      -12.314885        8.919974
  O            3.962941       -8.323039        8.002091
  O            6.097120       -7.936552        6.708265
  O            3.745615      -12.093264        6.260600
  O            3.620497      -11.319774        8.656570
  N            5.332760      -10.267447        6.975055
  C            6.272152       -8.832120        9.150831
  C            5.710760      -12.718281        7.860726
  S           23.903159        1.814725       -1.172875
  S           25.243030        3.185190       -3.281623
  F           22.911001        4.020111        0.018470
  F           23.779581        2.533201        1.387528
  F           25.094847        3.830906        0.187889
  F           25.659631        5.658172       -4.153902
  F           23.519423        5.074147       -4.125080
  F           24.542107        5.575222       -2.256933
  O           25.083477        1.010388       -0.884838
  O           22.572124        1.242266       -1.016810
  O           25.308498        2.728678       -4.665244
  O           26.464558        3.257046       -2.488327
  N           23.925452        2.613074       -2.558848
  C           23.931710        3.128329        0.163485
  C           24.701936        4.962604       -3.459217
  S           -9.505786       11.663866       -0.919972
  S          -12.245952       11.173501       -1.529306
  F           -9.074471        9.331732        0.361639
  F           -8.240943       11.108435        1.355727
  F          -10.404555       10.704302        1.448199
  F          -14.102671        9.308652       -1.175755
  F          -12.355556        8.612124       -2.352550
  F          -12.192105        8.841609       -0.182861
  O           -9.809048       12.998337       -0.419679
  O           -8.249106       11.410747       -1.613086
  O          -12.899250       11.529713       -2.783662
  O          -12.660292       11.823607       -0.291446
  N          -10.669396       10.952040       -1.755494
  C           -9.312956       10.644500        0.640777
  C          -12.738234        9.387731       -1.300816
  S            8.359592        5.380026       -3.292108
  S            8.726425        4.363347       -5.928782
  F           10.935129        5.143378       -2.531835
  F            9.460130        4.462913       -1.048258
  F            9.914174        3.215713       -2.806504
  F           10.653179        3.412588       -7.488827
  F           10.990152        5.505710       -6.834841
  F           11.325405        3.855504       -5.437932
  O            7.205249        4.518587       -3.071909
  O            8.402100        6.711273       -2.700759
  O            8.070650        4.883479       -7.123150
  O            8.425533        3.011218       -5.472904
  N            8.852967        5.509660       -4.808207
  C            9.743484        4.497341       -2.387709
  C           10.519415        4.289907       -6.441926
  S            4.872918        5.242928       -4.591789
  S            3.451906        3.459797       -2.882574
  F            4.330165        7.479880       -3.188624
  F            4.112049        7.672714       -5.369195
  F            2.574448        6.619826       -4.194332
  F            1.992654        3.503324       -0.664747
  F            4.073949        4.214663       -0.373861
  F            2.602799        5.506043       -1.351095
  O            4.249486        4.673428       -5.779255
  O            6.249024        5.719557       -4.645439
  O            3.899483        2.121442       -2.514369
  O            2.243639        3.620356       -3.683152
  N            4.707677        4.396731       -3.244412
  C            3.912562        6.827444       -4.310269
  C            3.017603        4.217500       -1.233092
  S           -0.739130       14.157605        6.644060
  S            1.196094       15.548744        8.206075
  F            0.294657       14.824119        4.245217
  F           -1.893419       14.995058        4.396077
  F           -0.600125       16.518394        5.323403
  F            3.353482       17.063673        7.888689
  F            3.570838       15.020343        7.052048
  F            2.380135       16.516881        5.989256
  O           -1.836840       14.727886        7.414051
  O           -0.839418       12.800690        6.122096
  O            1.773140       15.057513        9.452191
  O            0.357959       16.742018        8.221613
  N            0.718588       14.322668        7.281705
  C           -0.721481       15.187140        5.078183
  C            2.701735       16.054105        7.225679
  S            6.469319      -11.863101       17.410665
  S            8.981584      -10.612629       16.915593
  F            5.046022       -9.581885       17.604789
  F            4.602836      -11.089671       19.144212
  F            6.448178       -9.892951       19.269386
  F           10.027226       -8.184875       16.665173
  F            8.473089       -8.644319       15.149925
  F            7.891042       -8.167038       17.204275
  O            7.049649      -12.728239       18.429403
  O            5.393343      -12.355044       16.559789
  O            9.985605      -11.098637       15.976002
  O            9.279330      -10.595847       18.343066
  N            7.512550      -11.094118       16.473054
  C            5.611189      -10.527884       18.407176
  C            8.824051       -8.810803       16.455016
  S          -15.310718      -14.957482       -2.558412
  S          -13.949351      -12.607594       -1.695303
  F          -13.687839      -15.479214       -4.646824
  F          -15.838139      -15.680088       -5.065763
  F          -14.924170      -13.681251       -4.916081
  F          -11.862020      -11.108797       -2.363679
  F          -11.326229      -13.197612       -1.841960
  F          -12.246656      -12.754803       -3.776815
  O          -16.603866      -14.290149       -2.484197
  O          -15.199042      -16.373958       -2.234613
  O          -13.716011      -12.241450       -0.302972
  O          -14.814511      -11.775654       -2.523545
  N          -14.094961      -14.202071       -1.844221
  C          -14.910281      -14.933915       -4.389074
  C          -12.257219      -12.419565       -2.460064
  S            5.610253      -10.954200        2.869918
  S            6.458471      -13.671679        2.743090
  F            3.318227      -11.430554        4.206747
  F            3.139975      -10.023705        2.524887
  F            3.310523      -12.186478        2.142237
  F            5.649731      -16.088359        3.488518
  F            5.970386      -14.695318        5.185288
  F            4.188068      -14.500389        3.931383
  O            5.876952      -10.757542        1.451020
  O            5.827216       -9.864402        3.812779
  O            7.834879      -14.125419        2.906545
  O            5.791543      -13.842780        1.457576
  N            6.225367      -12.281518        3.516943
  C            3.750781      -11.177374        2.939092
  C            5.515923      -14.787507        3.905007
  S           10.746444       11.696891       -5.218640
  S            9.193509        9.541974       -6.250616
  F           10.597695       10.946330       -2.633696
  F           10.284040       13.092833       -2.999481
  F            8.685796       11.648735       -3.461314
  F            7.883168        7.394338       -5.401656
  F           10.055732        7.344908       -4.954518
  F            8.722909        8.610637       -3.767739
  O            9.983796       12.673264       -5.985543
  O           12.169717       11.902574       -4.982613
  O            9.472943        8.831300       -7.493176
  O            7.975109       10.334546       -6.132529
  N           10.543536       10.167339       -5.640633
  C           10.030926       11.840437       -3.492472
  C            8.962504        8.153656       -5.024756
  S           11.889420      -13.780513       -0.407484
  S           12.835584      -11.367878        0.777510
  F           13.501964      -13.692259       -2.566030
  F           11.409204      -14.222988       -2.988327
  F           11.952700      -12.132334       -2.556038
  F           14.592520       -9.431447        0.315475
  F           15.514912      -11.438923        0.519533
  F           14.459313      -10.901682       -1.320036
  O           10.500761      -13.379612       -0.223151
  O           12.266453      -15.183793       -0.296249
  O           13.050059      -11.167267        2.206094
  O           11.804790      -10.599675        0.089077
  N           12.974456      -12.924199        0.397625
  C           12.211545      -13.423207       -2.218780
  C           14.436844      -10.765171        0.031700
  S            6.521691       16.655418        9.127558
  S            5.421870       18.827980       10.607632
  F            4.683131       14.833803        9.881762
  F            6.766099       14.127409        9.925414
  F            6.020314       15.465462       11.508610
  F            3.399952       19.350964       12.247268
  F            2.759649       18.684642       10.230231
  F            3.532478       17.229031       11.669280
  O            7.862249       16.936445        9.624552
  O            6.334724       16.149622        7.773699
  O            5.342672       20.205389       10.134806
  O            6.268342       18.506417       11.750740
  N            5.434650       17.804071        9.367801
  C            5.960926       15.206593       10.175735
  C            3.686417       18.498691       11.210372
  S           -1.081227       -1.812420        2.322347
  S           -1.603396       -3.254303       -0.079437
  F            1.391102       -2.809133        2.724288
  F            0.118259       -2.725368        4.516635
  F           -0.213005       -4.287349        2.998883
  F           -0.435450       -5.018654       -1.683504
  F            0.664343       -3.098482       -1.522861
  F            0.750446       -4.548888        0.112938
  O           -2.374539       -2.184977        2.880577
  O           -0.504787       -0.507448        2.619808
  O           -2.296808       -2.714648       -1.243502
  O           -2.209223       -4.342255        0.679475
  N           -0.897077       -2.075261        0.755253
  C            0.114538       -2.979597        3.170917
  C           -0.069578       -4.010419       -0.827243
  S           -4.696234      -11.874479        0.800709
  S           -6.905671      -10.207938        1.479887
  F           -6.166121      -13.969654       -0.046097
  F           -4.459898      -14.489202        1.241740
  F           -6.285263      -13.625409        2.122078
  F           -9.560465      -10.254068        1.476978
  F           -8.664941      -10.482235       -0.540046
  F           -8.650692      -12.163486        0.859997
  O           -4.043630      -11.605731        2.075447
  O           -3.898218      -12.063955       -0.403861
  O           -6.970041       -8.769848        1.245685
  O           -6.896322      -10.715322        2.847032
  N           -5.915155      -10.909171        0.424953
  C           -5.456084      -13.569871        1.046684
  C           -8.523505      -10.813446        0.773137
  S           30.781425        2.218843        6.385458
  S           29.814757        4.871122        6.774330
  F           33.080258        2.926327        5.167986
  F           32.004417        1.254238        4.226531
  F           31.284414        3.319369        3.962107
  F           30.525868        7.383087        6.290162
  F           31.938613        6.298180        7.612863
  F           31.929105        5.900392        5.461444
  O           29.499447        1.782050        5.848039
  O           31.590456        1.304717        7.181424
  O           29.119070        5.339909        7.967373
  O           29.107337        4.823620        5.500002
  N           30.778527        3.634244        7.130718
  C           31.838241        2.458872        4.856487
  C           31.128903        6.172861        6.525289
  S            6.700157       10.635684       14.773485
  S            4.432117       10.186661       16.439204
  F            7.317181        8.035238       14.420827
  F            9.029379        9.348725       14.848358
  F            7.661045        8.755046       16.469562
  F            3.069789        8.178534       17.516958
  F            3.090293        8.149776       15.298589
  F            4.864937        7.528519       16.417342
  O            7.230389       11.637904       15.688626
  O            6.893056       10.782490       13.336488
  O            3.188220       10.945719       16.378820
  O            5.266037       10.264316       17.633004
  N            5.177718       10.208139       15.014651
  C            7.717124        9.109372       15.158683
  C            3.837622        8.417786       16.404854
  S          -15.168356      -11.953853       18.994423
  S          -17.917623      -12.109774       19.727548
  F          -15.346828      -13.590417       16.859660
  F          -13.610988      -13.946611       18.163363
  F          -15.615194      -14.617181       18.785127
  F          -20.165620      -13.283629       18.941013
  F          -19.292102      -11.925600       17.419457
  F          -18.402554      -13.893711       17.768992
  O          -14.742054      -12.199548       20.365910
  O          -14.393917      -11.067105       18.135562
  O          -18.717975      -10.990216       20.210375
  O          -17.639754      -13.232470       20.615779
  N          -16.712885      -11.585678       18.800367
  C          -14.940151      -13.616578       18.160461
  C          -18.992634      -12.836682       18.386102
  S           28.858100        1.663666        9.776510
  S           31.654397        2.132693       10.061085
  F           28.088165        4.195578       10.290349
  F           26.901873        2.639461       11.295767
  F           28.911379        3.149901       12.040368
  F           33.335141        4.110655       10.620399
  F           32.129469        4.458853        8.790775
  F           31.215753        4.695134       10.764661
  O           28.923584        0.483159       10.628089
  O           27.929280        1.705342        8.654334
  O           32.689840        1.544052        9.219387
  O           31.591277        1.783625       11.475574
  N           30.262700        2.229841        9.261414
  C           28.170398        2.985716       10.912943
  C           32.096996        3.945851       10.051699
  S            3.512586       12.733607       -5.392648
  S            5.718040       14.380293       -6.130652
  F            4.984680       10.614690       -4.611280
  F            3.231242       10.125548       -5.846532
  F            5.036844       10.975657       -6.779382
  F            8.370782       14.303665       -6.215241
  F            7.539124       14.068941       -4.171798
  F            7.459317       12.399726       -5.583988
  O            2.821818       13.020476       -6.643096
  O            2.752244       12.543243       -4.164087
  O            5.806930       15.815540       -5.887223
  O            5.657998       13.884495       -7.500759
  N            4.754406       13.681684       -5.049408
  C            4.244008       11.031720       -5.676946
  C            7.350909       13.750364       -5.482232
  S           22.015642        2.699375       18.276104
  S           22.684485        2.308782       15.533781
  F           20.908690        0.270050       18.650861
  F           19.776782        1.951054       19.506820
  F           19.734206        1.582850       17.335252
  F           22.488351        0.458793       13.639279
  F           23.698399       -0.181262       15.385281
  F           21.516238       -0.117886       15.530488
  O           21.419434        3.998278       17.992449
  O           22.714527        2.474668       19.534988
  O           23.914390        2.770321       14.900211
  O           21.405118        2.872337       15.118761
  N           22.912545        2.074560       17.108221
  C           20.534054        1.562609       18.433855
  C           22.594935        0.520731       15.006169
  S           16.606457       20.634040       11.498555
  S           19.411455       20.897293       11.926263
  F           16.711097       18.167831       10.414917
  F           15.396226       19.588840        9.370166
  F           17.582326       19.731580        9.138464
  F           21.658817       19.532225       11.557455
  F           20.217851       18.524070       12.910100
  F           19.876640       18.520086       10.748968
  O           16.530048       21.954423       10.887143
  O           15.497942       20.134947       12.302184
  O           20.023411       21.510730       13.099422
  O           19.574324       21.522585       10.618939
  N           17.959232       20.309132       12.287994
  C           16.590432       19.469907       10.029962
  C           20.328869       19.278335       11.781866
  S           13.855090       18.565379        4.993148
  S           12.503875       17.782424        2.609569
  F           15.735081       16.635279        4.905094
  F           14.834243       16.967961        6.884353
  F           13.713896       15.881415        5.329575
  F           12.647473       15.935960        0.706935
  F           14.445084       17.230798        0.826927
  F           14.129821       15.655995        2.312705
  O           12.600269       18.657617        5.727989
  O           14.944808       19.486914        5.288121
  O           11.955328       18.702580        1.619869
  O           11.603943       16.927115        3.374539
  N           13.724857       18.465849        3.401950
  C           14.564288       16.919956        5.542554
  C           13.493307       16.594418        1.564012
  S          -17.465242       -9.273974       16.071616
  S          -16.226755       -8.775384       18.589116
  F          -18.956758       -7.028653       16.035280
  F          -20.013733       -8.858536       15.423737
  F          -19.591388       -8.486593       17.553614
  F          -16.224114       -6.960183       20.526925
  F          -15.563563       -6.165803       18.563499
  F          -17.687251       -6.539036       18.934411
  O          -17.790337      -10.642535       16.451651
  O          -17.122882       -8.960222       14.690287
  O          -14.829802       -9.053809       18.902325
  O          -17.279998       -9.512156       19.277926
  N          -16.413182       -8.520976       17.012330
  C          -19.085492       -8.359913       16.298577
  C          -16.436904       -7.014877       19.172188
  S           -8.432023       19.041651        4.045454
  S           -9.435993       21.401584        2.803275
  F           -9.260450       17.334275        2.130778
  F           -9.630937       16.669431        4.194846
  F          -10.901945       18.225143        3.290749
  F          -10.753943       22.144442        0.621250
  F           -8.807641       21.168251        0.195379
  F          -10.526839       19.960778        0.806361
  O           -9.017832       19.412633        5.326966
  O           -7.160165       18.331645        4.000838
  O           -8.750983       22.688944        2.779575
  O          -10.697503       21.270114        3.522943
  N           -8.376948       20.199693        2.943327
  C           -9.626073       17.763956        3.371684
  C           -9.896588       21.146768        1.012621
  S           10.379501        0.034643       13.038415
  S           10.778752        0.712294       10.299503
  F           12.977025        0.163677       13.748080
  F           11.883277       -1.577076       14.531117
  F           12.506877       -1.523334       12.418931
  F           12.747809        1.310969        8.621865
  F           12.551020        2.739458       10.308015
  F           13.449747        0.772421       10.639656
  O            9.531354       -1.095276       12.682041
  O           10.105321        0.802631       14.246199
  O            9.902522        1.576275        9.516655
  O           10.903545       -0.697051        9.946252
  N           10.682574        1.076251       11.862839
  C           12.027106       -0.763731       13.438695
  C           12.470116        1.425219        9.961050
  S           17.332363       -9.189255        4.241539
  S           18.347298      -10.621572        1.996851
  F           15.434383      -10.988263        4.896253
  F           14.780028       -8.888287        4.935907
  F           15.035489       -9.929274        3.011283
  F           17.917798      -12.877622        0.664246
  F           18.489426      -13.192450        2.784749
  F           16.466073      -12.527351        2.284134
  O           17.265291       -7.950234        3.477733
  O           17.662406       -9.156665        5.660598
  O           19.757934      -10.727032        1.641774
  O           17.431017       -9.918725        1.106318
  N           18.178595      -10.372640        3.576504
  C           15.557177       -9.789801        4.258474
  C           17.774574      -12.397095        1.941808
  S            8.074832      -10.010977        1.137591
  S           10.518844       -8.683177        1.757271
  F            7.503602       -8.552533       -1.056502
  F            5.806913       -8.895615        0.301141
  F            7.356385       -7.418569        0.821299
  F           12.048058       -6.713798        0.844519
  F           11.794113       -8.382724       -0.595136
  F           10.167420       -6.954411       -0.277772
  O            7.613962       -9.902363        2.515588
  O            7.726760      -11.179905        0.339987
  O           11.725659       -9.340310        2.246014
  O            9.813780       -7.739843        2.617281
  N            9.626562       -9.706774        0.895984
  C            7.151301       -8.638084        0.257544
  C           11.160057       -7.636641        0.351165
  S           21.341674       -4.539457        6.546807
  S           18.578327       -4.953285        7.106191
  F           21.930195       -7.127583        6.074943
  F           23.384781       -6.055846        7.330017
  F           21.455984       -6.698506        8.178440
  F           16.809019       -6.927863        7.249920
  F           17.715845       -6.691077        5.238948
  F           18.863077       -7.619538        6.854110
  O           21.505212       -3.713844        7.736215
  O           22.100911       -4.240942        5.339261
  O           17.498645       -4.070141        6.680234
  O           18.866269       -5.105095        8.527689
  N           19.832641       -4.836147        6.106837
  C           22.048842       -6.196366        7.063330
  C           17.968246       -6.635570        6.575872
  S          -11.160692       -3.269068       18.134099
  S          -11.784380       -5.853687       19.159286
  F           -8.676491       -3.886850       17.288818
  F           -8.848036       -1.968585       18.352061
  F           -8.884576       -3.862108       19.477373
  F          -10.679742       -8.253436       19.425829
  F          -10.884545       -7.598175       17.316067
  F           -9.311734       -6.748905       18.577788
  O          -11.633023       -2.622596       19.351494
  O          -11.339592       -2.617082       16.843119
  O          -13.082362       -6.508160       19.040960
  O          -11.285790       -5.475627       20.476515
  N          -11.567433       -4.806140       17.958739
  C           -9.296837       -3.262292       18.329611
  C          -10.601677       -7.175960       18.579346
  S           17.375922      -10.791384       13.229317
  S           15.217847       -8.994178       13.712031
  F           15.853502      -12.846338       12.376788
  F           17.454437      -13.394226       13.782661
  F           15.627283      -12.408407       14.519386
  F           12.568674       -8.912704       13.552943
  F           13.566151       -9.265934       11.602897
  F           13.415076      -10.887279       13.064179
  O           17.966800      -10.502429       14.529487
  O           18.231373      -11.068095       12.082427
  O           15.239605       -7.565435       13.419940
  O           15.122928       -9.445105       15.095601
  N           16.230836       -9.784762       12.745302
  C           16.518717      -12.436809       13.493894
  C           13.614914       -9.549596       12.933803
  S           31.054883       20.811826       15.527363
  S           28.634898       20.803461       14.022754
  F           31.303257       23.493019       15.657443
  F           33.157022       22.408247       15.181544
  F           31.606313       22.674373       13.639607
  F           26.918611       22.507957       12.927709
  F           27.089117       22.709682       15.130581
  F           28.669966       23.489902       13.834779
  O           31.662565       19.828167       14.640677
  O           31.367016       20.804866       16.950826
  O           27.524316       19.881653       14.232450
  O           29.385916       20.754063       12.773697
  N           29.472870       20.998051       15.381309
  C           31.805400       22.433432       14.962258
  C           27.788984       22.466816       13.988060
  S           12.757066       -5.556117       -1.560659
  S           14.675842       -4.458783        0.237786
  F           14.184733       -5.120038       -3.805433
  F           12.052501       -4.595913       -3.941570
  F           13.446233       -3.279501       -2.856366
  F           17.073378       -3.318351        0.201631
  F           17.061407       -5.388764       -0.595650
  F           16.276149       -3.745067       -1.807491
  O           11.676963       -4.799091       -0.941497
  O           12.505475       -6.890889       -2.088679
  O           15.000567       -5.007596        1.549447
  O           14.047784       -3.146187        0.141619
  N           14.128137       -5.613048       -0.738648
  C           13.142670       -4.579188       -3.112802
  C           16.356834       -4.224934       -0.538812
  S           -7.476004       10.269766        8.311663
  S           -6.907360       11.210156       10.940838
  F           -6.741789       12.527114        7.033886
  F           -8.623439       11.629583        6.331402
  F           -8.573267       12.744885        8.230527
  F           -6.006812       13.385108       12.169114
  F           -4.548382       12.494933       10.753847
  F           -6.248363       13.644029        9.994523
  O           -8.783467        9.775060        8.722613
  O           -6.708809        9.555332        7.299381
  O           -6.306320       10.410367       12.002056
  O           -8.276149       11.690985       11.088599
  N           -6.472099       10.652735        9.496690
  C           -7.870966       11.884805        7.446862
  C           -5.868656       12.760776       10.954739
  S          -17.975963       -4.079656       16.139961
  S          -16.530229       -3.425456       18.506842
  F          -16.420997       -2.664326       14.452854
  F          -18.585829       -2.448365       14.126483
  F          -17.614680       -1.415256       15.812498
  F          -14.420680       -2.005452       19.270688
  F          -13.928550       -3.631951       17.844253
  F          -14.885205       -1.799726       17.126830
  O          -19.248316       -3.762671       16.775344
  O          -17.894479       -5.159380       15.164627
  O          -16.252016       -4.351833       19.598409
  O          -17.393211       -2.273673       18.741940
  N          -16.722596       -4.222476       17.123554
  C          -17.621360       -2.567303       15.091500
  C          -14.853471       -2.683341       18.158600
  S           29.939399       13.856344       19.871206
  S           31.837572       13.792072       17.746811
  F           27.756385       14.043638       18.300608
  F           27.768989       15.388480       20.041554
  F           29.014740       15.846393       18.283285
  F           31.920018       13.872179       15.094104
  F           30.795181       12.136418       15.896777
  F           29.891796       14.129024       15.915432
  O           30.704813       14.870245       20.584802
  O           29.207382       12.836761       20.611694
  O           33.031835       12.955377       17.718992
  O           31.975633       15.242947       17.796947
  N           30.701409       13.125863       18.669325
  C           28.557762       14.835343       19.068169
  C           31.061949       13.458762       16.082228
  S          -20.580878       -7.657689        5.146698
  S          -21.625926      -10.308353        5.100814
  F          -22.461413       -6.579472        3.544062
  F          -20.395924       -5.967217        3.098470
  F          -21.106894       -7.966858        2.507663
  F          -23.632123      -11.682054        4.033957
  F          -24.291412      -10.038531        5.370586
  F          -23.551451       -9.585308        3.362110
  O          -19.233181       -8.135811        4.867080
  O          -20.782063       -6.500345        6.009136
  O          -21.672805      -11.207541        6.248140
  O          -20.785607      -10.643362        3.957028
  N          -21.639670       -8.774462        5.583226
  C          -21.174581       -7.025313        3.485420
  C          -23.367824      -10.396834        4.436371
  S           -9.709815       15.431204       15.710212
  S          -11.379864       13.329826       16.666976
  F          -11.680793       17.242719       15.392309
  F          -10.240922       17.132537       13.732706
  F          -11.777959       15.571816       13.966712
  F          -13.936819       12.849758       17.197620
  F          -13.068390       14.488463       18.415358
  F          -13.583346       14.838591       16.317940
  O           -9.055642       14.540127       14.760943
  O           -8.954050       16.500469       16.349910
  O          -11.025192       12.401484       17.734442
  O          -11.565541       12.829788       15.309737
  N          -10.590261       14.719844       16.840504
  C          -10.927679       16.382515       14.650003
  C          -13.075548       13.918143       17.178897
  S           10.613346        4.073037       11.997568
  S           12.830335        3.677423       13.743620
  F           10.458440        6.743761       12.330202
  F            8.530587        5.685406       12.384243
  F            9.888335        5.596229       14.116772
  F           14.447487        5.073029       15.320697
  F           14.552951        5.670604       13.186642
  F           12.848372        6.286261       14.412329
  O            9.874457        2.979161       12.614456
  O           10.477259        4.334274       10.570348
  O           13.931764        2.753322       13.498697
  O           11.931353        3.444655       14.868014
  N           12.170314        4.151416       12.356019
  C            9.845495        5.603978       12.758391
  C           13.712265        5.264035       14.177653
  S           19.462535       -2.384146        4.893788
  S           17.029247       -3.645149        4.113253
  F           18.880924        0.033004        3.851427
  F           20.923627       -0.683170        3.458856
  F           19.224109       -1.523136        2.336720
  F           14.771800       -3.085270        2.832421
  F           15.085424       -1.863026        4.657296
  F           16.213232       -1.418988        2.835810
  O           20.255177       -3.492428        4.377549
  O           19.898703       -1.665024        6.083890
  O           16.284217       -4.598666        4.927397
  O           17.633210       -4.084760        2.860822
  N           17.894178       -2.660279        5.044736
  C           19.615880       -1.077256        3.559341
  C           15.711219       -2.431679        3.589979
  S          -13.077082       19.324462        7.368891
  S          -10.901646       21.144905        7.097391
  F          -11.580776       17.187920        8.049816
  F          -13.158224       16.786305        6.569946
  F          -11.312971       17.825284        5.962777
  F           -8.255483       21.193315        7.310803
  F           -9.290441       20.663637        9.200436
  F           -9.120471       19.187002        7.594949
  O          -13.642478       19.739178        6.091623
  O          -13.954868       18.946076        8.468908
  O          -10.921735       22.539676        7.523192
  O          -10.783480       20.826416        5.679218
  N          -11.936157       20.273078        7.966550
  C          -12.223273       17.705822        6.964861
  C           -9.316078       20.507626        7.847973
  S          -17.070711       10.961002        1.178430
  S          -16.356192       13.263983       -0.340118
  F          -18.062160        9.547653       -0.892049
  F          -19.282861        9.499671        0.937498
  F          -19.285704       11.290573       -0.345372
  F          -16.443268       14.155586       -2.839624
  F          -15.221178       12.320459       -2.592207
  F          -17.405191       12.190963       -2.576579
  O          -17.726380       11.777049        2.191958
  O          -16.374423        9.739332        1.561086
  O          -15.143836       14.050603       -0.143858
  O          -17.657170       13.868069       -0.077155
  N          -16.132856       11.748671        0.149458
  C          -18.496890       10.303706        0.155589
  C          -16.353549       12.954979       -2.180779
  S           26.400824        5.370175        5.333973
  S           24.839642        3.453194        3.916883
  F           24.330736        6.553947        6.591282
  F           25.816178        7.935416        5.740013
  F           24.372711        6.917561        4.423401
  F           22.304488        2.725891        3.610139
  F           23.039306        2.531728        5.694546
  F           22.556991        4.505824        4.883840
  O           27.132415        5.733262        4.127318
  O           27.072905        5.378236        6.627017
  O           25.223677        2.064028        3.693654
  O           24.719491        4.358810        2.780205
  N           25.537532        4.026297        5.247385
  C           25.153914        6.756328        5.523775
  C           23.098551        3.299399        4.571460
  S           24.555498       16.731528       -3.584746
  S           26.069088       14.492942       -4.489193
  F           23.370408       15.462920       -1.522320
  F           22.034576       16.727363       -2.729131
  F           22.691023       14.768772       -3.494699
  F           26.480912       11.941102       -3.882081
  F           27.059934       13.344662       -2.264316
  F           24.947721       12.903693       -2.626303
  O           24.091191       17.020532       -4.935290
  O           24.810258       17.820377       -2.650281
  O           27.440593       14.555982       -4.981224
  O           24.995346       14.105828       -5.396845
  N           25.776438       15.704131       -3.472773
  C           23.094363       15.862503       -2.796010
  C           26.142096       13.106682       -3.241604
  S            0.472855       -0.120210       19.444985
  S            1.024895       -0.243254       16.652072
  F           -1.554870       -1.896409       19.415758
  F           -1.920448       -0.085610       20.610335
  F           -2.028012        0.001408       18.411710
  F            0.152944       -1.464548       14.461591
  F            0.920624       -2.856088       16.009716
  F           -1.042884       -1.922468       16.254504
  O            0.479969        1.336752       19.428118
  O            0.966662       -0.840529       20.611611
  O            2.358912       -0.225064       16.062866
  O            0.111157        0.865043       16.400331
  N            1.074483       -0.834861       18.146487
  C           -1.351487       -0.549069       19.454008
  C            0.222815       -1.703781       15.811209
  S           -3.990459       -5.031814       17.310870
  S           -1.505150       -5.894802       18.405739
  F           -3.233255       -2.485792       16.850627
  F           -5.225105       -2.715608       17.755818
  F           -3.416209       -2.981222       18.984816
  F            0.905899       -4.937818       18.972390
  F            0.391647       -4.832941       16.816711
  F           -0.489955       -3.406963       18.222518
  O           -4.734953       -5.633741       18.409271
  O           -4.557205       -5.010078       15.968466
  O           -0.887682       -7.192118       18.155139
  O           -1.956571       -5.559874       19.751345
  N           -2.459351       -5.476343       17.180943
  C           -3.948621       -3.211783       17.755802
  C           -0.107257       -4.702606       18.076973
  S           23.886958       20.271633       14.026692
  S           22.562318       19.517807       16.434455
  F           23.287708       18.029674       12.654861
  F           25.367603       18.717192       12.452353
  F           24.713263       17.706309       14.297089
  F           21.159509       17.496804       17.433325
  F           20.216604       18.444371       15.662604
  F           21.931326       17.109841       15.406310
  O           25.085278       20.665562       14.756024
  O           23.485350       21.001700       12.831103
  O           21.789297       20.420259       17.280099
  O           23.790060       18.922839       16.949504
  N           22.576082       20.040268       14.913739
  C           24.329110       18.586670       13.335586
  C           21.405517       18.070265       16.210948
  S           27.919066       -4.610633        3.340363
  S           27.978445       -4.352757        6.177655
  F           27.884697       -7.305883        3.297320
  F           29.259539       -6.369174        1.857862
  F           29.789442       -6.457469        3.994331
  F           28.013194       -5.872562        8.354591
  F           26.202255       -6.152195        7.103705
  F           28.108652       -7.025831        6.479733
  O           29.009586       -3.656746        3.185646
  O           26.854413       -4.671736        2.347135
  O           27.248485       -3.346404        6.940221
  O           29.436535       -4.330966        6.167118
  N           27.234165       -4.657392        4.785182
  C           28.758100       -6.272989        3.128654
  C           27.546193       -5.936478        7.065634
  S            5.460114       13.969615       17.559878
  S            4.452879       16.519937       18.335500
  F            6.436818       14.759564       15.174624
  F            5.331743       12.857576       15.144504
  F            4.240624       14.766803       15.276433
  F            4.284310       19.003426       17.411417
  F            6.369280       18.288093       17.663618
  F            5.170643       17.591312       15.971076
  O            4.209542       13.315329       17.921891
  O            6.728740       13.277532       17.747838
  O            4.519556       17.068979       19.685020
  O            3.154915       16.210708       17.747046
  N            5.643333       15.466277       18.093933
  C            5.355778       14.111758       15.694097
  C            5.113853       17.916932       17.289058
  S           27.176884       -1.963867       -0.451868
  S           26.842205       -4.793226       -0.506351
  F           28.042073       -1.727716       -2.994128
  F           29.175277       -0.561020       -1.512804
  F           29.471653       -2.738689       -1.664497
  F           27.144248       -6.842210       -2.167827
  F           25.673722       -5.336847       -2.870568
  F           27.817232       -4.922306       -3.013579
  O           27.899804       -2.028386        0.811579
  O           26.305855       -0.831378       -0.739091
  O           25.742637       -5.516371        0.122225
  O           28.202941       -4.985599       -0.018496
  N           26.395069       -3.293459       -0.875813
  C           28.536794       -1.754022       -1.724203
  C           26.866174       -5.499852       -2.233669
  S           -9.989962       12.908952       12.529292
  S          -11.841779       12.633003       10.381065
  F           -9.194341       10.333355       12.555637
  F           -9.590650       11.205705       14.535940
  F          -11.266673       10.624984       13.229492
  F          -12.780569       10.772606        8.735567
  F          -10.595706       11.107882        8.544845
  F          -11.385483        9.982110       10.246555
  O          -10.966670       13.625689       13.338862
  O           -8.576172       13.251813       12.615112
  O          -12.045292       13.615416        9.322509
  O          -12.921905       12.351026       11.319377
  N          -10.353835       12.746777       10.980074
  C          -10.023413       11.173933       13.236975
  C          -11.627902       11.041124        9.430434
  S           -9.536014      -11.515241       14.678982
  S           -7.473757       -9.735729       15.516054
  F          -11.325777      -10.785442       16.558224
  F          -11.146973      -12.954145       16.235101
  F           -9.593415      -11.873865       17.363173
  F           -7.009768       -7.894704       17.372234
  F           -8.703149       -7.395552       16.028464
  F           -8.958987       -8.896158       17.599979
  O           -8.605979      -12.635077       14.615133
  O          -10.634706      -11.421783       13.726165
  O           -6.594415       -8.995267       14.618520
  O           -6.913861      -10.760473       16.389570
  N           -8.872460      -10.064291       14.793965
  C          -10.436001      -11.785450       16.300474
  C           -8.078901       -8.412293       16.684745
  S           -2.977384        5.958622       -4.445143
  S           -5.783868        5.579229       -4.128980
  F           -2.239795        3.657315       -3.250423
  F           -1.072740        5.427133       -2.662731
  F           -3.106424        5.131855       -1.868985
  F           -7.493452        3.820745       -3.111569
  F           -6.237517        2.997479       -4.744746
  F           -5.383139        3.298824       -2.753225
  O           -3.059614        7.323782       -3.942500
  O           -2.016661        5.619549       -5.487142
  O           -6.790430        5.920028       -5.127871
  O           -5.759509        6.293929       -2.858065
  N           -4.370215        5.273536       -4.831741
  C           -2.331916        4.989504       -2.976672
  C           -6.238226        3.829037       -3.666477
  S           25.136557        6.720916       10.368324
  S           23.312061        4.602367        9.817673
  F           26.086602        6.942620        7.855225
  F           27.615627        6.990156        9.436197
  F           26.678961        5.080461        8.862774
  F           22.508220        3.090660        7.788229
  F           22.127884        5.255941        7.489377
  F           24.152998        4.459297        7.263092
  O           25.657690        6.028232       11.539513
  O           25.037983        8.174864       10.362223
  O           21.972940        4.485245       10.383476
  O           24.326499        3.611164       10.156855
  N           23.771985        6.142368        9.766657
  C           26.437488        6.403717        9.057145
  C           23.011907        4.350832        7.992801
  S            9.850300       -6.076653        4.276581
  S            8.932432       -4.910497        1.843918
  F            8.356665       -4.540957        5.913070
  F           10.447802       -4.810515        6.540874
  F            9.959232       -3.439896        4.886850
  F            7.273825       -3.017241        0.998535
  F            6.269371       -4.637430        2.133643
  F            7.438258       -3.121488        3.193149
  O           11.241186       -5.969660        3.855790
  O            9.416997       -7.205704        5.089731
  O            8.651314       -5.648651        0.617868
  O           10.025045       -3.944999        1.868888
  N            8.756798       -5.860668        3.129244
  C            9.636210       -4.632881        5.452129
  C            7.395265       -3.874840        2.063130
  S           26.878832       12.094909       11.370812
  S           28.326533       14.120114       12.757519
  F           24.425096       12.967489       12.067367
  F           24.719174       10.792945       12.223988
  F           25.576518       12.135736       13.745490
  F           27.885774       16.244495       14.288141
  F           27.015645       16.417731       12.254604
  F           26.047824       15.152870       13.754731
  O           27.724205       11.046500       11.926919
  O           26.350406       11.968021       10.018633
  O           29.527477       14.779293       12.257207
  O           28.408727       13.278575       13.945656
  N           27.422367       13.590034       11.537998
  C           25.325872       12.005638       12.416074
  C           27.255942       15.556368       13.281476
  S          -19.801948       16.383715       16.077119
  S          -21.102291       14.305327       14.624651
  F          -17.359622       16.001266       15.001858
  F          -17.380901       16.301166       17.181138
  F          -18.007478       14.370073       16.325933
  F          -20.551721       12.439493       12.817554
  F          -20.187670       14.507149       12.100145
  F          -18.778187       13.564700       13.482925
  O          -20.384737       15.931821       17.333790
  O          -19.583061       17.805131       15.841775
  O          -22.447650       14.390986       14.068083
  O          -20.824642       13.354004       15.694469
  N          -20.447233       15.768605       14.748952
  C          -18.052095       15.715739       16.140764
  C          -20.097554       13.682801       13.180184
  S            0.941567       -8.110047        0.036128
  S            0.707421      -10.791872        0.970602
  F           -1.147488       -8.214783       -1.664544
  F            0.659186       -7.249870       -2.467369
  F            0.564476       -9.443735       -2.291072
  F           -0.801269      -12.945771        0.603668
  F           -1.925915      -11.191666        1.365702
  F           -1.320200      -11.274611       -0.735050
  O            2.373719       -8.263887       -0.183754
  O            0.402554       -6.829501        0.475884
  O            0.906110      -11.215239        2.352042
  O            1.624702      -11.255647       -0.063865
  N            0.244430       -9.253081        0.911487
  C            0.213966       -8.280141       -1.682561
  C           -0.925145      -11.581008        0.528430
  S          -13.596482       10.549445       -6.492631
  S          -16.386831       11.126967       -6.466773
  F          -13.817544        8.022068       -5.581090
  F          -12.215264        9.209812       -4.652858
  F          -14.315179        9.549496       -4.080088
  F          -18.695230        9.966300       -5.855043
  F          -17.586525        8.939338       -7.479399
  F          -16.938908        8.715742       -5.401533
  O          -13.285734       11.798204       -5.809177
  O          -12.678480       10.013129       -7.489304
  O          -17.089800       11.896871       -7.486665
  O          -16.288165       11.650787       -5.109389
  N          -15.076914       10.430118       -7.086652
  C          -13.498080        9.267715       -5.128918
  C          -17.448406        9.601217       -6.297454
  S          -21.118652        9.051075        9.985074
  S          -22.656745       10.888024        8.442305
  F          -18.734517        9.691904        8.902186
  F          -19.100776        7.535490        9.137535
  F          -20.084971        8.652051        7.513421
  F          -22.331746       12.716942        6.545070
  F          -21.238875       13.177032        8.420266
  F          -20.475417       11.646045        7.056397
  O          -22.047201        7.964833        9.700560
  O          -20.448122        9.120514       11.277084
  O          -23.777693       11.671067        8.949666
  O          -22.891164        9.870607        7.424208
  N          -21.638023       10.522122        9.631446
  C          -19.693026        8.726819        8.812608
  C          -21.613152       12.172948        7.580096
  S          -17.502974       -9.332863        0.960632
  S          -19.368335      -11.319863        1.792802
  F          -15.609987      -11.053714        0.110527
  F          -14.863088       -9.362660        1.303059
  F          -15.882297      -11.046703        2.292151
  F          -19.605374      -13.962012        1.906519
  F          -19.359958      -13.179144       -0.154864
  F          -17.634757      -13.289697        1.186176
  O          -17.652034       -8.603751        2.213330
  O          -17.275504       -8.609633       -0.283923
  O          -20.812957      -11.237960        1.609899
  O          -18.811242      -11.309801        3.140452
  N          -18.606200      -10.454625        0.671978
  C          -15.890040      -10.260795        1.183375
  C          -18.965891      -13.021038        1.138916
  S           -9.840479        6.533614       13.366822
  S           -7.237328        7.216781       12.430265
  F          -11.067396        6.729794       10.974419
  F          -12.149516        7.650477       12.654006
  F          -10.395610        8.660361       11.783925
  F           -5.999638        7.882994       10.177633
  F           -6.922752        5.866267       10.122117
  F           -8.177961        7.649425        9.943991
  O           -9.736043        7.470775       14.477631
  O          -10.564459        5.279876       13.533297
  O           -5.997728        6.594036       12.880462
  O           -7.480490        8.626013       12.715833
  N           -8.474379        6.204007       12.602682
  C          -10.903959        7.446262       12.122511
  C           -7.085132        7.141318       10.571593
  S           21.536580       -6.170941        3.349015
  S           24.346641       -6.585448        3.577031
  F           20.848318       -8.772496        3.509053
  F           19.805561       -7.627972        1.946243
  F           21.898285       -8.248988        1.649700
  F           26.091591       -8.568616        3.845847
  F           24.650489       -8.418326        5.526039
  F           24.012329       -9.257666        3.608961
  O           21.714104       -5.288293        2.203375
  O           20.464747       -5.922397        4.304589
  O           25.257660       -5.734340        4.333836
  O           24.474497       -6.666832        2.126637
  N           22.859863       -6.503245        4.184046
  C           21.011437       -7.794344        2.573765
  C           24.787626       -8.297000        4.176734
  S          -22.565086       14.699537        1.923501
  S          -23.365302       16.646525        0.002787
  F          -19.988351       14.567142        1.142276
  F          -20.944882       12.624256        1.529437
  F          -21.399504       13.729812       -0.321011
  F          -22.345118       18.067172       -1.994975
  F          -21.391956       18.478174       -0.034116
  F          -20.916208       16.637920       -1.117657
  O          -23.712164       13.856269        1.613364
  O          -22.053710       14.766347        3.286495
  O          -24.285355       17.747747        0.263375
  O          -23.745707       15.596782       -0.935267
  N          -22.626028       16.194362        1.357319
  C          -21.153952       13.873247        1.007983
  C          -21.922992       17.500068       -0.818631
  S          -10.581890       -5.626500        8.412691
  S          -12.685521       -4.882137        6.640429
  F          -11.886079       -4.998233       10.686845
  F           -9.790767       -4.333422       10.601118
  F          -11.340117       -3.250643        9.469659
  F          -15.148500       -3.893014        6.714188
  F          -14.941479       -5.842047        7.753813
  F          -14.193796       -4.014487        8.696110
  O           -9.599495       -4.889658        7.628448
  O          -10.204741       -6.866537        9.078863
  O          -13.056851       -5.610310        5.432550
  O          -12.144583       -3.532386        6.530099
  N          -11.996674       -5.869109        7.706782
  C          -10.931448       -4.486995        9.858915
  C          -14.324134       -4.654252        7.504455
  S          -10.259783       -6.470164       13.017861
  S          -11.958806       -5.209840       14.927089
  F          -11.724911       -8.719442       12.769764
  F           -9.554579       -9.036057       12.940257
  F          -10.738644       -8.518395       14.724385
  F          -14.208484       -5.670434       16.260082
  F          -14.469776       -5.643921       14.057031
  F          -13.554566       -7.377001       15.029531
  O           -9.073639       -6.173488       13.810401
  O          -10.186832       -6.465636       11.562396
  O          -12.286647       -3.788806       14.943755
  O          -11.188739       -5.784266       16.024196
  N          -11.590903       -5.688134       13.436580
  C          -10.598164       -8.274510       13.394768
  C          -13.634178       -6.020973       15.063888
  S          -16.667259       11.936884       10.247356
  S          -15.860546       10.906892        7.715838
  F          -19.317111       11.649596        9.843425
  F          -18.714518       13.565224       10.741704
  F          -18.395970       13.204850        8.591878
  F          -16.925224        9.932947        5.486947
  F          -17.399494        8.737804        7.295015
  F          -18.425167       10.637313        6.938936
  O          -15.789331       13.091401       10.108045
  O          -16.895288       11.345613       11.559653
  O          -14.706685       10.042612        7.495119
  O          -15.877249       12.246878        7.140709
  N          -16.413379       10.740261        9.216620
  C          -18.359098       12.618977        9.817639
  C          -17.228653       10.003776        6.823546
  S          -20.724798        6.341574        3.742750
  S          -18.762656        8.404678        3.860417
  F          -22.802381        7.876405        4.514337
  F          -22.698199        5.899617        5.474080
  F          -21.334736        7.509035        6.109561
  F          -18.561962       10.984805        4.454332
  F          -19.921384       10.567471        2.751331
  F          -20.576048       10.160860        4.799015
  O          -19.871928        5.425721        4.489008
  O          -21.605094        5.834151        2.698086
  O          -17.678738        8.582032        2.900853
  O          -18.451571        8.060170        5.242862
  N          -20.008332        7.654016        3.174464
  C          -21.943056        6.952042        5.029375
  C          -19.503836       10.114387        3.965630
  S           24.890602       -9.900592       16.366198
  S           26.918485      -11.784055       17.044807
  F           23.032250      -10.852000       18.071705
  F           22.290573      -10.380324       16.055003
  F           23.472009      -12.207837       16.397786
  F           27.304674      -13.861215       18.653014
  F           26.858737      -11.973523       19.730124
  F           25.251022      -13.066642       18.726494
  O           25.097041      -10.123671       14.941175
  O           24.529011       -8.575912       16.854251
  O           28.338133      -11.474068       17.169710
  O           26.467746      -12.682958       15.988672
  N           26.026592      -10.477538       17.333380
  C           23.351752      -10.900014       16.747407
  C           26.558203      -12.709881       18.624860
  S           30.915925      -14.988919        6.319125
  S           30.711232      -13.358706        3.990873
  F           28.464533      -16.091709        6.114338
  F           29.024982      -15.437418        8.138555
  F           28.431686      -13.952996        6.622776
  F           28.983755      -12.787961        2.056930
  F           29.584905      -14.922940        2.110725
  F           28.168062      -14.147655        3.586673
  O           31.408011      -13.871047        7.113661
  O           31.402098      -16.338561        6.575684
  O           31.792229      -13.118817        3.041666
  O           30.191103      -12.251685        4.784965
  N           30.914126      -14.769904        4.734572
  C           29.111754      -15.114625        6.810444
  C           29.289003      -13.840900        2.882597
  S            7.666016       -3.827478       19.817960
  S            8.931504       -4.851717       17.479215
  F            6.635605       -1.628401       18.647611
  F            7.567694       -1.288089       20.611040
  F            8.826379       -1.588984       18.828271
  F            9.265977       -4.238790       14.917475
  F            7.143133       -4.532355       15.491721
  F            8.184294       -2.692058       16.054055
  O            8.872443       -4.023117       20.611265
  O            6.353831       -4.007922       20.425686
  O            8.985166       -6.261101       17.107932
  O           10.164275       -4.146836       17.810927
  N            7.642626       -4.556395       18.394263
  C            7.682375       -1.991628       19.441645
  C            8.339638       -4.034156       15.909243
  S           20.948024       20.410755        3.739091
  S           19.518109       19.895113        6.149425
  F           19.195263       19.185987        2.097391
  F           21.312361       18.741134        1.697826
  F           20.290928       17.803724        3.409851
  F           17.293720       18.703759        6.975762
  F           16.933676       20.386313        5.575123
  F           17.663180       18.468160        4.816543
  O           22.198794       19.953049        4.329983
  O           20.951735       21.501545        2.772715
  O           19.377203       20.836383        7.254528
  O           20.259006       18.655096        6.349529
  N           19.750125       20.678977        4.764701
  C           20.398337       18.954678        2.695103
  C           17.760619       19.340913        5.853432
  S            8.595150       -8.196286       -3.349017
  S            8.107934      -10.899006       -2.588636
  F            9.373677       -8.743161       -5.871363
  F           10.623523       -7.277813       -4.808211
  F           10.797093       -9.423469       -4.340104
  F            8.236186      -13.348938       -3.604241
  F            6.822348      -12.015548       -4.674542
  F            8.977890      -11.792370       -4.975812
  O            9.361467       -7.945534       -2.135364
  O            7.775510       -7.139483       -3.927875
  O            6.996192      -11.345046       -1.756667
  O            9.474139      -11.029648       -2.095658
  N            7.727742       -9.540259       -3.359996
  C            9.914580       -8.439826       -4.657459
  C            8.027914      -12.065466       -4.043453
  S            8.442886       17.173294        6.571692
  S            7.447405       19.834321        6.352141
  F           11.008500       17.862979        7.029257
  F           10.727549       16.225545        5.587199
  F           10.324902       18.306677        4.987319
  F            8.313110       22.341967        6.463178
  F            8.620155       21.211013        8.347077
  F            9.926178       20.850427        6.629168
  O            7.755288       16.767317        5.352895
  O            8.594383       16.232221        7.674031
  O            6.168988       20.294143        6.882525
  O            7.665989       19.820551        4.910390
  N            7.989108       18.575543        7.193432
  C           10.214398       17.421802        6.012931
  C            8.643434       21.117956        6.988787
  S            9.843768       17.251279       -3.457224
  S           11.789688       19.273829       -3.950112
  F           11.601769       15.232616       -3.138106
  F            9.850891       14.754664       -4.381345
  F           11.484598       15.984568       -5.200755
  F           14.423128       19.555057       -4.139774
  F           13.745391       18.848723       -2.148750
  F           13.784312       17.467194       -3.844861
  O            9.052322       17.669127       -4.607046
  O            9.184177       16.745179       -2.260343
  O           11.720049       20.640433       -3.445496
  O           11.710139       19.031273       -5.385888
  N           10.980927       18.272819       -2.985945
  C           10.755987       15.737440       -4.080420
  C           13.521049       18.751674       -3.488304
  S          -20.412043       13.418621       -3.717750
  S          -18.806548       15.731684       -3.279149
  F          -22.711617       14.747948       -4.178464
  F          -22.895885       12.999208       -2.856493
  F          -22.021348       14.872189       -2.094771
  F          -19.028868       18.376941       -3.222076
  F          -19.528263       17.484898       -5.191155
  F          -20.949405       17.343176       -3.533687
  O          -19.892894       12.775318       -2.517867
  O          -20.745148       12.619654       -4.890104
  O          -17.434695       15.896833       -3.745884
  O          -19.078481       15.675904       -1.847523
  N          -19.605574       14.704204       -4.223381
  C          -22.089890       14.057904       -3.180743
  C          -19.627025       17.309926       -3.844387
  S           16.912191        3.248350       13.882818
  S           16.847434        1.850165       11.400655
  F           19.380185        4.285190       13.564424
  F           18.970166        3.452918       15.559132
  F           19.368446        2.106801       13.861358
  F           18.376304        1.416956        9.273461
  F           17.870772        3.554707        9.584695
  F           19.376589        2.591552       10.846352
  O           16.444826        2.074189       14.608071
  O           16.506179        4.581243       14.309749
  O           15.679486        1.740658       10.534052
  O           17.388044        0.653728       12.035395
  N           16.768031        3.186916       12.290894
  C           18.755711        3.265847       14.219499
  C           18.187296        2.392646       10.219974
  S          -14.799042       -8.683006       -5.887938
  S          -15.514900       -8.868135       -3.135934
  F          -16.177092      -10.856622       -6.690296
  F          -14.145652      -10.684653       -7.516934
  F          -14.438102      -11.328232       -5.430461
  F          -16.942106      -10.405164       -1.507840
  F          -18.143404       -9.451871       -3.111125
  F          -16.858343      -11.160552       -3.575836
  O          -13.392005       -8.500503       -5.556257
  O          -15.371768       -8.005415       -7.044042
  O          -15.831948       -7.732671       -2.277273
  O          -14.329904       -9.671729       -2.859109
  N          -15.827855       -8.519024       -4.674087
  C          -14.899991      -10.485388       -6.391382
  C          -16.943238      -10.029359       -2.827822
  S           11.623000      -12.520113        6.691382
  S           10.462372       -9.923767        6.511997
  F            9.396094      -13.878176        6.010233
  F           10.509787      -14.711121        7.714799
  F            9.271936      -12.908108        7.979303
  F            8.136610       -8.773595        5.948078
  F            8.978017       -9.949874        4.265576
  F            8.045277      -10.974909        5.958570
  O           12.209491      -12.217575        7.990448
  O           12.327817      -13.385598        5.754425
  O           11.130836       -8.745719        5.971205
  O           10.102798       -9.962901        7.924720
  N           11.070671      -11.265370        5.867166
  C           10.112437      -13.542999        7.120486
  C            8.823987       -9.914726        5.618052
  S           23.098391       14.075152        5.236791
  S           20.300305       13.536247        5.260117
  F           22.915913       16.584629        6.204590
  F           24.293115       16.339384        4.506703
  F           22.116354       16.362396        4.168662
  F           18.008900       14.722735        5.886036
  F           19.397186       14.508004        7.603290
  F           19.761818       16.042292        6.086737
  O           23.229589       13.572982        3.875290
  O           24.179065       13.881404        6.195085
  O           19.698216       12.262772        5.638067
  O           20.174741       14.013186        3.887755
  N           21.726060       13.723665        5.979720
  C           23.088172       15.936389        5.017887
  C           19.326161       14.768140        6.268585
  S           21.075548       16.494130        9.511623
  S           22.288219       18.928764        8.661780
  F           23.357564       15.297699       10.304319
  F           21.995313       14.024093        9.137333
  F           23.207995       15.560665        8.126668
  F           24.688072       20.052968        8.497645
  F           24.083335       19.546479       10.571331
  F           24.744318       17.968129        9.207937
  O           20.310674       16.391032        8.275738
  O           20.501960       16.028353       10.767716
  O           21.723141       20.258093        8.863444
  O           22.437614       18.407416        7.308085
  N           21.760522       17.912478        9.790688
  C           22.492216       15.295216        9.251076
  C           24.039272       19.127676        9.276412
  S           24.490455        1.232700       12.176438
  S           21.834984        0.677613       11.304313
  F           25.481446        1.803309        9.735178
  F           26.758039        0.515188       10.980453
  F           24.965888       -0.316703       10.006162
  F           20.406633        0.600307        9.067372
  F           21.243385        2.604809        9.519286
  F           22.540895        1.030241        8.729265
  O           24.531553        0.013994       12.974021
  O           25.179767        2.431423       12.636476
  O           20.623441        1.065789       12.017460
  O           22.157902       -0.736011       11.149383
  N           23.044125        1.677130       11.657409
  C           25.459273        0.781351       10.636989
  C           21.497135        1.267811        9.566197
  S           11.611767       -1.525741       19.079085
  S           11.013749        1.197512       18.490428
  F           14.272658       -1.184730       19.345121
  F           13.672340       -2.949990       18.177589
  F           13.552386       -0.940735       17.282269
  F           12.248479        3.529198       18.192524
  F           12.485861        2.649352       20.215375
  F           13.627719        1.844827       18.531383
  O           10.805793       -1.992075       17.958365
  O           11.681208       -2.309112       20.305963
  O            9.849091        1.922607       18.985305
  O           11.148767        0.941102       17.061219
  N           11.406810        0.005154       19.495176
  C           13.367341       -1.639544       18.433147
  C           12.420788        2.357952       18.886841
  S           -2.350681       -9.013166       15.811399
  S           -1.795110      -10.736358       18.011899
  F           -3.799700       -7.220252       17.208973
  F           -4.654147       -7.795490       15.265092
  F           -4.788732       -9.170514       16.980985
  F           -2.296928      -10.936580       20.611544
  F           -1.165264       -9.108920       20.062542
  F           -3.310913       -9.231726       19.652617
  O           -2.752067      -10.136547       14.974752
  O           -1.671168       -7.867339       15.220582
  O           -0.521477      -11.407089       18.246573
  O           -2.983535      -11.529249       17.719353
  N           -1.577047       -9.390234       17.159764
  C           -3.981792       -8.270679       16.359503
  C           -2.158567       -9.951624       19.665868
  S           -4.614372        3.998073       17.557265
  S           -5.209893        1.791554       15.855243
  F           -1.933499        3.807866       17.347152
  F           -2.686162        4.141916       19.387143
  F           -2.852398        2.149985       18.461038
  F           -3.961556       -0.050800       14.406984
  F           -3.540689        2.027912       13.755651
  F           -2.591766        1.233283       15.559824
  O           -5.538938        3.519413       18.576646
  O           -4.438622        5.428794       17.343095
  O           -6.302934        1.752226       14.890458
  O           -5.225013        0.885854       16.998087
  N           -4.743409        3.307445       16.120198
  C           -2.935615        3.483541       18.212444
  C           -3.745453        1.232821       14.841955
  S           -0.846954       -8.113163        3.292535
  S           -2.398731       -8.338965        0.913197
  F           -2.874115       -7.322137        4.883856
  F           -0.999826       -6.198134        5.135477
  F           -2.287469       -5.821318        3.388171
  F           -4.896067       -7.999532        0.077636
  F           -4.688832       -9.544657        1.656259
  F           -4.590693       -7.423150        2.182099
  O            0.187861       -7.356675        2.599746
  O           -0.486794       -9.034482        4.362665
  O           -2.250731       -9.393428       -0.083448
  O           -2.089002       -6.959923        0.554138
  N           -1.912998       -8.853182        2.357281
  C           -1.813326       -6.794923        4.209376
  C           -4.237181       -8.331103        1.235009
  S          -16.547293        5.109790       10.604051
  S          -18.559154        6.205011       12.299089
  F          -17.909142        2.878173        9.946282
  F          -15.790234        2.562406       10.446455
  F          -17.259590        2.930331       12.046055
  F          -20.987270        5.626831       13.204642
  F          -20.885453        5.825578       10.997259
  F          -20.108706        4.026780       11.970870
  O          -15.512483        5.350242       11.601260
  O          -16.237551        5.229653        9.185103
  O          -18.912267        7.618257       12.370805
  O          -17.967965        5.550501       13.460435
  N          -17.943573        5.848144       10.857063
  C          -16.908358        3.279279       10.780366
  C          -20.218629        5.375349       12.095800
  S          -13.744385       17.210524       13.470717
  S          -14.012399       14.387093       13.193841
  F          -16.376567       17.723521       13.746136
  F          -15.298790       19.085660       12.396090
  F          -15.813776       17.049784       11.730440
  F          -15.901326       12.521742       13.144019
  F          -15.812641       13.646647       15.054289
  F          -16.697940       14.571410       13.280031
  O          -12.862380       17.285713       12.313355
  O          -13.544043       18.106609       14.602360
  O          -13.110018       13.401297       13.777801
  O          -14.097956       14.515353       11.743723
  N          -14.002078       15.744341       14.056109
  C          -15.398353       17.780380       12.798499
  C          -15.694529       13.758303       13.702351
  S           22.199515       -7.049478       11.220016
  S           19.830243       -8.461511       10.503803
  F           20.974779       -4.729960       11.842321
  F           22.803330       -4.523135       10.636802
  F           20.931375       -5.204021        9.695913
  F           17.208768       -8.075170       10.334460
  F           18.013573       -7.825901       12.386913
  F           18.327319       -6.260415       10.891004
  O           22.880427       -7.486530       10.008233
  O           22.947671       -6.881725       12.459308
  O           19.563547       -9.859981       10.820426
  O           19.982205       -8.054522        9.111725
  N           20.844817       -7.822401       11.575209
  C           21.685145       -5.291536       10.823418
  C           18.269994       -7.606450       11.067731
  S          -19.842035       20.034183       10.593915
  S          -20.437134       17.535248        9.360453
  F          -17.297483       19.432246       11.249912
  F          -18.454858       20.432514       12.830925
  F          -18.796113       18.300600       12.393226
  F          -19.278947       15.205604        8.829953
  F          -18.279264       16.935668        7.865628
  F          -18.007627       16.568174       10.005276
  O          -21.074030       19.995357       11.370931
  O          -19.320878       21.307071       10.112383
  O          -21.232977       17.370184        8.149468
  O          -20.931529       17.003756       10.625246
  N          -19.744965       18.986390        9.389139
  C          -18.531190       19.506388       11.824909
  C          -18.915131       16.518587        8.995172
  S           -0.303075       10.234889       -2.488724
  S           -1.327119       11.314136       -4.919117
  F            2.293413       10.713888       -3.032979
  F            1.870126        8.726620       -2.189624
  F            1.398335        9.154708       -4.298474
  F           -0.464998       12.448927       -7.159444
  F            0.041939       13.596191       -5.329360
  F            1.162780       11.785433       -5.831157
  O           -1.112576        9.031545       -2.629238
  O           -0.033296       10.784555       -1.166299
  O           -2.545015       12.108485       -5.032397
  O           -1.260340       10.003444       -5.554918
  N           -0.695231       11.454119       -3.447093
  C            1.399298        9.685049       -3.047142
  C           -0.076464       12.342514       -5.847460
  S           14.565732       -8.638237        8.737132
  S           16.699335      -10.461739        8.244354
  F           12.709821      -10.511717        9.296661
  F           12.027409       -8.890603        7.975315
  F           13.329086      -10.483638        7.187299
  F           17.170089      -13.074623        8.208345
  F           16.531116      -12.313467       10.191969
  F           15.060143      -12.570094        8.592809
  O           14.853953       -7.900220        7.514293
  O           14.081172       -7.935687        9.918379
  O           18.083658      -10.258276        8.655872
  O           16.368132      -10.499783        6.824681
  N           15.697167       -9.662830        9.215507
  C           13.092542       -9.698933        8.271449
  C           16.339251      -12.190215        8.849527
  S            8.319364        0.137187       -4.334508
  S           11.082683       -0.484153       -4.021057
  F            8.184616       -0.467243       -6.958229
  F            7.178295        1.401759       -6.380470
  F            9.375312        1.329581       -6.525388
  F           13.146339       -1.342723       -5.454321
  F           11.462750       -2.785057       -5.367083
  F           11.324338       -1.018002       -6.649771
  O            8.480943        1.410290       -3.644454
  O            7.083827       -0.621798       -4.189215
  O           11.662381       -1.150678       -2.860543
  O           11.449096        0.896083       -4.316530
  N            9.536576       -0.891052       -4.193447
  C            8.279220        0.622142       -6.144324
  C           11.779211       -1.463221       -5.449271
  S           25.318283       12.607761        3.124256
  S           24.522179        9.878609        3.319700
  F           27.486759       12.165148        1.585031
  F           27.796655       13.571897        3.247763
  F           27.690878       11.406417        3.638406
  F           25.293388        7.474449        2.497922
  F           24.802062        8.865366        0.840708
  F           26.687329        9.083160        1.929406
  O           25.177919       12.798651        4.561940
  O           25.002328       13.695812        2.207720
  O           23.142973        9.406077        3.279732
  O           25.304557        9.714906        4.539413
  N           24.665547       11.272985        2.531731
  C           27.166824       12.410475        2.887186
  C           25.371309        8.777632        2.074569
  S           16.051523       15.015794       -1.407867
  S           13.769258       13.429408       -0.779458
  F           17.757493       12.952552       -1.724265
  F           18.548674       14.645146       -0.562884
  F           17.109592       13.252533        0.355139
  F           13.087102       10.880535       -0.482854
  F           13.816846       11.374604       -2.518973
  F           15.236848       11.172842       -0.866757
  O           15.805143       15.899502       -0.275864
  O           16.610050       15.548865       -2.643829
  O           12.412680       13.697219       -1.243212
  O           14.073989       13.515613        0.644031
  N           14.848158       14.039213       -1.804078
  C           17.426113       13.896955       -0.798824
  C           13.997043       11.623560       -1.192435
  S           19.125368       13.918639       12.757442
  S           17.303384       16.104245       12.603336
  F           20.572841       14.895294       14.811310
  F           21.753608       14.042572       13.162580
  F           20.818491       16.024904       12.941197
  F           16.817828       18.430628       13.787499
  F           16.658768       16.688160       15.151651
  F           18.626820       17.424501       14.542143
  O           19.351121       13.946682       11.318233
  O           19.132818       12.649882       13.474326
  O           15.873203       15.982618       12.344716
  O           18.156813       16.775556       11.629882
  N           17.871657       14.762030       13.282495
  C           20.636922       14.779692       13.454593
  C           17.357925       17.209817       14.106086
  S            7.987231       19.256885        2.376505
  S            5.143057       19.116421        2.482328
  F            8.199273       21.676553        3.545972
  F            9.470134       21.384183        1.774225
  F            7.309305       21.741197        1.536628
  F            3.067837       20.556079        3.301419
  F            4.466793       20.004510        4.932708
  F            4.997827       21.594617        3.526830
  O            7.999891       18.857779        0.975210
  O            9.059894       18.833180        3.267342
  O            4.377046       17.912899        2.785408
  O            5.042088       19.720186        1.158740
  N            6.603919       19.040360        3.150034
  C            8.237329       21.112855        2.305428
  C            4.389858       20.383566        3.627124
  S           -4.278593      -15.555154        4.258655
  S           -1.509562      -15.120670        4.772409
  F           -4.878006      -12.982754        3.719333
  F           -6.315206      -14.020187        5.022346
  F           -4.377650      -13.350010        5.828468
  F            0.257331      -13.139786        4.837615
  F           -0.673141      -13.436164        2.845433
  F           -1.802741      -12.463307        4.446833
  O           -4.426131      -16.346293        5.473318
  O           -5.051696      -15.889750        3.069505
  O           -0.433291      -16.013946        4.359138
  O           -1.780689      -14.928292        6.192302
  N           -2.775568      -15.268775        3.792090
  C           -4.982860      -13.885192        4.735583
  C           -0.909326      -13.453403        4.186355
  S           -9.511911       15.689924       10.163256
  S          -10.199948       18.304149       11.064747
  F           -6.937428       16.250714        9.593205
  F           -7.989718       15.059634        8.072131
  F           -8.373646       17.222271        8.241525
  F           -9.094341       20.695982       11.391598
  F           -8.140629       19.102179       12.605119
  F           -7.743883       19.227224       10.457123
  O          -10.695272       15.621636        9.315868
  O           -9.010487       14.488117       10.817438
  O          -11.068395       18.594453       12.199921
  O          -10.621692       18.680543        9.720473
  N           -9.495753       16.869610       11.243469
  C           -8.133733       16.093222        8.959012
  C           -8.710796       19.378254       11.399779
  S            2.010777       18.609632       -1.081913
  S           -0.192719       16.853353       -0.657248
  F            0.540452       20.736013       -1.846147
  F            2.321721       20.345095       -3.076561
  F            0.528154       19.085314       -3.298293
  F           -2.842587       16.842521       -0.825031
  F           -2.049517       18.321514        0.626186
  F           -1.928640       18.722465       -1.521268
  O            2.723749       17.601179       -1.855067
  O            2.748251       19.538627       -0.235260
  O           -0.297788       15.894708        0.436852
  O           -0.101755       16.371659       -2.030678
  N            0.754942       18.084265       -0.241884
  C            1.298642       19.743852       -2.392880
  C           -1.832993       17.741049       -0.586386
  S          -13.017294      -15.171253        2.988886
  S          -14.641231      -12.833422        3.121656
  F          -10.742300      -13.988665        3.821530
  F          -10.513199      -15.340566        2.101202
  F          -11.395236      -13.340919        1.824586
  F          -14.448732      -10.259912        3.746200
  F          -13.975552      -11.621959        5.432419
  F          -12.522383      -11.326403        3.823731
  O          -13.506586      -15.490173        1.653986
  O          -12.696685      -16.240929        3.925220
  O          -16.023329      -12.801915        3.586315
  O          -14.342182      -12.519962        1.729203
  N          -13.847921      -14.062727        3.788891
  C          -11.337347      -14.405075        2.667982
  C          -13.849817      -11.446539        4.087960
  S          -12.344666        0.279114       -0.474959
  S          -14.677806       -0.186226       -2.043450
  F          -13.371885       -0.631044        1.845351
  F          -12.240221        1.248964        2.002060
  F          -14.274873        1.251816        1.157503
  F          -17.149698       -1.118944       -1.779148
  F          -15.580046       -2.610100       -1.294321
  F          -16.046029       -1.011278        0.124679
  O          -12.203316        1.629358       -1.004049
  O          -11.161113       -0.508548       -0.154786
  O          -14.677144       -0.688773       -3.412589
  O          -15.156244        1.164377       -1.772189
  N          -13.360500       -0.674298       -1.261002
  C          -13.113257        0.548487        1.212919
  C          -15.918813       -1.294754       -1.198117
  S           30.690585       11.681433        4.571062
  S           28.963616        9.436914        4.887236
  F           32.808746       10.287693        3.655483
  F           33.281441       11.812798        5.168846
  F           32.350318        9.909633        5.772225
  F           28.976946        6.802182        4.558493
  F           29.321189        7.934218        2.681688
  F           30.927097        7.744918        4.155511
  O           30.363752       12.177456        5.901557
  O           30.952565       12.617660        3.485444
  O           27.539029        9.428743        4.574857
  O           29.399004        9.268778        6.268822
  N           29.731187       10.536186        3.999446
  C           32.361279       10.865506        4.806160
  C           29.585112        7.907074        4.017263
  S           30.849305       18.162295       17.214203
  S           28.548710       19.246200       18.499762
  F           29.750564       17.986719       14.758730
  F           30.907624       16.225058       15.389141
  F           28.894847       16.576848       16.212587
  F           26.056562       19.966610       17.933834
  F           27.589893       21.111998       16.811608
  F           27.114235       19.057674       16.228139
  O           31.025100       17.169496       18.266116
  O           32.011930       18.741166       16.553194
  O           28.575373       20.286906       19.521191
  O           28.085140       17.907873       18.847032
  N           29.838308       19.356801       17.545594
  C           30.043447       17.192878       15.827462
  C           27.269717       19.881047       17.297818
  S            4.070364       -6.850852        2.344333
  S            4.858682       -6.324122       -0.342926
  F            1.837377       -5.341475        2.289979
  F            3.071891       -5.112980        4.096473
  F            3.696965       -4.171665        2.205362
  F            4.051735       -4.943250       -2.462382
  F            2.602082       -6.487891       -1.802835
  F            2.799252       -4.621301       -0.678603
  O            5.411827       -6.572169        2.840202
  O            3.253126       -7.875248        2.981871
  O            5.433698       -7.308339       -1.252742
  O            5.663910       -5.188986        0.092605
  N            3.938858       -7.044498        0.761934
  C            3.123280       -5.282433        2.738442
  C            3.498951       -5.560114       -1.368082
  S           13.194722        2.545079       -1.843371
  S           14.527595        0.056551       -1.454876
  F           15.272068        4.100767       -1.114072
  F           13.324573        4.698628       -0.283722
  F           14.394123        2.962128        0.549178
  F           16.885629       -0.884492       -0.677586
  F           16.990014        0.386357       -2.493201
  F           16.724530        1.307646       -0.526560
  O           12.026215        2.086224       -1.103697
  O           13.034995        3.446704       -2.977073
  O           14.394630       -1.106728       -2.324472
  O           14.044711       -0.012575       -0.080591
  N           14.237266        1.410340       -2.272615
  C           14.103196        3.618662       -0.604694
  C           16.377723        0.235808       -1.286309
  S           16.713787        3.418183       -3.947953
  S           19.352228        2.892046       -3.008774
  F           16.185411        0.898446       -4.747422
  F           15.576513        2.470632       -6.160620
  F           17.700203        1.915419       -5.974147
  F           21.068984        0.877419       -2.798788
  F           19.189102        0.565882       -1.662391
  F           19.203762        0.333919       -3.837916
  O           17.162144        4.591194       -4.686935
  O           15.393307        3.402695       -3.331662
  O           19.939623        3.465984       -1.803512
  O           19.908074        3.232410       -4.313305
  N           17.750473        2.827988       -2.882246
  C           16.551473        2.102073       -5.272239
  C           19.710305        1.070610       -2.814671
  S           26.837825      -12.158091        6.134292
  S           24.082790      -12.703333        6.616731
  F           26.549153       -9.499699        5.792196
  F           27.853403      -10.491171        4.324011
  F           25.665333      -10.699754        4.175900
  F           21.756354      -11.431962        6.762943
  F           23.238248      -10.750336        8.266867
  F           23.432466      -10.126754        6.178720
  O           26.932366      -13.250076        5.174238
  O           27.974332      -11.833197        6.986651
  O           23.579630      -13.654497        7.601215
  O           23.860553      -12.950949        5.196903
  N           25.528061      -12.149280        7.052564
  C           26.702244      -10.634100        5.052027
  C           23.085586      -11.167999        6.979853
  S           18.250997        2.791021        6.279203
  S           17.358080        0.165648        6.935226
  F           15.806457        3.807394        5.770658
  F           17.361070        4.346310        4.310384
  F           16.475167        2.329455        4.286675
  F           15.105145       -1.228517        7.110309
  F           15.185095        0.508801        8.487894
  F           14.810856        0.820111        6.354830
  O           19.282139        2.267645        5.392694
  O           18.495232        4.003870        7.049311
  O           17.905020       -0.659136        8.006526
  O           17.514794       -0.257867        5.548616
  N           17.568812        1.726545        7.259149
  C           16.895494        3.331293        5.103216
  C           15.519326        0.073309        7.241785
  S           22.775767       -3.597989       16.576594
  S           24.265872       -5.996325       16.192119
  F           24.895302       -1.932706       16.534010
  F           23.427538       -1.531171       18.122750
  F           24.822843       -3.225528       18.310819
  F           26.777368       -6.798156       15.876646
  F           26.075838       -5.423738       14.282520
  F           26.589580       -4.636341       16.258123
  O           22.031281       -4.184492       17.683314
  O           22.127439       -2.649189       15.680397
  O           23.845456       -7.115994       15.357441
  O           24.386721       -6.178357       17.633948
  N           23.605653       -4.624873       15.673501
  C           24.058010       -2.529534       17.428935
  C           26.014383       -5.687284       15.617031
  S          -20.241992       20.106492        2.885395
  S          -18.794753       17.769179        3.635539
  F          -22.628000       19.283593        3.832605
  F          -22.688304       20.216177        1.841047
  F          -21.939295       18.157619        2.074324
  F          -19.195130       15.423535        4.813554
  F          -19.641039       17.161562        6.118481
  F          -21.042644       16.591868        4.538012
  O          -19.675704       20.081197        1.543101
  O          -20.525064       21.379465        3.535880
  O          -17.439097       17.763022        4.173363
  O          -19.056508       17.163124        2.335234
  N          -19.526311       19.163611        3.961293
  C          -21.957028       19.388315        2.650665
  C          -19.722307       16.690330        4.843534
  S           31.054373        5.927121       -1.737565
  S           28.939646        7.758098       -1.193776
  F           29.611246        3.688799       -1.319587
  F           31.617970        3.684692       -0.418092
  F           29.993205        4.848247        0.508929
  F           26.378243        7.752483       -0.494316
  F           26.772944        6.747493       -2.432515
  F           27.273706        5.740371       -0.555849
  O           31.971284        6.659604       -0.873959
  O           31.549008        5.274121       -2.942823
  O           28.695091        8.993729       -1.928966
  O           29.325288        7.820252        0.211226
  N           29.701265        6.688656       -2.122197
  C           30.527979        4.470704       -0.682110
  C           27.257706        6.949216       -1.176145
  S          -20.947040        2.362700        6.229258
  S          -20.110427       -0.286292        5.594300
  F          -23.580137        1.804397        6.379287
  F          -23.079618        3.644976        5.283202
  F          -22.764868        1.678522        4.341352
  F          -21.141788       -2.698755        5.186398
  F          -21.525603       -1.899885        7.220335
  F          -22.663658       -1.139521        5.513406
  O          -20.139174        2.923911        5.154331
  O          -21.125638        3.101969        7.472361
  O          -18.910930       -0.931000        6.116462
  O          -20.211281        0.000220        4.167993
  N          -20.635774        0.841358        6.613197
  C          -22.680313        2.355905        5.516554
  C          -21.433784       -1.565599        5.903530
  S           -4.017617       15.195482       -4.358635
  S           -6.310398       13.685771       -3.594321
  F           -5.212449       17.609444       -4.246520
  F           -3.943904       17.279623       -6.013344
  F           -5.933699       16.342044       -5.891871
  F           -8.857216       14.052335       -2.939021
  F           -7.432368       15.054063       -1.564700
  F           -7.831586       15.907593       -3.539299
  O           -3.747586       14.303346       -5.478569
  O           -2.914748       15.808597       -3.629602
  O           -6.290343       12.527709       -2.707987
  O           -6.692118       13.516827       -4.991590
  N           -5.070625       14.660374       -3.279926
  C           -4.834617       16.676471       -5.165735
  C           -7.670215       14.737537       -2.867541
  S           -4.389944       20.285930       -2.262535
  S           -7.238048       20.363703       -2.212505
  F           -4.114769       18.527369       -0.237899
  F           -2.746047       20.248267       -0.168896
  F           -4.860766       20.495760        0.396616
  F           -9.275114       19.309842       -0.874669
  F           -8.025385       17.805185       -1.921853
  F           -7.306730       18.728908       -0.073286
  O           -4.305792       21.740193       -2.295890
  O           -3.407292       19.479942       -2.975627
  O           -8.092880       20.417676       -3.392947
  O           -7.212889       21.492229       -1.289244
  N           -5.833010       19.664568       -2.562949
  C           -4.026005       19.867245       -0.472429
  C           -7.990834       18.972578       -1.221745
  S           14.072579       -8.736478       -3.920367
  S           15.701139       -7.614564       -1.868697
  F           16.061282      -10.050441       -5.179719
  F           14.674849       -8.970378       -6.502943
  F           16.196195       -7.863207       -5.357181
  F           18.237469       -7.572897       -1.084248
  F           17.338209       -9.601125       -1.078775
  F           17.921790       -8.668088       -2.969755
  O           13.444967       -7.449152       -4.188637
  O           13.301761       -9.966642       -4.047868
  O           15.308042       -7.479211       -0.470752
  O           15.927865       -6.418869       -2.672140
  N           14.912963       -8.832315       -2.562667
  C           15.328291       -8.907564       -5.300999
  C           17.382304       -8.416262       -1.748334
  S           21.163887      -10.809343       12.556831
  S           20.635434      -13.291901       11.261495
  F           22.065730       -9.527021       10.363720
  F           23.263538       -9.216066       12.182570
  F           23.410403      -11.114503       11.074662
  F           20.810166      -14.405746        8.857564
  F           19.453191      -12.651893        8.928453
  F           21.621360      -12.358763        8.935397
  O           21.869445      -11.475144       13.644016
  O           20.375579       -9.612511       12.821188
  O           19.483115      -14.144893       11.529191
  O           21.975305      -13.769712       11.582517
  N           20.296043      -11.758173       11.605333
  C           22.546219      -10.146551       11.478828
  C           20.625893      -13.158537        9.399871
  S           21.153118       -8.251203       -5.510558
  S           19.290680       -6.233788       -4.747924
  F           23.246843       -7.240149       -4.146194
  F           23.703929       -7.909276       -6.191430
  F           22.634713       -6.011306       -5.863437
  F           19.182445       -4.015284       -3.293072
  F           19.706271       -5.823693       -2.119330
  F           21.202425       -4.886935       -3.411978
  O           20.769480       -8.139245       -6.911758
  O           21.533973       -9.544637       -4.957659
  O           17.890537       -6.472075       -4.416393
  O           19.627430       -5.445937       -5.927968
  N           20.171570       -7.548161       -4.461237
  C           22.758871       -7.289316       -5.418050
  C           19.882710       -5.195434       -3.314451
  S           22.162141       -8.294384       -1.573587
  S           24.150271       -9.824966       -0.222695
  F           23.773905       -6.230377       -2.213509
  F           21.794770       -5.661080       -1.439828
  F           23.352063       -6.387915       -0.061553
  F           26.721167       -9.692284        0.427655
  F           26.354780       -9.663145       -1.760339
  F           25.973355       -7.872020       -0.563127
  O           21.215097       -8.476769       -0.481380
  O           21.687887       -8.232606       -2.950172
  O           24.286702      -11.274725       -0.304438
  O           23.794588       -9.205552        1.048694
  N           23.446706       -9.247290       -1.548221
  C           22.818072       -6.560374       -1.299377
  C           25.886578       -9.228034       -0.558000
  S          -13.148343       14.987745       -1.423966
  S          -10.859766       16.677839       -1.585978
  F          -14.614122       16.312013       -3.258417
  F          -15.703141       15.736082       -1.435783
  F          -14.304080       17.437282       -1.395267
  F          -10.020923       18.842307       -2.874964
  F          -10.483309       17.133927       -4.212889
  F          -12.108130       18.304734       -3.331925
  O          -13.143656       15.045089        0.031975
  O          -13.562125       13.768483       -2.106538
  O           -9.476650       16.217362       -1.540748
  O          -11.375376       17.516058       -0.509805
  N          -11.823757       15.519194       -2.146332
  C          -14.500435       16.192914       -1.905257
  C          -10.875367       17.789115       -3.085426
  S          -18.526463       -8.937195       -6.264592
  S          -17.923231       -6.323607       -5.302552
  F          -21.196560       -8.587866       -6.390909
  F          -20.547986      -10.498915       -5.515183
  F          -20.408461       -8.641345       -4.339147
  F          -19.159428       -4.073322       -4.625720
  F          -19.460235       -4.649772       -6.746953
  F          -20.540454       -5.703783       -5.162933
  O          -17.680741       -9.554453       -5.251271
  O          -18.633106       -9.533092       -7.590207
  O          -16.779732       -5.522092       -5.723358
  O          -18.008658       -6.787928       -3.922798
  N          -18.343675       -7.359871       -6.458026
  C          -20.258648       -9.162150       -5.585508
  C          -19.348896       -5.131933       -5.478380
  S          -15.985794       -5.966972        3.992842
  S          -17.928191       -5.062135        2.114382
  F          -13.846404       -5.597360        2.394779
  F          -13.865245       -7.499231        3.500303
  F          -15.165185       -7.230921        1.742105
  F          -18.073188       -4.133022       -0.368720
  F          -16.872349       -2.854894        0.990245
  F          -16.036802       -4.727199        0.226527
  O          -16.768809       -7.157453        4.297332
  O          -15.203118       -5.319377        5.037716
  O          -19.093744       -4.249783        2.444025
  O          -18.114160       -6.421023        1.618950
  N          -16.749565       -4.819622        3.181042
  C          -14.656606       -6.601698        2.834132
  C          -17.179509       -4.142937        0.672829
  S           -6.222859      -13.565185       -2.785019
  S           -4.038199      -15.039426       -3.868590
  F           -7.190499      -12.705377       -5.149720
  F           -7.097128      -11.176537       -3.570612
  F           -5.258340      -11.807870       -4.606648
  F           -2.952115      -15.627640       -6.219014
  F           -5.037431      -16.351864       -5.996837
  F           -4.649262      -14.230137       -6.363622
  O           -5.359941      -12.920816       -1.803574
  O           -7.601060      -13.893367       -2.443581
  O           -3.578058      -16.333134       -3.376977
  O           -3.167751      -13.874889       -3.755516
  N           -5.597932      -14.830695       -3.537832
  C           -6.440522      -12.252955       -4.105210
  C           -4.189259      -15.326934       -5.706535
