200
Lattice="32.018782 0.0 0.0 -14.043870532898428 28.753623292648026 0.0 -8.625062807759862 -14.478403582935226 26.22054754850901" Properties=species:S:1:pos:R:3 i=220 E=-1376.273350195 pbc="T T T"
H        4.89631486       1.35825091      15.13389580
H        4.02387823       2.59658555      16.04892190
C        4.65533987       2.42719906      15.17145658
H        6.51078889       2.91112505      16.06777885
H        1.92879016       3.19905920      14.96176118
N        3.80166320       2.70895422      13.99813881
C        5.90478010       3.30212070      15.23483268
C        2.50346796       3.05311384      14.05539717
H        6.52302090       3.15019833      14.33820293
H        4.96303184       4.90274927      16.33881920
C        5.61355634       4.79146111      15.45797269
H        7.46855572       5.25650892      16.52009794
H        5.04005727       5.18984626      14.60850827
C        6.89953153       5.60788088      15.64754893
H        7.56113676       5.52718410      14.77421993
H        6.68332352       6.67385023      15.80164608
C        4.17946231       2.61670911      12.66987137
N        2.04031611       3.18228044      12.79698978
H       -0.00136000       3.28761739      13.25447003
H        0.36255021       3.04683322      11.52705901
C        3.07672575       2.91855537      11.91638482
C        0.66999589       3.57245176      12.43822632
H        2.94078714       2.96141506      10.84343505
H        0.61488970       4.65468941      12.27337221
H        5.18023993       2.32439441      12.37856095
H        0.58378345      -5.88095088      28.24416958
H       -0.28865317      -4.64261624      29.15919568
C        0.34280847      -4.81200273      28.28173035
H        2.19825749      -4.32807674      29.17805263
H       -2.38374125      -4.04014259      28.07203495
N       -0.51086821      -4.53024757      27.10841258
C        1.59224870      -3.93708110      28.34510645
C       -1.80906344      -4.18608795      27.16567095
H        2.21048949      -4.08900346      27.44847671
H        0.65050044      -2.33645252      29.44909297
C        1.30102494      -2.44774068      28.56824647
H        3.15602431      -1.98269287      29.63037171
H        0.72752587      -2.04935553      27.71878204
C        2.58700013      -1.63132091      28.75782271
H        3.24860535      -1.71201769      27.88449370
H        2.37079212      -0.56535156      28.91191985
C       -0.13306909      -4.62249268      25.78014515
N       -2.27221529      -4.05692135      25.90726356
H       -4.31389141      -3.95158440      26.36474381
H       -3.94998120      -4.19236858      24.63733278
C       -1.23580566      -4.32064642      25.02665859
C       -3.64253551      -3.66675003      25.54850009
H       -1.37174427      -4.27778673      23.95370882
H       -3.69764171      -2.58451238      25.38364599
H        0.86770853      -4.91480738      25.48883473
H       -2.12562041      15.73506255      15.13389580
H       -2.99805704      16.97339720      16.04892190
C       -2.36659539      16.80401070      15.17145658
H       -0.51114638      17.28793670      16.06777885
H       -5.09314511      17.57587085      14.96176118
N       -3.22027207      17.08576587      13.99813881
C       -1.11715517      17.67893234      15.23483268
C       -4.51846731      17.42992549      14.05539717
H       -0.49891437      17.52700998      14.33820293
H       -2.05890343      19.27956092      16.33881920
C       -1.40837892      19.16827275      15.45797269
H        0.44662045      19.63332057      16.52009794
H       -1.98187799      19.56665791      14.60850827
C       -0.12240373      19.98469253      15.64754893
H        0.53920149      19.90399575      14.77421993
H       -0.33861174      21.05066188      15.80164608
C       -2.84247296      16.99352076      12.66987137
N       -4.98161915      17.55909209      12.79698978
H       -7.02329527      17.66442904      13.25447003
H       -6.65938506      17.42364486      11.52705901
C       -3.94520952      17.29536702      11.91638482
C       -6.35193938      17.94926341      12.43822632
H       -4.08114813      17.33822671      10.84343505
H       -6.40704557      19.03150106      12.27337221
H       -1.84169533      16.70120606      12.37856095
H       -6.43815181       8.49586076      28.24416958
H       -7.31058844       9.73419541      29.15919568
C       -6.67912680       9.56480891      28.28173035
H       -4.82367778      10.04873491      29.17805263
H       -9.40567651      10.33666906      28.07203495
N       -7.53280347       9.84656408      27.10841258
C       -5.42968657      10.43973055      28.34510645
C       -8.83099871      10.19072370      27.16567095
H       -4.81144577      10.28780819      27.44847671
H       -6.37143483      12.04035913      29.44909297
C       -5.72091033      11.92907096      28.56824647
H       -3.86591095      12.39411878      29.63037171
H       -6.29440940      12.32745612      27.71878204
C       -4.43493514      12.74549074      28.75782271
H       -3.77332991      12.66479396      27.88449370
H       -4.65114315      13.81146009      28.91191985
C       -7.15500436       9.75431897      25.78014515
N       -9.29415056      10.31989030      25.90726356
H      -11.33582667      10.42522724      26.36474381
H      -10.97191646      10.18444307      24.63733278
C       -8.25774092      10.05616523      25.02665859
C      -10.66447078      10.71006162      25.54850009
H       -8.39367953      10.09902492      23.95370882
H      -10.71957697      11.79229927      25.38364599
H       -6.15422674       9.46200427      25.48883473
H       20.90570586       1.35825091      15.13389580
H       20.03326923       2.59658555      16.04892190
C       20.66473087       2.42719906      15.17145658
H       22.52017989       2.91112505      16.06777885
H       17.93818116       3.19905920      14.96176118
N       19.81105420       2.70895422      13.99813881
C       21.91417110       3.30212070      15.23483268
C       18.51285896       3.05311384      14.05539717
H       22.53241190       3.15019833      14.33820293
H       20.97242284       4.90274927      16.33881920
C       21.62294734       4.79146111      15.45797269
H       23.47794672       5.25650892      16.52009794
H       21.04944827       5.18984626      14.60850827
C       22.90892253       5.60788088      15.64754893
H       23.57052776       5.52718410      14.77421993
H       22.69271452       6.67385023      15.80164608
C       20.18885331       2.61670911      12.66987137
N       18.04970711       3.18228044      12.79698978
H       16.00803100       3.28761739      13.25447003
H       16.37194121       3.04683322      11.52705901
C       19.08611675       2.91855537      11.91638482
C       16.67938689       3.57245176      12.43822632
H       18.95017814       2.96141506      10.84343505
H       16.62428070       4.65468941      12.27337221
H       21.18963093       2.32439441      12.37856095
H       16.59317445      -5.88095088      28.24416958
H       15.72073783      -4.64261624      29.15919568
C       16.35219947      -4.81200273      28.28173035
H       18.20764849      -4.32807674      29.17805263
H       13.62564975      -4.04014259      28.07203495
N       15.49852279      -4.53024757      27.10841258
C       17.60163970      -3.93708110      28.34510645
C       14.20032756      -4.18608795      27.16567095
H       18.21988049      -4.08900346      27.44847671
H       16.65989144      -2.33645252      29.44909297
C       17.31041594      -2.44774068      28.56824647
H       19.16541531      -1.98269287      29.63037171
H       16.73691687      -2.04935553      27.71878204
C       18.59639113      -1.63132091      28.75782271
H       19.25799635      -1.71201769      27.88449370
H       18.38018312      -0.56535156      28.91191985
C       15.87632191      -4.62249268      25.78014515
N       13.73717571      -4.05692135      25.90726356
H       11.69549959      -3.95158440      26.36474381
H       12.05940980      -4.19236858      24.63733278
C       14.77358534      -4.32064642      25.02665859
C       12.36685549      -3.66675003      25.54850009
H       14.63764673      -4.27778673      23.95370882
H       12.31174929      -2.58451238      25.38364599
H       16.87709953      -4.91480738      25.48883473
H       13.88377059      15.73506255      15.13389580
H       13.01133396      16.97339720      16.04892190
C       13.64279561      16.80401070      15.17145658
H       15.49824462      17.28793670      16.06777885
H       10.91624589      17.57587085      14.96176118
N       12.78911893      17.08576587      13.99813881
C       14.89223583      17.67893234      15.23483268
C       11.49092369      17.42992549      14.05539717
H       15.51047663      17.52700998      14.33820293
H       13.95048757      19.27956092      16.33881920
C       14.60101208      19.16827275      15.45797269
H       16.45601145      19.63332057      16.52009794
H       14.02751301      19.56665791      14.60850827
C       15.88698727      19.98469253      15.64754893
H       16.54859249      19.90399575      14.77421993
H       15.67077926      21.05066188      15.80164608
C       13.16691804      16.99352076      12.66987137
N       11.02777185      17.55909209      12.79698978
H        8.98609573      17.66442904      13.25447003
H        9.35000594      17.42364486      11.52705901
C       12.06418148      17.29536702      11.91638482
C        9.65745162      17.94926341      12.43822632
H       11.92824287      17.33822671      10.84343505
H        9.60234543      19.03150106      12.27337221
H       14.16769567      16.70120606      12.37856095
H        9.57123919       8.49586076      28.24416958
H        8.69880256       9.73419541      29.15919568
C        9.33026420       9.56480891      28.28173035
H       11.18571322      10.04873491      29.17805263
H        6.60371449      10.33666906      28.07203495
N        8.47658753       9.84656408      27.10841258
C       10.57970443      10.43973055      28.34510645
C        7.17839229      10.19072370      27.16567095
H       11.19794523      10.28780819      27.44847671
H        9.63795617      12.04035913      29.44909297
C       10.28848067      11.92907096      28.56824647
H       12.14348005      12.39411878      29.63037171
H        9.71498160      12.32745612      27.71878204
C       11.57445586      12.74549074      28.75782271
H       12.23606109      12.66479396      27.88449370
H       11.35824785      13.81146009      28.91191985
C        8.85438664       9.75431897      25.78014515
N        6.71524044      10.31989030      25.90726356
H        4.67356433      10.42522724      26.36474381
H        5.03747454      10.18444307      24.63733278
C        7.75165008      10.05616523      25.02665859
C        5.34492022      10.71006162      25.54850009
H        7.61571147      10.09902492      23.95370882
H        5.28981403      11.79229927      25.38364599
H        9.85516426       9.46200427      25.48883473
