40
 i =        1, E =     -1626.8503624433
  H         9.8855167038        7.9380924734       15.1639317870
  H         8.4777706098        9.8496278448       12.8202568970
  H        10.7915396997       10.0467858958       13.9313287461
  H         9.1083491023        6.8379174776       17.3280301566
  H        10.8139150704        7.3943859062       17.4909551232
  C         9.5460626868        8.4660686659       16.0763723163
  H         6.1131669825       10.3646959253       12.1350201370
  C         9.7656017558        7.7125608037       17.3904703655
  C         8.2478191441       10.6421768300       13.5055978367
  C        10.3689716027       10.4882392008       14.8697102289
  H        11.5563010364        9.4420853920       16.2468483485
  C        10.4844570800        9.6684632944       16.1478720088
  H         8.5289811608        8.8800195553       15.9340814550
  C         5.8714208069       11.1808186979       12.8172474730
  N         9.0916440646       11.1330378779       14.4300819710
  H        11.0769401899       11.4785519238       14.7610693768
  N         7.0903770415       11.3166691699       13.6099936460
  H         9.4858226052        8.3364535175       18.2525181966
  H         5.7002754558       12.1273056066       12.2875968982
  H         5.0453633427       10.9248442076       13.4933105164
  H        10.1729232050       10.3299265110       16.9748978137
  C         8.3374733067       11.9366738371       15.3030434876
  C         7.1587277021       12.2258005608       14.6408981963
  H         8.9192175295       12.6547404101       15.9899647233
  H         6.3761078392       12.9327436723       14.9562870377
  O         1.8151666484        2.2883154458       14.6430503849
  F         1.2651481563        5.2330572046       15.3254915316
  O         0.0390368437        4.0280205035       12.8538146983
  F         4.7742424989        2.0349421034       15.2972635504
  F         0.3191757236        6.7915282272       14.0882229277
  S         2.8053293388        2.5580161962       13.6050995205
  C         1.3566403592        5.9029014013       14.1477378613
  F         4.1111228039        4.1418528435       15.3382887477
  O         3.2639404062        1.4557731601       12.7680037017
  C         4.3442333373        3.0803477653       14.5236980675
  S         1.2763345232        4.7709526115       12.6569841597
  N         2.6019175207        3.8787464792       12.7106122351
  F         2.5100717564        6.6281473336       14.1507755290
  F         5.3504305319        3.4100615568       13.6699000088
  O         1.3988073148        5.6953654434       11.5375115944
