     139
 i =        1, E =     -1553.2033958955
 Ti        -2.8683350000        2.1154420000       11.2652140000
 Ti         7.8027880000        5.3832100000        1.8443910000
 Ti         1.3525720000       -1.6735000000        9.4171130000
 Ti         2.5117920000        7.5426520000        3.6484140000
 Ti         1.4446720000        9.1874180000        1.7519890000
 Ti         3.2594580000       -1.8642570000       11.3595300000
 Ti        -1.8697820000        0.4160240000        9.3661400000
 Ti         5.8159840000        5.6142840000        3.7032810000
  H         3.7468960000        1.6526260000        8.5834390000
  H        -0.0029370000       -4.2340410000        6.4782570000
  H         4.4316300000       11.0106120000        4.6504380000
  H        -2.5036940000        6.0280510000       11.0484600000
  H         8.7487370000        1.5073420000        2.1552500000
  H        -6.8015420000        1.2218930000       10.9036440000
  H        11.1142460000        7.5038380000        2.0290890000
  H         4.3727210000       -5.8620200000       10.9626530000
  H        -2.5891430000        8.4561810000        2.0957030000
  H         4.6569660000        3.2041470000        6.8269530000
  H        -0.0452240000        3.6702680000        8.4060300000
  H        -3.5685920000       -1.8281670000        6.3785400000
  H         1.9853270000        7.5711820000       -0.1261220000
  H         5.9273850000        5.0774030000        0.1545840000
  H         3.7614260000       -2.5066170000        5.8447260000
  H         0.7455600000        9.3142620000        7.2794310000
  H        -6.0599130000        3.6612130000        9.0374900000
  H        10.6412470000        3.3933790000        4.1321340000
  H        -3.7285870000        2.2987080000        5.6888700000
  H        -1.7039720000       10.9033860000        4.1249230000
  H         1.7334520000       12.3009450000        2.6095370000
  H         8.6679850000       -0.5170630000        3.3558310000
  H         4.6066800000        7.2974510000        2.2978250000
  H         0.2154870000        0.1346200000       10.7192460000
  H         7.4153320000        0.2186850000        9.7283660000
  H         5.9554960000       -0.3025340000       10.4832990000
  H         7.8286560000        4.6709870000        8.6325370000
  H         7.2376510000        5.0115380000        7.0177090000
  H         7.0981770000       -4.7499770000        9.5343200000
  H         5.7840300000       -3.6950290000       10.0001570000
  H         1.4114850000        1.9115480000        9.3560850000
  H         0.8637590000        5.2270400000        6.6485740000
  H         5.7410230000        9.0693330000        3.8453710000
  H        -8.0103750000        8.6099930000        4.7446230000
  C         8.4223250000        4.6591910000        4.7037060000
  C        -3.8533280000        2.3467180000        8.4238990000
  C         3.9615950000       -2.5926300000        8.4765240000
  C         0.5135400000        9.4433570000        4.6213200000
  C         9.3443360000        4.0851920000        5.6931050000
  C        -4.8119260000        2.9400260000        7.4529070000
  C         4.9173150000       -3.1727480000        7.5232700000
  C        -0.3926610000       10.0575610000        5.6268840000
  C         9.1010420000        4.1497630000        7.1009990000
  C        -4.5992560000        2.8293420000        6.0635380000
  C         6.0750720000       -3.8937710000        7.9690880000
  C        -1.5160550000       10.7924690000        5.1890900000
  C        -0.1248110000        9.8942340000        6.9800950000
  C         4.6574050000       -3.0476440000        6.1409150000
  C        10.4989470000        3.4266870000        5.2100540000
  C        -5.9326790000        3.5931240000        7.9586910000
  C         2.8136840000        4.3074110000        6.6395670000
  C         1.8021000000        2.5801680000        8.5909250000
  C         6.1614730000        9.7262760000        4.6051290000
  C        -1.7300840000       -2.9447200000        6.5282340000
  C         8.7151750000        1.5883300000        0.0112620000
  C         1.8390400000       13.1474290000        0.0885870000
  C        10.9967290000        7.4345870000       -0.1203400000
  C        -2.4072200000        8.5110540000       -0.0635070000
  C         3.3505170000        5.2244920000        5.6056060000
  C        -1.1450180000       -2.0335150000        7.5402480000
  C         8.5285440000        3.0375930000       -0.0090850000
  C         1.7960860000       11.7116510000        0.0497010000
  C         9.7214410000        6.7729680000       -0.0672300000
  C        -1.0200150000        8.9738490000       -0.0463320000
  C         1.4829060000        4.4426040000        7.0787380000
  C         3.1252220000        2.4368270000        8.1546130000
  C         5.4241200000       10.8275940000        5.0587470000
  C        -0.9969320000       -4.0572320000        6.0734360000
  C         8.7846520000        0.9195150000        1.2397800000
  C        -2.5081420000        6.6152490000       11.9630650000
  C        11.6489580000        7.7305070000        1.1103030000
  C        -7.3513660000        1.0220250000       11.8219320000
  C         7.4413710000        9.4696440000        5.1127230000
  C        -3.0183170000       -2.6945520000        6.0174810000
  C         3.6326370000        3.2980560000        7.1812080000
  C         0.9806210000        3.5787050000        8.0528890000
  C         7.3617660000        0.4895280000       11.7535480000
  C        -3.0892010000        8.2549460000        1.1524790000
  C         4.4380030000       -6.3885600000       11.9106760000
  C         1.8336000000       13.8971630000        1.3187970000
  N         1.9163670000       13.2991920000        2.5559680000
  N         6.7825160000        0.2881570000       10.5174260000
  N         8.0012830000        4.7573400000        7.6391270000
  N         6.4187750000       -4.0420780000        9.2844230000
  O         7.2346650000        5.0226370000        5.0766040000
  O        -3.0539240000        1.4237030000        8.0201130000
  O         4.3452240000       -2.4564070000        9.6957080000
  O         0.4260540000        9.8718970000        3.4226800000
  O         1.3189610000        8.5130790000        5.0022280000
  O         2.7767760000       -2.2647240000        8.0780870000
  O         8.8243980000        4.7557010000        3.4898050000
  O        -3.9037660000        2.7797510000        9.6244670000
  O         6.1566970000        4.4091270000        2.5052180000
  O        -1.3679750000        1.9936580000       10.1096280000
  O         7.0178010000        6.7271700000        2.9531850000
  O        -3.0562790000        0.2084610000       10.6096570000
  O         1.6596210000       -2.8373120000       10.6743830000
  O         2.9694580000        9.1219370000        2.9092790000
  O         2.5316240000       -0.5433780000       10.2080480000
  O         1.3225750000        7.3069720000        2.3988930000
  O         4.5751670000        5.0876310000        5.2443370000
  O        -1.8361440000       -1.0225280000        7.9235160000
  O         4.0663910000       -3.6100490000       11.9620950000
  O         1.7435140000       11.0064290000        1.1443500000
  O         4.7710260000       -0.7954980000       11.9564180000
  O        -0.4275040000        9.0940250000        1.0940980000
  O         0.0288670000       -2.2880590000        7.9912580000
  O         2.5742950000        6.1196160000        5.1177960000
  O         9.1994190000        6.4527850000        1.0832950000
  O        -4.7481140000        1.9889750000       11.9440290000
  O         8.5002540000        3.6724200000        1.1132920000
  O        -2.5429750000        3.8492400000       12.0152310000
  O         4.2691710000        6.7355740000        3.0196680000
  O        -0.1470930000       -0.4360620000       10.0170300000
  O         6.7480570000        5.6000860000        0.0715300000
  O         2.0742010000        8.5415910000       -0.0654600000
  S         0.9135712100       -2.2820753205        3.2923852462
  S         2.2781472506        0.0045851221        4.2037565451
  F         2.2002950975       -2.6828018852        0.8696415235
  F         0.0855185945       -3.2553758949        0.8479734780
  F         0.5788894928       -1.1332657798        0.8508167982
  F         4.6808378819        1.1510443960        4.5913652041
  F         4.7903780012       -0.7986769964        3.6059673641
  F         4.0617836840        0.9349121639        2.4718514112
  O        -7.3284414394       12.8549883181        3.5375341370
  O        -3.2614691198      -10.9169937392       16.7903472319
  O         2.2476798591        0.0929830340        5.6735933901
  O         1.4826110411        0.9759967268        3.4440268393
  N         2.2941171246       -1.5218457982        3.6470817233
  C         0.9689422641       -2.3564139781        1.3803041839
  C         4.0607088792        0.3152529668        3.6959093819
     139
 i =        2, E =     -1553.2066621364
 Ti        -2.8683350000        2.1154420000       11.2652140000
 Ti         7.8027880000        5.3832100000        1.8443910000
 Ti         1.3525720000       -1.6735000000        9.4171130000
 Ti         2.5117920000        7.5426520000        3.6484140000
 Ti         1.4446720000        9.1874180000        1.7519890000
 Ti         3.2594580000       -1.8642570000       11.3595300000
 Ti        -1.8697820000        0.4160240000        9.3661400000
 Ti         5.8159840000        5.6142840000        3.7032810000
  H         3.7468960000        1.6526260000        8.5834390000
  H        -0.0029370000       -4.2340410000        6.4782570000
  H         4.4316300000       11.0106120000        4.6504380000
  H        -2.5036940000        6.0280510000       11.0484600000
  H         8.7487370000        1.5073420000        2.1552500000
  H        -6.8015420000        1.2218930000       10.9036440000
  H        11.1142460000        7.5038380000        2.0290890000
  H         4.3727210000       -5.8620200000       10.9626530000
  H        -2.5891430000        8.4561810000        2.0957030000
  H         4.6569660000        3.2041470000        6.8269530000
  H        -0.0452240000        3.6702680000        8.4060300000
  H        -3.5685920000       -1.8281670000        6.3785400000
  H         1.9853270000        7.5711820000       -0.1261220000
  H         5.9273850000        5.0774030000        0.1545840000
  H         3.7614260000       -2.5066170000        5.8447260000
  H         0.7455600000        9.3142620000        7.2794310000
  H        -6.0599130000        3.6612130000        9.0374900000
  H        10.6412470000        3.3933790000        4.1321340000
  H        -3.7285870000        2.2987080000        5.6888700000
  H        -1.7039720000       10.9033860000        4.1249230000
  H         1.7334520000       12.3009450000        2.6095370000
  H         8.6679850000       -0.5170630000        3.3558310000
  H         4.6066800000        7.2974510000        2.2978250000
  H         0.2154870000        0.1346200000       10.7192460000
  H         7.4153320000        0.2186850000        9.7283660000
  H         5.9554960000       -0.3025340000       10.4832990000
  H         7.8286560000        4.6709870000        8.6325370000
  H         7.2376510000        5.0115380000        7.0177090000
  H         7.0981770000       -4.7499770000        9.5343200000
  H         5.7840300000       -3.6950290000       10.0001570000
  H         1.4114850000        1.9115480000        9.3560850000
  H         0.8637590000        5.2270400000        6.6485740000
  H         5.7410230000        9.0693330000        3.8453710000
  H        -8.0103750000        8.6099930000        4.7446230000
  C         8.4223250000        4.6591910000        4.7037060000
  C        -3.8533280000        2.3467180000        8.4238990000
  C         3.9615950000       -2.5926300000        8.4765240000
  C         0.5135400000        9.4433570000        4.6213200000
  C         9.3443360000        4.0851920000        5.6931050000
  C        -4.8119260000        2.9400260000        7.4529070000
  C         4.9173150000       -3.1727480000        7.5232700000
  C        -0.3926610000       10.0575610000        5.6268840000
  C         9.1010420000        4.1497630000        7.1009990000
  C        -4.5992560000        2.8293420000        6.0635380000
  C         6.0750720000       -3.8937710000        7.9690880000
  C        -1.5160550000       10.7924690000        5.1890900000
  C        -0.1248110000        9.8942340000        6.9800950000
  C         4.6574050000       -3.0476440000        6.1409150000
  C        10.4989470000        3.4266870000        5.2100540000
  C        -5.9326790000        3.5931240000        7.9586910000
  C         2.8136840000        4.3074110000        6.6395670000
  C         1.8021000000        2.5801680000        8.5909250000
  C         6.1614730000        9.7262760000        4.6051290000
  C        -1.7300840000       -2.9447200000        6.5282340000
  C         8.7151750000        1.5883300000        0.0112620000
  C         1.8390400000       13.1474290000        0.0885870000
  C        10.9967290000        7.4345870000       -0.1203400000
  C        -2.4072200000        8.5110540000       -0.0635070000
  C         3.3505170000        5.2244920000        5.6056060000
  C        -1.1450180000       -2.0335150000        7.5402480000
  C         8.5285440000        3.0375930000       -0.0090850000
  C         1.7960860000       11.7116510000        0.0497010000
  C         9.7214410000        6.7729680000       -0.0672300000
  C        -1.0200150000        8.9738490000       -0.0463320000
  C         1.4829060000        4.4426040000        7.0787380000
  C         3.1252220000        2.4368270000        8.1546130000
  C         5.4241200000       10.8275940000        5.0587470000
  C        -0.9969320000       -4.0572320000        6.0734360000
  C         8.7846520000        0.9195150000        1.2397800000
  C        -2.5081420000        6.6152490000       11.9630650000
  C        11.6489580000        7.7305070000        1.1103030000
  C        -7.3513660000        1.0220250000       11.8219320000
  C         7.4413710000        9.4696440000        5.1127230000
  C        -3.0183170000       -2.6945520000        6.0174810000
  C         3.6326370000        3.2980560000        7.1812080000
  C         0.9806210000        3.5787050000        8.0528890000
  C         7.3617660000        0.4895280000       11.7535480000
  C        -3.0892010000        8.2549460000        1.1524790000
  C         4.4380030000       -6.3885600000       11.9106760000
  C         1.8336000000       13.8971630000        1.3187970000
  N         1.9163670000       13.2991920000        2.5559680000
  N         6.7825160000        0.2881570000       10.5174260000
  N         8.0012830000        4.7573400000        7.6391270000
  N         6.4187750000       -4.0420780000        9.2844230000
  O         7.2346650000        5.0226370000        5.0766040000
  O        -3.0539240000        1.4237030000        8.0201130000
  O         4.3452240000       -2.4564070000        9.6957080000
  O         0.4260540000        9.8718970000        3.4226800000
  O         1.3189610000        8.5130790000        5.0022280000
  O         2.7767760000       -2.2647240000        8.0780870000
  O         8.8243980000        4.7557010000        3.4898050000
  O        -3.9037660000        2.7797510000        9.6244670000
  O         6.1566970000        4.4091270000        2.5052180000
  O        -1.3679750000        1.9936580000       10.1096280000
  O         7.0178010000        6.7271700000        2.9531850000
  O        -3.0562790000        0.2084610000       10.6096570000
  O         1.6596210000       -2.8373120000       10.6743830000
  O         2.9694580000        9.1219370000        2.9092790000
  O         2.5316240000       -0.5433780000       10.2080480000
  O         1.3225750000        7.3069720000        2.3988930000
  O         4.5751670000        5.0876310000        5.2443370000
  O        -1.8361440000       -1.0225280000        7.9235160000
  O         4.0663910000       -3.6100490000       11.9620950000
  O         1.7435140000       11.0064290000        1.1443500000
  O         4.7710260000       -0.7954980000       11.9564180000
  O        -0.4275040000        9.0940250000        1.0940980000
  O         0.0288670000       -2.2880590000        7.9912580000
  O         2.5742950000        6.1196160000        5.1177960000
  O         9.1994190000        6.4527850000        1.0832950000
  O        -4.7481140000        1.9889750000       11.9440290000
  O         8.5002540000        3.6724200000        1.1132920000
  O        -2.5429750000        3.8492400000       12.0152310000
  O         4.2691710000        6.7355740000        3.0196680000
  O        -0.1470930000       -0.4360620000       10.0170300000
  O         6.7480570000        5.6000860000        0.0715300000
  O         2.0742010000        8.5415910000       -0.0654600000
  S         0.9063130605       -2.2878489180        3.2574418757
  S         2.2713244281        0.0003738008        4.2092417752
  F         2.2053479779       -2.6680726611        0.9021511313
  F         0.0740206171       -3.2688697475        0.9203489580
  F         0.6021360481       -1.1231922627        0.8521213723
  F         4.6404225134        1.1607034650        4.6030732202
  F         4.8143630143       -0.7948376072        3.6075796340
  F         4.0969345770        0.9515013255        2.4622038646
  O        -7.3489263891       12.8075847771        3.5597200830
  O        -3.2741377737      -10.9246561669       16.7586509976
  O         2.2745847451        0.0768530303        5.6737257769
  O         1.5019919541        0.9804700674        3.4472943384
  N         2.2588540591       -1.5214055393        3.6576891872
  C         0.9684812098       -2.3342451511        1.3575218036
  C         4.0617686992        0.3287483116        3.6749856026
     139
 i =        3, E =     -1553.2080224132
 Ti        -2.8683350000        2.1154420000       11.2652140000
 Ti         7.8027880000        5.3832100000        1.8443910000
 Ti         1.3525720000       -1.6735000000        9.4171130000
 Ti         2.5117920000        7.5426520000        3.6484140000
 Ti         1.4446720000        9.1874180000        1.7519890000
 Ti         3.2594580000       -1.8642570000       11.3595300000
 Ti        -1.8697820000        0.4160240000        9.3661400000
 Ti         5.8159840000        5.6142840000        3.7032810000
  H         3.7468960000        1.6526260000        8.5834390000
  H        -0.0029370000       -4.2340410000        6.4782570000
  H         4.4316300000       11.0106120000        4.6504380000
  H        -2.5036940000        6.0280510000       11.0484600000
  H         8.7487370000        1.5073420000        2.1552500000
  H        -6.8015420000        1.2218930000       10.9036440000
  H        11.1142460000        7.5038380000        2.0290890000
  H         4.3727210000       -5.8620200000       10.9626530000
  H        -2.5891430000        8.4561810000        2.0957030000
  H         4.6569660000        3.2041470000        6.8269530000
  H        -0.0452240000        3.6702680000        8.4060300000
  H        -3.5685920000       -1.8281670000        6.3785400000
  H         1.9853270000        7.5711820000       -0.1261220000
  H         5.9273850000        5.0774030000        0.1545840000
  H         3.7614260000       -2.5066170000        5.8447260000
  H         0.7455600000        9.3142620000        7.2794310000
  H        -6.0599130000        3.6612130000        9.0374900000
  H        10.6412470000        3.3933790000        4.1321340000
  H        -3.7285870000        2.2987080000        5.6888700000
  H        -1.7039720000       10.9033860000        4.1249230000
  H         1.7334520000       12.3009450000        2.6095370000
  H         8.6679850000       -0.5170630000        3.3558310000
  H         4.6066800000        7.2974510000        2.2978250000
  H         0.2154870000        0.1346200000       10.7192460000
  H         7.4153320000        0.2186850000        9.7283660000
  H         5.9554960000       -0.3025340000       10.4832990000
  H         7.8286560000        4.6709870000        8.6325370000
  H         7.2376510000        5.0115380000        7.0177090000
  H         7.0981770000       -4.7499770000        9.5343200000
  H         5.7840300000       -3.6950290000       10.0001570000
  H         1.4114850000        1.9115480000        9.3560850000
  H         0.8637590000        5.2270400000        6.6485740000
  H         5.7410230000        9.0693330000        3.8453710000
  H        -8.0103750000        8.6099930000        4.7446230000
  C         8.4223250000        4.6591910000        4.7037060000
  C        -3.8533280000        2.3467180000        8.4238990000
  C         3.9615950000       -2.5926300000        8.4765240000
  C         0.5135400000        9.4433570000        4.6213200000
  C         9.3443360000        4.0851920000        5.6931050000
  C        -4.8119260000        2.9400260000        7.4529070000
  C         4.9173150000       -3.1727480000        7.5232700000
  C        -0.3926610000       10.0575610000        5.6268840000
  C         9.1010420000        4.1497630000        7.1009990000
  C        -4.5992560000        2.8293420000        6.0635380000
  C         6.0750720000       -3.8937710000        7.9690880000
  C        -1.5160550000       10.7924690000        5.1890900000
  C        -0.1248110000        9.8942340000        6.9800950000
  C         4.6574050000       -3.0476440000        6.1409150000
  C        10.4989470000        3.4266870000        5.2100540000
  C        -5.9326790000        3.5931240000        7.9586910000
  C         2.8136840000        4.3074110000        6.6395670000
  C         1.8021000000        2.5801680000        8.5909250000
  C         6.1614730000        9.7262760000        4.6051290000
  C        -1.7300840000       -2.9447200000        6.5282340000
  C         8.7151750000        1.5883300000        0.0112620000
  C         1.8390400000       13.1474290000        0.0885870000
  C        10.9967290000        7.4345870000       -0.1203400000
  C        -2.4072200000        8.5110540000       -0.0635070000
  C         3.3505170000        5.2244920000        5.6056060000
  C        -1.1450180000       -2.0335150000        7.5402480000
  C         8.5285440000        3.0375930000       -0.0090850000
  C         1.7960860000       11.7116510000        0.0497010000
  C         9.7214410000        6.7729680000       -0.0672300000
  C        -1.0200150000        8.9738490000       -0.0463320000
  C         1.4829060000        4.4426040000        7.0787380000
  C         3.1252220000        2.4368270000        8.1546130000
  C         5.4241200000       10.8275940000        5.0587470000
  C        -0.9969320000       -4.0572320000        6.0734360000
  C         8.7846520000        0.9195150000        1.2397800000
  C        -2.5081420000        6.6152490000       11.9630650000
  C        11.6489580000        7.7305070000        1.1103030000
  C        -7.3513660000        1.0220250000       11.8219320000
  C         7.4413710000        9.4696440000        5.1127230000
  C        -3.0183170000       -2.6945520000        6.0174810000
  C         3.6326370000        3.2980560000        7.1812080000
  C         0.9806210000        3.5787050000        8.0528890000
  C         7.3617660000        0.4895280000       11.7535480000
  C        -3.0892010000        8.2549460000        1.1524790000
  C         4.4380030000       -6.3885600000       11.9106760000
  C         1.8336000000       13.8971630000        1.3187970000
  N         1.9163670000       13.2991920000        2.5559680000
  N         6.7825160000        0.2881570000       10.5174260000
  N         8.0012830000        4.7573400000        7.6391270000
  N         6.4187750000       -4.0420780000        9.2844230000
  O         7.2346650000        5.0226370000        5.0766040000
  O        -3.0539240000        1.4237030000        8.0201130000
  O         4.3452240000       -2.4564070000        9.6957080000
  O         0.4260540000        9.8718970000        3.4226800000
  O         1.3189610000        8.5130790000        5.0022280000
  O         2.7767760000       -2.2647240000        8.0780870000
  O         8.8243980000        4.7557010000        3.4898050000
  O        -3.9037660000        2.7797510000        9.6244670000
  O         6.1566970000        4.4091270000        2.5052180000
  O        -1.3679750000        1.9936580000       10.1096280000
  O         7.0178010000        6.7271700000        2.9531850000
  O        -3.0562790000        0.2084610000       10.6096570000
  O         1.6596210000       -2.8373120000       10.6743830000
  O         2.9694580000        9.1219370000        2.9092790000
  O         2.5316240000       -0.5433780000       10.2080480000
  O         1.3225750000        7.3069720000        2.3988930000
  O         4.5751670000        5.0876310000        5.2443370000
  O        -1.8361440000       -1.0225280000        7.9235160000
  O         4.0663910000       -3.6100490000       11.9620950000
  O         1.7435140000       11.0064290000        1.1443500000
  O         4.7710260000       -0.7954980000       11.9564180000
  O        -0.4275040000        9.0940250000        1.0940980000
  O         0.0288670000       -2.2880590000        7.9912580000
  O         2.5742950000        6.1196160000        5.1177960000
  O         9.1994190000        6.4527850000        1.0832950000
  O        -4.7481140000        1.9889750000       11.9440290000
  O         8.5002540000        3.6724200000        1.1132920000
  O        -2.5429750000        3.8492400000       12.0152310000
  O         4.2691710000        6.7355740000        3.0196680000
  O        -0.1470930000       -0.4360620000       10.0170300000
  O         6.7480570000        5.6000860000        0.0715300000
  O         2.0742010000        8.5415910000       -0.0654600000
  S         0.8984998047       -2.2909353898        3.2703115042
  S         2.2703641842        0.0022491239        4.1945290835
  F         2.1843752955       -2.6481887515        0.9086701565
  F         0.0820324122       -3.2757397093        0.9456010912
  F         0.6435072543       -1.1342393946        0.8455388857
  F         4.6340468087        1.1826797896        4.5950286439
  F         4.8487744305       -0.7835231943        3.6039287041
  F         4.1275330267        0.9483805363        2.4701025263
  O        -7.3735488134       12.7787436853        3.5676018608
  O        -3.2763706349      -10.9434922323       16.7251496108
  O         2.2911007519        0.0594251382        5.6556272738
  O         1.4945934095        0.9887634177        3.4577109103
  N         2.2395587619       -1.5217949254        3.6702651066
  C         0.9575397403       -2.3311677293        1.3889936141
  C         4.0676868145        0.3340251923        3.6800763957
     139
 i =        4, E =     -1553.2088659160
 Ti        -2.8683350000        2.1154420000       11.2652140000
 Ti         7.8027880000        5.3832100000        1.8443910000
 Ti         1.3525720000       -1.6735000000        9.4171130000
 Ti         2.5117920000        7.5426520000        3.6484140000
 Ti         1.4446720000        9.1874180000        1.7519890000
 Ti         3.2594580000       -1.8642570000       11.3595300000
 Ti        -1.8697820000        0.4160240000        9.3661400000
 Ti         5.8159840000        5.6142840000        3.7032810000
  H         3.7468960000        1.6526260000        8.5834390000
  H        -0.0029370000       -4.2340410000        6.4782570000
  H         4.4316300000       11.0106120000        4.6504380000
  H        -2.5036940000        6.0280510000       11.0484600000
  H         8.7487370000        1.5073420000        2.1552500000
  H        -6.8015420000        1.2218930000       10.9036440000
  H        11.1142460000        7.5038380000        2.0290890000
  H         4.3727210000       -5.8620200000       10.9626530000
  H        -2.5891430000        8.4561810000        2.0957030000
  H         4.6569660000        3.2041470000        6.8269530000
  H        -0.0452240000        3.6702680000        8.4060300000
  H        -3.5685920000       -1.8281670000        6.3785400000
  H         1.9853270000        7.5711820000       -0.1261220000
  H         5.9273850000        5.0774030000        0.1545840000
  H         3.7614260000       -2.5066170000        5.8447260000
  H         0.7455600000        9.3142620000        7.2794310000
  H        -6.0599130000        3.6612130000        9.0374900000
  H        10.6412470000        3.3933790000        4.1321340000
  H        -3.7285870000        2.2987080000        5.6888700000
  H        -1.7039720000       10.9033860000        4.1249230000
  H         1.7334520000       12.3009450000        2.6095370000
  H         8.6679850000       -0.5170630000        3.3558310000
  H         4.6066800000        7.2974510000        2.2978250000
  H         0.2154870000        0.1346200000       10.7192460000
  H         7.4153320000        0.2186850000        9.7283660000
  H         5.9554960000       -0.3025340000       10.4832990000
  H         7.8286560000        4.6709870000        8.6325370000
  H         7.2376510000        5.0115380000        7.0177090000
  H         7.0981770000       -4.7499770000        9.5343200000
  H         5.7840300000       -3.6950290000       10.0001570000
  H         1.4114850000        1.9115480000        9.3560850000
  H         0.8637590000        5.2270400000        6.6485740000
  H         5.7410230000        9.0693330000        3.8453710000
  H        -8.0103750000        8.6099930000        4.7446230000
  C         8.4223250000        4.6591910000        4.7037060000
  C        -3.8533280000        2.3467180000        8.4238990000
  C         3.9615950000       -2.5926300000        8.4765240000
  C         0.5135400000        9.4433570000        4.6213200000
  C         9.3443360000        4.0851920000        5.6931050000
  C        -4.8119260000        2.9400260000        7.4529070000
  C         4.9173150000       -3.1727480000        7.5232700000
  C        -0.3926610000       10.0575610000        5.6268840000
  C         9.1010420000        4.1497630000        7.1009990000
  C        -4.5992560000        2.8293420000        6.0635380000
  C         6.0750720000       -3.8937710000        7.9690880000
  C        -1.5160550000       10.7924690000        5.1890900000
  C        -0.1248110000        9.8942340000        6.9800950000
  C         4.6574050000       -3.0476440000        6.1409150000
  C        10.4989470000        3.4266870000        5.2100540000
  C        -5.9326790000        3.5931240000        7.9586910000
  C         2.8136840000        4.3074110000        6.6395670000
  C         1.8021000000        2.5801680000        8.5909250000
  C         6.1614730000        9.7262760000        4.6051290000
  C        -1.7300840000       -2.9447200000        6.5282340000
  C         8.7151750000        1.5883300000        0.0112620000
  C         1.8390400000       13.1474290000        0.0885870000
  C        10.9967290000        7.4345870000       -0.1203400000
  C        -2.4072200000        8.5110540000       -0.0635070000
  C         3.3505170000        5.2244920000        5.6056060000
  C        -1.1450180000       -2.0335150000        7.5402480000
  C         8.5285440000        3.0375930000       -0.0090850000
  C         1.7960860000       11.7116510000        0.0497010000
  C         9.7214410000        6.7729680000       -0.0672300000
  C        -1.0200150000        8.9738490000       -0.0463320000
  C         1.4829060000        4.4426040000        7.0787380000
  C         3.1252220000        2.4368270000        8.1546130000
  C         5.4241200000       10.8275940000        5.0587470000
  C        -0.9969320000       -4.0572320000        6.0734360000
  C         8.7846520000        0.9195150000        1.2397800000
  C        -2.5081420000        6.6152490000       11.9630650000
  C        11.6489580000        7.7305070000        1.1103030000
  C        -7.3513660000        1.0220250000       11.8219320000
  C         7.4413710000        9.4696440000        5.1127230000
  C        -3.0183170000       -2.6945520000        6.0174810000
  C         3.6326370000        3.2980560000        7.1812080000
  C         0.9806210000        3.5787050000        8.0528890000
  C         7.3617660000        0.4895280000       11.7535480000
  C        -3.0892010000        8.2549460000        1.1524790000
  C         4.4380030000       -6.3885600000       11.9106760000
  C         1.8336000000       13.8971630000        1.3187970000
  N         1.9163670000       13.2991920000        2.5559680000
  N         6.7825160000        0.2881570000       10.5174260000
  N         8.0012830000        4.7573400000        7.6391270000
  N         6.4187750000       -4.0420780000        9.2844230000
  O         7.2346650000        5.0226370000        5.0766040000
  O        -3.0539240000        1.4237030000        8.0201130000
  O         4.3452240000       -2.4564070000        9.6957080000
  O         0.4260540000        9.8718970000        3.4226800000
  O         1.3189610000        8.5130790000        5.0022280000
  O         2.7767760000       -2.2647240000        8.0780870000
  O         8.8243980000        4.7557010000        3.4898050000
  O        -3.9037660000        2.7797510000        9.6244670000
  O         6.1566970000        4.4091270000        2.5052180000
  O        -1.3679750000        1.9936580000       10.1096280000
  O         7.0178010000        6.7271700000        2.9531850000
  O        -3.0562790000        0.2084610000       10.6096570000
  O         1.6596210000       -2.8373120000       10.6743830000
  O         2.9694580000        9.1219370000        2.9092790000
  O         2.5316240000       -0.5433780000       10.2080480000
  O         1.3225750000        7.3069720000        2.3988930000
  O         4.5751670000        5.0876310000        5.2443370000
  O        -1.8361440000       -1.0225280000        7.9235160000
  O         4.0663910000       -3.6100490000       11.9620950000
  O         1.7435140000       11.0064290000        1.1443500000
  O         4.7710260000       -0.7954980000       11.9564180000
  O        -0.4275040000        9.0940250000        1.0940980000
  O         0.0288670000       -2.2880590000        7.9912580000
  O         2.5742950000        6.1196160000        5.1177960000
  O         9.1994190000        6.4527850000        1.0832950000
  O        -4.7481140000        1.9889750000       11.9440290000
  O         8.5002540000        3.6724200000        1.1132920000
  O        -2.5429750000        3.8492400000       12.0152310000
  O         4.2691710000        6.7355740000        3.0196680000
  O        -0.1470930000       -0.4360620000       10.0170300000
  O         6.7480570000        5.6000860000        0.0715300000
  O         2.0742010000        8.5415910000       -0.0654600000
  S         0.8910842270       -2.2962435393        3.2702819975
  S         2.2791607499       -0.0016373238        4.1895192042
  F         2.1944132201       -2.6619609267        0.9259480307
  F         0.0789597137       -3.2618585436        0.9362089796
  F         0.6252833359       -1.1343871289        0.8492737051
  F         4.6517871290        1.1928349285        4.5841199514
  F         4.8541453456       -0.7721382244        3.6157980068
  F         4.1225281948        0.9428952771        2.4629705019
  O        -7.3781317390       12.7749978958        3.5715877560
  O        -3.2660262029      -10.9468011991       16.7220881127
  O         2.2943444551        0.0595172823        5.6496291531
  O         1.4913001251        0.9843833279        3.4643978608
  N         2.2303043864       -1.5258865712        3.6696077318
  C         0.9626151078       -2.3294689781        1.3934273745
  C         4.0729598963        0.3453829790        3.6807806430
     139
 i =        5, E =     -1553.2092013797
 Ti        -2.8683350000        2.1154420000       11.2652140000
 Ti         7.8027880000        5.3832100000        1.8443910000
 Ti         1.3525720000       -1.6735000000        9.4171130000
 Ti         2.5117920000        7.5426520000        3.6484140000
 Ti         1.4446720000        9.1874180000        1.7519890000
 Ti         3.2594580000       -1.8642570000       11.3595300000
 Ti        -1.8697820000        0.4160240000        9.3661400000
 Ti         5.8159840000        5.6142840000        3.7032810000
  H         3.7468960000        1.6526260000        8.5834390000
  H        -0.0029370000       -4.2340410000        6.4782570000
  H         4.4316300000       11.0106120000        4.6504380000
  H        -2.5036940000        6.0280510000       11.0484600000
  H         8.7487370000        1.5073420000        2.1552500000
  H        -6.8015420000        1.2218930000       10.9036440000
  H        11.1142460000        7.5038380000        2.0290890000
  H         4.3727210000       -5.8620200000       10.9626530000
  H        -2.5891430000        8.4561810000        2.0957030000
  H         4.6569660000        3.2041470000        6.8269530000
  H        -0.0452240000        3.6702680000        8.4060300000
  H        -3.5685920000       -1.8281670000        6.3785400000
  H         1.9853270000        7.5711820000       -0.1261220000
  H         5.9273850000        5.0774030000        0.1545840000
  H         3.7614260000       -2.5066170000        5.8447260000
  H         0.7455600000        9.3142620000        7.2794310000
  H        -6.0599130000        3.6612130000        9.0374900000
  H        10.6412470000        3.3933790000        4.1321340000
  H        -3.7285870000        2.2987080000        5.6888700000
  H        -1.7039720000       10.9033860000        4.1249230000
  H         1.7334520000       12.3009450000        2.6095370000
  H         8.6679850000       -0.5170630000        3.3558310000
  H         4.6066800000        7.2974510000        2.2978250000
  H         0.2154870000        0.1346200000       10.7192460000
  H         7.4153320000        0.2186850000        9.7283660000
  H         5.9554960000       -0.3025340000       10.4832990000
  H         7.8286560000        4.6709870000        8.6325370000
  H         7.2376510000        5.0115380000        7.0177090000
  H         7.0981770000       -4.7499770000        9.5343200000
  H         5.7840300000       -3.6950290000       10.0001570000
  H         1.4114850000        1.9115480000        9.3560850000
  H         0.8637590000        5.2270400000        6.6485740000
  H         5.7410230000        9.0693330000        3.8453710000
  H        -8.0103750000        8.6099930000        4.7446230000
  C         8.4223250000        4.6591910000        4.7037060000
  C        -3.8533280000        2.3467180000        8.4238990000
  C         3.9615950000       -2.5926300000        8.4765240000
  C         0.5135400000        9.4433570000        4.6213200000
  C         9.3443360000        4.0851920000        5.6931050000
  C        -4.8119260000        2.9400260000        7.4529070000
  C         4.9173150000       -3.1727480000        7.5232700000
  C        -0.3926610000       10.0575610000        5.6268840000
  C         9.1010420000        4.1497630000        7.1009990000
  C        -4.5992560000        2.8293420000        6.0635380000
  C         6.0750720000       -3.8937710000        7.9690880000
  C        -1.5160550000       10.7924690000        5.1890900000
  C        -0.1248110000        9.8942340000        6.9800950000
  C         4.6574050000       -3.0476440000        6.1409150000
  C        10.4989470000        3.4266870000        5.2100540000
  C        -5.9326790000        3.5931240000        7.9586910000
  C         2.8136840000        4.3074110000        6.6395670000
  C         1.8021000000        2.5801680000        8.5909250000
  C         6.1614730000        9.7262760000        4.6051290000
  C        -1.7300840000       -2.9447200000        6.5282340000
  C         8.7151750000        1.5883300000        0.0112620000
  C         1.8390400000       13.1474290000        0.0885870000
  C        10.9967290000        7.4345870000       -0.1203400000
  C        -2.4072200000        8.5110540000       -0.0635070000
  C         3.3505170000        5.2244920000        5.6056060000
  C        -1.1450180000       -2.0335150000        7.5402480000
  C         8.5285440000        3.0375930000       -0.0090850000
  C         1.7960860000       11.7116510000        0.0497010000
  C         9.7214410000        6.7729680000       -0.0672300000
  C        -1.0200150000        8.9738490000       -0.0463320000
  C         1.4829060000        4.4426040000        7.0787380000
  C         3.1252220000        2.4368270000        8.1546130000
  C         5.4241200000       10.8275940000        5.0587470000
  C        -0.9969320000       -4.0572320000        6.0734360000
  C         8.7846520000        0.9195150000        1.2397800000
  C        -2.5081420000        6.6152490000       11.9630650000
  C        11.6489580000        7.7305070000        1.1103030000
  C        -7.3513660000        1.0220250000       11.8219320000
  C         7.4413710000        9.4696440000        5.1127230000
  C        -3.0183170000       -2.6945520000        6.0174810000
  C         3.6326370000        3.2980560000        7.1812080000
  C         0.9806210000        3.5787050000        8.0528890000
  C         7.3617660000        0.4895280000       11.7535480000
  C        -3.0892010000        8.2549460000        1.1524790000
  C         4.4380030000       -6.3885600000       11.9106760000
  C         1.8336000000       13.8971630000        1.3187970000
  N         1.9163670000       13.2991920000        2.5559680000
  N         6.7825160000        0.2881570000       10.5174260000
  N         8.0012830000        4.7573400000        7.6391270000
  N         6.4187750000       -4.0420780000        9.2844230000
  O         7.2346650000        5.0226370000        5.0766040000
  O        -3.0539240000        1.4237030000        8.0201130000
  O         4.3452240000       -2.4564070000        9.6957080000
  O         0.4260540000        9.8718970000        3.4226800000
  O         1.3189610000        8.5130790000        5.0022280000
  O         2.7767760000       -2.2647240000        8.0780870000
  O         8.8243980000        4.7557010000        3.4898050000
  O        -3.9037660000        2.7797510000        9.6244670000
  O         6.1566970000        4.4091270000        2.5052180000
  O        -1.3679750000        1.9936580000       10.1096280000
  O         7.0178010000        6.7271700000        2.9531850000
  O        -3.0562790000        0.2084610000       10.6096570000
  O         1.6596210000       -2.8373120000       10.6743830000
  O         2.9694580000        9.1219370000        2.9092790000
  O         2.5316240000       -0.5433780000       10.2080480000
  O         1.3225750000        7.3069720000        2.3988930000
  O         4.5751670000        5.0876310000        5.2443370000
  O        -1.8361440000       -1.0225280000        7.9235160000
  O         4.0663910000       -3.6100490000       11.9620950000
  O         1.7435140000       11.0064290000        1.1443500000
  O         4.7710260000       -0.7954980000       11.9564180000
  O        -0.4275040000        9.0940250000        1.0940980000
  O         0.0288670000       -2.2880590000        7.9912580000
  O         2.5742950000        6.1196160000        5.1177960000
  O         9.1994190000        6.4527850000        1.0832950000
  O        -4.7481140000        1.9889750000       11.9440290000
  O         8.5002540000        3.6724200000        1.1132920000
  O        -2.5429750000        3.8492400000       12.0152310000
  O         4.2691710000        6.7355740000        3.0196680000
  O        -0.1470930000       -0.4360620000       10.0170300000
  O         6.7480570000        5.6000860000        0.0715300000
  O         2.0742010000        8.5415910000       -0.0654600000
  S         0.8902720639       -2.2990560269        3.2710038355
  S         2.2846467353       -0.0060795434        4.1938832935
  F         2.1970276813       -2.6604427688        0.9405359763
  F         0.0783189082       -3.2572734146        0.9229485084
  F         0.6186769929       -1.1278254159        0.8650485645
  F         4.6364835094        1.2047161579        4.5842353923
  F         4.8666404503       -0.7580590205        3.6250552961
  F         4.1236349369        0.9509686337        2.4575118895
  O        -7.3824093968       12.7643871098        3.5749986710
  O        -3.2567606902      -10.9489217751       16.7170053192
  O         2.3062979152        0.0622653994        5.6534178008
  O         1.4954254390        0.9789105365        3.4668048833
  N         2.2287313774       -1.5251980580        3.6657626808
  C         0.9585363333       -2.3297055923        1.3985304699
  C         4.0749485625        0.3521920977        3.6743061545
     139
 i =        6, E =     -1553.2093435193
 Ti        -2.8683350000        2.1154420000       11.2652140000
 Ti         7.8027880000        5.3832100000        1.8443910000
 Ti         1.3525720000       -1.6735000000        9.4171130000
 Ti         2.5117920000        7.5426520000        3.6484140000
 Ti         1.4446720000        9.1874180000        1.7519890000
 Ti         3.2594580000       -1.8642570000       11.3595300000
 Ti        -1.8697820000        0.4160240000        9.3661400000
 Ti         5.8159840000        5.6142840000        3.7032810000
  H         3.7468960000        1.6526260000        8.5834390000
  H        -0.0029370000       -4.2340410000        6.4782570000
  H         4.4316300000       11.0106120000        4.6504380000
  H        -2.5036940000        6.0280510000       11.0484600000
  H         8.7487370000        1.5073420000        2.1552500000
  H        -6.8015420000        1.2218930000       10.9036440000
  H        11.1142460000        7.5038380000        2.0290890000
  H         4.3727210000       -5.8620200000       10.9626530000
  H        -2.5891430000        8.4561810000        2.0957030000
  H         4.6569660000        3.2041470000        6.8269530000
  H        -0.0452240000        3.6702680000        8.4060300000
  H        -3.5685920000       -1.8281670000        6.3785400000
  H         1.9853270000        7.5711820000       -0.1261220000
  H         5.9273850000        5.0774030000        0.1545840000
  H         3.7614260000       -2.5066170000        5.8447260000
  H         0.7455600000        9.3142620000        7.2794310000
  H        -6.0599130000        3.6612130000        9.0374900000
  H        10.6412470000        3.3933790000        4.1321340000
  H        -3.7285870000        2.2987080000        5.6888700000
  H        -1.7039720000       10.9033860000        4.1249230000
  H         1.7334520000       12.3009450000        2.6095370000
  H         8.6679850000       -0.5170630000        3.3558310000
  H         4.6066800000        7.2974510000        2.2978250000
  H         0.2154870000        0.1346200000       10.7192460000
  H         7.4153320000        0.2186850000        9.7283660000
  H         5.9554960000       -0.3025340000       10.4832990000
  H         7.8286560000        4.6709870000        8.6325370000
  H         7.2376510000        5.0115380000        7.0177090000
  H         7.0981770000       -4.7499770000        9.5343200000
  H         5.7840300000       -3.6950290000       10.0001570000
  H         1.4114850000        1.9115480000        9.3560850000
  H         0.8637590000        5.2270400000        6.6485740000
  H         5.7410230000        9.0693330000        3.8453710000
  H        -8.0103750000        8.6099930000        4.7446230000
  C         8.4223250000        4.6591910000        4.7037060000
  C        -3.8533280000        2.3467180000        8.4238990000
  C         3.9615950000       -2.5926300000        8.4765240000
  C         0.5135400000        9.4433570000        4.6213200000
  C         9.3443360000        4.0851920000        5.6931050000
  C        -4.8119260000        2.9400260000        7.4529070000
  C         4.9173150000       -3.1727480000        7.5232700000
  C        -0.3926610000       10.0575610000        5.6268840000
  C         9.1010420000        4.1497630000        7.1009990000
  C        -4.5992560000        2.8293420000        6.0635380000
  C         6.0750720000       -3.8937710000        7.9690880000
  C        -1.5160550000       10.7924690000        5.1890900000
  C        -0.1248110000        9.8942340000        6.9800950000
  C         4.6574050000       -3.0476440000        6.1409150000
  C        10.4989470000        3.4266870000        5.2100540000
  C        -5.9326790000        3.5931240000        7.9586910000
  C         2.8136840000        4.3074110000        6.6395670000
  C         1.8021000000        2.5801680000        8.5909250000
  C         6.1614730000        9.7262760000        4.6051290000
  C        -1.7300840000       -2.9447200000        6.5282340000
  C         8.7151750000        1.5883300000        0.0112620000
  C         1.8390400000       13.1474290000        0.0885870000
  C        10.9967290000        7.4345870000       -0.1203400000
  C        -2.4072200000        8.5110540000       -0.0635070000
  C         3.3505170000        5.2244920000        5.6056060000
  C        -1.1450180000       -2.0335150000        7.5402480000
  C         8.5285440000        3.0375930000       -0.0090850000
  C         1.7960860000       11.7116510000        0.0497010000
  C         9.7214410000        6.7729680000       -0.0672300000
  C        -1.0200150000        8.9738490000       -0.0463320000
  C         1.4829060000        4.4426040000        7.0787380000
  C         3.1252220000        2.4368270000        8.1546130000
  C         5.4241200000       10.8275940000        5.0587470000
  C        -0.9969320000       -4.0572320000        6.0734360000
  C         8.7846520000        0.9195150000        1.2397800000
  C        -2.5081420000        6.6152490000       11.9630650000
  C        11.6489580000        7.7305070000        1.1103030000
  C        -7.3513660000        1.0220250000       11.8219320000
  C         7.4413710000        9.4696440000        5.1127230000
  C        -3.0183170000       -2.6945520000        6.0174810000
  C         3.6326370000        3.2980560000        7.1812080000
  C         0.9806210000        3.5787050000        8.0528890000
  C         7.3617660000        0.4895280000       11.7535480000
  C        -3.0892010000        8.2549460000        1.1524790000
  C         4.4380030000       -6.3885600000       11.9106760000
  C         1.8336000000       13.8971630000        1.3187970000
  N         1.9163670000       13.2991920000        2.5559680000
  N         6.7825160000        0.2881570000       10.5174260000
  N         8.0012830000        4.7573400000        7.6391270000
  N         6.4187750000       -4.0420780000        9.2844230000
  O         7.2346650000        5.0226370000        5.0766040000
  O        -3.0539240000        1.4237030000        8.0201130000
  O         4.3452240000       -2.4564070000        9.6957080000
  O         0.4260540000        9.8718970000        3.4226800000
  O         1.3189610000        8.5130790000        5.0022280000
  O         2.7767760000       -2.2647240000        8.0780870000
  O         8.8243980000        4.7557010000        3.4898050000
  O        -3.9037660000        2.7797510000        9.6244670000
  O         6.1566970000        4.4091270000        2.5052180000
  O        -1.3679750000        1.9936580000       10.1096280000
  O         7.0178010000        6.7271700000        2.9531850000
  O        -3.0562790000        0.2084610000       10.6096570000
  O         1.6596210000       -2.8373120000       10.6743830000
  O         2.9694580000        9.1219370000        2.9092790000
  O         2.5316240000       -0.5433780000       10.2080480000
  O         1.3225750000        7.3069720000        2.3988930000
  O         4.5751670000        5.0876310000        5.2443370000
  O        -1.8361440000       -1.0225280000        7.9235160000
  O         4.0663910000       -3.6100490000       11.9620950000
  O         1.7435140000       11.0064290000        1.1443500000
  O         4.7710260000       -0.7954980000       11.9564180000
  O        -0.4275040000        9.0940250000        1.0940980000
  O         0.0288670000       -2.2880590000        7.9912580000
  O         2.5742950000        6.1196160000        5.1177960000
  O         9.1994190000        6.4527850000        1.0832950000
  O        -4.7481140000        1.9889750000       11.9440290000
  O         8.5002540000        3.6724200000        1.1132920000
  O        -2.5429750000        3.8492400000       12.0152310000
  O         4.2691710000        6.7355740000        3.0196680000
  O        -0.1470930000       -0.4360620000       10.0170300000
  O         6.7480570000        5.6000860000        0.0715300000
  O         2.0742010000        8.5415910000       -0.0654600000
  S         0.8929806665       -2.3033101486        3.2719532986
  S         2.2845983734       -0.0072827676        4.1963326362
  F         2.1958495802       -2.6567264888        0.9357702643
  F         0.0795778140       -3.2555369365        0.9154511525
  F         0.6229480475       -1.1204843533        0.8782991523
  F         4.6410952895        1.2033539037        4.5870097333
  F         4.8669379690       -0.7511257125        3.6178332449
  F         4.1240382481        0.9478372913        2.4573996094
  O        -7.3802488176       12.7565968284        3.5799940944
  O        -3.2512052319      -10.9512175970       16.7193084894
  O         2.3161828253        0.0623962292        5.6564737304
  O         1.4961496970        0.9784007265        3.4668317709
  N         2.2308745873       -1.5242768976        3.6647439858
  C         0.9574803885       -2.3301502928        1.4003158280
  C         4.0753381593        0.3550515084        3.6774791306
     139
 i =        7, E =     -1553.2094507286
 Ti        -2.8683350000        2.1154420000       11.2652140000
 Ti         7.8027880000        5.3832100000        1.8443910000
 Ti         1.3525720000       -1.6735000000        9.4171130000
 Ti         2.5117920000        7.5426520000        3.6484140000
 Ti         1.4446720000        9.1874180000        1.7519890000
 Ti         3.2594580000       -1.8642570000       11.3595300000
 Ti        -1.8697820000        0.4160240000        9.3661400000
 Ti         5.8159840000        5.6142840000        3.7032810000
  H         3.7468960000        1.6526260000        8.5834390000
  H        -0.0029370000       -4.2340410000        6.4782570000
  H         4.4316300000       11.0106120000        4.6504380000
  H        -2.5036940000        6.0280510000       11.0484600000
  H         8.7487370000        1.5073420000        2.1552500000
  H        -6.8015420000        1.2218930000       10.9036440000
  H        11.1142460000        7.5038380000        2.0290890000
  H         4.3727210000       -5.8620200000       10.9626530000
  H        -2.5891430000        8.4561810000        2.0957030000
  H         4.6569660000        3.2041470000        6.8269530000
  H        -0.0452240000        3.6702680000        8.4060300000
  H        -3.5685920000       -1.8281670000        6.3785400000
  H         1.9853270000        7.5711820000       -0.1261220000
  H         5.9273850000        5.0774030000        0.1545840000
  H         3.7614260000       -2.5066170000        5.8447260000
  H         0.7455600000        9.3142620000        7.2794310000
  H        -6.0599130000        3.6612130000        9.0374900000
  H        10.6412470000        3.3933790000        4.1321340000
  H        -3.7285870000        2.2987080000        5.6888700000
  H        -1.7039720000       10.9033860000        4.1249230000
  H         1.7334520000       12.3009450000        2.6095370000
  H         8.6679850000       -0.5170630000        3.3558310000
  H         4.6066800000        7.2974510000        2.2978250000
  H         0.2154870000        0.1346200000       10.7192460000
  H         7.4153320000        0.2186850000        9.7283660000
  H         5.9554960000       -0.3025340000       10.4832990000
  H         7.8286560000        4.6709870000        8.6325370000
  H         7.2376510000        5.0115380000        7.0177090000
  H         7.0981770000       -4.7499770000        9.5343200000
  H         5.7840300000       -3.6950290000       10.0001570000
  H         1.4114850000        1.9115480000        9.3560850000
  H         0.8637590000        5.2270400000        6.6485740000
  H         5.7410230000        9.0693330000        3.8453710000
  H        -8.0103750000        8.6099930000        4.7446230000
  C         8.4223250000        4.6591910000        4.7037060000
  C        -3.8533280000        2.3467180000        8.4238990000
  C         3.9615950000       -2.5926300000        8.4765240000
  C         0.5135400000        9.4433570000        4.6213200000
  C         9.3443360000        4.0851920000        5.6931050000
  C        -4.8119260000        2.9400260000        7.4529070000
  C         4.9173150000       -3.1727480000        7.5232700000
  C        -0.3926610000       10.0575610000        5.6268840000
  C         9.1010420000        4.1497630000        7.1009990000
  C        -4.5992560000        2.8293420000        6.0635380000
  C         6.0750720000       -3.8937710000        7.9690880000
  C        -1.5160550000       10.7924690000        5.1890900000
  C        -0.1248110000        9.8942340000        6.9800950000
  C         4.6574050000       -3.0476440000        6.1409150000
  C        10.4989470000        3.4266870000        5.2100540000
  C        -5.9326790000        3.5931240000        7.9586910000
  C         2.8136840000        4.3074110000        6.6395670000
  C         1.8021000000        2.5801680000        8.5909250000
  C         6.1614730000        9.7262760000        4.6051290000
  C        -1.7300840000       -2.9447200000        6.5282340000
  C         8.7151750000        1.5883300000        0.0112620000
  C         1.8390400000       13.1474290000        0.0885870000
  C        10.9967290000        7.4345870000       -0.1203400000
  C        -2.4072200000        8.5110540000       -0.0635070000
  C         3.3505170000        5.2244920000        5.6056060000
  C        -1.1450180000       -2.0335150000        7.5402480000
  C         8.5285440000        3.0375930000       -0.0090850000
  C         1.7960860000       11.7116510000        0.0497010000
  C         9.7214410000        6.7729680000       -0.0672300000
  C        -1.0200150000        8.9738490000       -0.0463320000
  C         1.4829060000        4.4426040000        7.0787380000
  C         3.1252220000        2.4368270000        8.1546130000
  C         5.4241200000       10.8275940000        5.0587470000
  C        -0.9969320000       -4.0572320000        6.0734360000
  C         8.7846520000        0.9195150000        1.2397800000
  C        -2.5081420000        6.6152490000       11.9630650000
  C        11.6489580000        7.7305070000        1.1103030000
  C        -7.3513660000        1.0220250000       11.8219320000
  C         7.4413710000        9.4696440000        5.1127230000
  C        -3.0183170000       -2.6945520000        6.0174810000
  C         3.6326370000        3.2980560000        7.1812080000
  C         0.9806210000        3.5787050000        8.0528890000
  C         7.3617660000        0.4895280000       11.7535480000
  C        -3.0892010000        8.2549460000        1.1524790000
  C         4.4380030000       -6.3885600000       11.9106760000
  C         1.8336000000       13.8971630000        1.3187970000
  N         1.9163670000       13.2991920000        2.5559680000
  N         6.7825160000        0.2881570000       10.5174260000
  N         8.0012830000        4.7573400000        7.6391270000
  N         6.4187750000       -4.0420780000        9.2844230000
  O         7.2346650000        5.0226370000        5.0766040000
  O        -3.0539240000        1.4237030000        8.0201130000
  O         4.3452240000       -2.4564070000        9.6957080000
  O         0.4260540000        9.8718970000        3.4226800000
  O         1.3189610000        8.5130790000        5.0022280000
  O         2.7767760000       -2.2647240000        8.0780870000
  O         8.8243980000        4.7557010000        3.4898050000
  O        -3.9037660000        2.7797510000        9.6244670000
  O         6.1566970000        4.4091270000        2.5052180000
  O        -1.3679750000        1.9936580000       10.1096280000
  O         7.0178010000        6.7271700000        2.9531850000
  O        -3.0562790000        0.2084610000       10.6096570000
  O         1.6596210000       -2.8373120000       10.6743830000
  O         2.9694580000        9.1219370000        2.9092790000
  O         2.5316240000       -0.5433780000       10.2080480000
  O         1.3225750000        7.3069720000        2.3988930000
  O         4.5751670000        5.0876310000        5.2443370000
  O        -1.8361440000       -1.0225280000        7.9235160000
  O         4.0663910000       -3.6100490000       11.9620950000
  O         1.7435140000       11.0064290000        1.1443500000
  O         4.7710260000       -0.7954980000       11.9564180000
  O        -0.4275040000        9.0940250000        1.0940980000
  O         0.0288670000       -2.2880590000        7.9912580000
  O         2.5742950000        6.1196160000        5.1177960000
  O         9.1994190000        6.4527850000        1.0832950000
  O        -4.7481140000        1.9889750000       11.9440290000
  O         8.5002540000        3.6724200000        1.1132920000
  O        -2.5429750000        3.8492400000       12.0152310000
  O         4.2691710000        6.7355740000        3.0196680000
  O        -0.1470930000       -0.4360620000       10.0170300000
  O         6.7480570000        5.6000860000        0.0715300000
  O         2.0742010000        8.5415910000       -0.0654600000
  S         0.8980484720       -2.3092592064        3.2736519379
  S         2.2867459121       -0.0053750664        4.1968571142
  F         2.1943903753       -2.6471601469        0.9243708060
  F         0.0815585432       -3.2525719116        0.9143607803
  F         0.6249733751       -1.1186915440        0.8758906136
  F         4.6448723813        1.1980004230        4.5872407071
  F         4.8655130868       -0.7539920828        3.6055820579
  F         4.1223093594        0.9555451641        2.4623295317
  O        -7.3764884801       12.7448494998        3.5883340847
  O        -3.2443647401      -10.9557128932       16.7221010126
  O         2.3247770017        0.0585387144        5.6576588774
  O         1.4942021741        0.9794234652        3.4691270422
  N         2.2333525561       -1.5226903500        3.6681296383
  C         0.9589613947       -2.3279196625        1.4010461132
  C         4.0789435263        0.3517082295        3.6768532309
     139
 i =        8, E =     -1553.2095657607
 Ti        -2.8683350000        2.1154420000       11.2652140000
 Ti         7.8027880000        5.3832100000        1.8443910000
 Ti         1.3525720000       -1.6735000000        9.4171130000
 Ti         2.5117920000        7.5426520000        3.6484140000
 Ti         1.4446720000        9.1874180000        1.7519890000
 Ti         3.2594580000       -1.8642570000       11.3595300000
 Ti        -1.8697820000        0.4160240000        9.3661400000
 Ti         5.8159840000        5.6142840000        3.7032810000
  H         3.7468960000        1.6526260000        8.5834390000
  H        -0.0029370000       -4.2340410000        6.4782570000
  H         4.4316300000       11.0106120000        4.6504380000
  H        -2.5036940000        6.0280510000       11.0484600000
  H         8.7487370000        1.5073420000        2.1552500000
  H        -6.8015420000        1.2218930000       10.9036440000
  H        11.1142460000        7.5038380000        2.0290890000
  H         4.3727210000       -5.8620200000       10.9626530000
  H        -2.5891430000        8.4561810000        2.0957030000
  H         4.6569660000        3.2041470000        6.8269530000
  H        -0.0452240000        3.6702680000        8.4060300000
  H        -3.5685920000       -1.8281670000        6.3785400000
  H         1.9853270000        7.5711820000       -0.1261220000
  H         5.9273850000        5.0774030000        0.1545840000
  H         3.7614260000       -2.5066170000        5.8447260000
  H         0.7455600000        9.3142620000        7.2794310000
  H        -6.0599130000        3.6612130000        9.0374900000
  H        10.6412470000        3.3933790000        4.1321340000
  H        -3.7285870000        2.2987080000        5.6888700000
  H        -1.7039720000       10.9033860000        4.1249230000
  H         1.7334520000       12.3009450000        2.6095370000
  H         8.6679850000       -0.5170630000        3.3558310000
  H         4.6066800000        7.2974510000        2.2978250000
  H         0.2154870000        0.1346200000       10.7192460000
  H         7.4153320000        0.2186850000        9.7283660000
  H         5.9554960000       -0.3025340000       10.4832990000
  H         7.8286560000        4.6709870000        8.6325370000
  H         7.2376510000        5.0115380000        7.0177090000
  H         7.0981770000       -4.7499770000        9.5343200000
  H         5.7840300000       -3.6950290000       10.0001570000
  H         1.4114850000        1.9115480000        9.3560850000
  H         0.8637590000        5.2270400000        6.6485740000
  H         5.7410230000        9.0693330000        3.8453710000
  H        -8.0103750000        8.6099930000        4.7446230000
  C         8.4223250000        4.6591910000        4.7037060000
  C        -3.8533280000        2.3467180000        8.4238990000
  C         3.9615950000       -2.5926300000        8.4765240000
  C         0.5135400000        9.4433570000        4.6213200000
  C         9.3443360000        4.0851920000        5.6931050000
  C        -4.8119260000        2.9400260000        7.4529070000
  C         4.9173150000       -3.1727480000        7.5232700000
  C        -0.3926610000       10.0575610000        5.6268840000
  C         9.1010420000        4.1497630000        7.1009990000
  C        -4.5992560000        2.8293420000        6.0635380000
  C         6.0750720000       -3.8937710000        7.9690880000
  C        -1.5160550000       10.7924690000        5.1890900000
  C        -0.1248110000        9.8942340000        6.9800950000
  C         4.6574050000       -3.0476440000        6.1409150000
  C        10.4989470000        3.4266870000        5.2100540000
  C        -5.9326790000        3.5931240000        7.9586910000
  C         2.8136840000        4.3074110000        6.6395670000
  C         1.8021000000        2.5801680000        8.5909250000
  C         6.1614730000        9.7262760000        4.6051290000
  C        -1.7300840000       -2.9447200000        6.5282340000
  C         8.7151750000        1.5883300000        0.0112620000
  C         1.8390400000       13.1474290000        0.0885870000
  C        10.9967290000        7.4345870000       -0.1203400000
  C        -2.4072200000        8.5110540000       -0.0635070000
  C         3.3505170000        5.2244920000        5.6056060000
  C        -1.1450180000       -2.0335150000        7.5402480000
  C         8.5285440000        3.0375930000       -0.0090850000
  C         1.7960860000       11.7116510000        0.0497010000
  C         9.7214410000        6.7729680000       -0.0672300000
  C        -1.0200150000        8.9738490000       -0.0463320000
  C         1.4829060000        4.4426040000        7.0787380000
  C         3.1252220000        2.4368270000        8.1546130000
  C         5.4241200000       10.8275940000        5.0587470000
  C        -0.9969320000       -4.0572320000        6.0734360000
  C         8.7846520000        0.9195150000        1.2397800000
  C        -2.5081420000        6.6152490000       11.9630650000
  C        11.6489580000        7.7305070000        1.1103030000
  C        -7.3513660000        1.0220250000       11.8219320000
  C         7.4413710000        9.4696440000        5.1127230000
  C        -3.0183170000       -2.6945520000        6.0174810000
  C         3.6326370000        3.2980560000        7.1812080000
  C         0.9806210000        3.5787050000        8.0528890000
  C         7.3617660000        0.4895280000       11.7535480000
  C        -3.0892010000        8.2549460000        1.1524790000
  C         4.4380030000       -6.3885600000       11.9106760000
  C         1.8336000000       13.8971630000        1.3187970000
  N         1.9163670000       13.2991920000        2.5559680000
  N         6.7825160000        0.2881570000       10.5174260000
  N         8.0012830000        4.7573400000        7.6391270000
  N         6.4187750000       -4.0420780000        9.2844230000
  O         7.2346650000        5.0226370000        5.0766040000
  O        -3.0539240000        1.4237030000        8.0201130000
  O         4.3452240000       -2.4564070000        9.6957080000
  O         0.4260540000        9.8718970000        3.4226800000
  O         1.3189610000        8.5130790000        5.0022280000
  O         2.7767760000       -2.2647240000        8.0780870000
  O         8.8243980000        4.7557010000        3.4898050000
  O        -3.9037660000        2.7797510000        9.6244670000
  O         6.1566970000        4.4091270000        2.5052180000
  O        -1.3679750000        1.9936580000       10.1096280000
  O         7.0178010000        6.7271700000        2.9531850000
  O        -3.0562790000        0.2084610000       10.6096570000
  O         1.6596210000       -2.8373120000       10.6743830000
  O         2.9694580000        9.1219370000        2.9092790000
  O         2.5316240000       -0.5433780000       10.2080480000
  O         1.3225750000        7.3069720000        2.3988930000
  O         4.5751670000        5.0876310000        5.2443370000
  O        -1.8361440000       -1.0225280000        7.9235160000
  O         4.0663910000       -3.6100490000       11.9620950000
  O         1.7435140000       11.0064290000        1.1443500000
  O         4.7710260000       -0.7954980000       11.9564180000
  O        -0.4275040000        9.0940250000        1.0940980000
  O         0.0288670000       -2.2880590000        7.9912580000
  O         2.5742950000        6.1196160000        5.1177960000
  O         9.1994190000        6.4527850000        1.0832950000
  O        -4.7481140000        1.9889750000       11.9440290000
  O         8.5002540000        3.6724200000        1.1132920000
  O        -2.5429750000        3.8492400000       12.0152310000
  O         4.2691710000        6.7355740000        3.0196680000
  O        -0.1470930000       -0.4360620000       10.0170300000
  O         6.7480570000        5.6000860000        0.0715300000
  O         2.0742010000        8.5415910000       -0.0654600000
  S         0.8999220090       -2.3123866906        3.2759967008
  S         2.2890439607       -0.0062752895        4.1961797811
  F         2.1947664106       -2.6455835449        0.9296991707
  F         0.0835668322       -3.2506562996        0.9205563271
  F         0.6226964022       -1.1198482109        0.8736404926
  F         4.6425036308        1.1986965768        4.5871727318
  F         4.8690658135       -0.7532103593        3.6089242944
  F         4.1273569569        0.9530096018        2.4584549765
  O        -7.3783229884       12.7335845811        3.5944233317
  O        -3.2371976602      -10.9609073269       16.7161329558
  O         2.3301584917        0.0549522602        5.6564622218
  O         1.4933833998        0.9795195461        3.4742064497
  N         2.2331711898       -1.5236543599        3.6704046984
  C         0.9600902261       -2.3242126149        1.4033337000
  C         4.0806512407        0.3526298756        3.6741070619
     139
 i =        9, E =     -1553.2096715429
 Ti        -2.8683350000        2.1154420000       11.2652140000
 Ti         7.8027880000        5.3832100000        1.8443910000
 Ti         1.3525720000       -1.6735000000        9.4171130000
 Ti         2.5117920000        7.5426520000        3.6484140000
 Ti         1.4446720000        9.1874180000        1.7519890000
 Ti         3.2594580000       -1.8642570000       11.3595300000
 Ti        -1.8697820000        0.4160240000        9.3661400000
 Ti         5.8159840000        5.6142840000        3.7032810000
  H         3.7468960000        1.6526260000        8.5834390000
  H        -0.0029370000       -4.2340410000        6.4782570000
  H         4.4316300000       11.0106120000        4.6504380000
  H        -2.5036940000        6.0280510000       11.0484600000
  H         8.7487370000        1.5073420000        2.1552500000
  H        -6.8015420000        1.2218930000       10.9036440000
  H        11.1142460000        7.5038380000        2.0290890000
  H         4.3727210000       -5.8620200000       10.9626530000
  H        -2.5891430000        8.4561810000        2.0957030000
  H         4.6569660000        3.2041470000        6.8269530000
  H        -0.0452240000        3.6702680000        8.4060300000
  H        -3.5685920000       -1.8281670000        6.3785400000
  H         1.9853270000        7.5711820000       -0.1261220000
  H         5.9273850000        5.0774030000        0.1545840000
  H         3.7614260000       -2.5066170000        5.8447260000
  H         0.7455600000        9.3142620000        7.2794310000
  H        -6.0599130000        3.6612130000        9.0374900000
  H        10.6412470000        3.3933790000        4.1321340000
  H        -3.7285870000        2.2987080000        5.6888700000
  H        -1.7039720000       10.9033860000        4.1249230000
  H         1.7334520000       12.3009450000        2.6095370000
  H         8.6679850000       -0.5170630000        3.3558310000
  H         4.6066800000        7.2974510000        2.2978250000
  H         0.2154870000        0.1346200000       10.7192460000
  H         7.4153320000        0.2186850000        9.7283660000
  H         5.9554960000       -0.3025340000       10.4832990000
  H         7.8286560000        4.6709870000        8.6325370000
  H         7.2376510000        5.0115380000        7.0177090000
  H         7.0981770000       -4.7499770000        9.5343200000
  H         5.7840300000       -3.6950290000       10.0001570000
  H         1.4114850000        1.9115480000        9.3560850000
  H         0.8637590000        5.2270400000        6.6485740000
  H         5.7410230000        9.0693330000        3.8453710000
  H        -8.0103750000        8.6099930000        4.7446230000
  C         8.4223250000        4.6591910000        4.7037060000
  C        -3.8533280000        2.3467180000        8.4238990000
  C         3.9615950000       -2.5926300000        8.4765240000
  C         0.5135400000        9.4433570000        4.6213200000
  C         9.3443360000        4.0851920000        5.6931050000
  C        -4.8119260000        2.9400260000        7.4529070000
  C         4.9173150000       -3.1727480000        7.5232700000
  C        -0.3926610000       10.0575610000        5.6268840000
  C         9.1010420000        4.1497630000        7.1009990000
  C        -4.5992560000        2.8293420000        6.0635380000
  C         6.0750720000       -3.8937710000        7.9690880000
  C        -1.5160550000       10.7924690000        5.1890900000
  C        -0.1248110000        9.8942340000        6.9800950000
  C         4.6574050000       -3.0476440000        6.1409150000
  C        10.4989470000        3.4266870000        5.2100540000
  C        -5.9326790000        3.5931240000        7.9586910000
  C         2.8136840000        4.3074110000        6.6395670000
  C         1.8021000000        2.5801680000        8.5909250000
  C         6.1614730000        9.7262760000        4.6051290000
  C        -1.7300840000       -2.9447200000        6.5282340000
  C         8.7151750000        1.5883300000        0.0112620000
  C         1.8390400000       13.1474290000        0.0885870000
  C        10.9967290000        7.4345870000       -0.1203400000
  C        -2.4072200000        8.5110540000       -0.0635070000
  C         3.3505170000        5.2244920000        5.6056060000
  C        -1.1450180000       -2.0335150000        7.5402480000
  C         8.5285440000        3.0375930000       -0.0090850000
  C         1.7960860000       11.7116510000        0.0497010000
  C         9.7214410000        6.7729680000       -0.0672300000
  C        -1.0200150000        8.9738490000       -0.0463320000
  C         1.4829060000        4.4426040000        7.0787380000
  C         3.1252220000        2.4368270000        8.1546130000
  C         5.4241200000       10.8275940000        5.0587470000
  C        -0.9969320000       -4.0572320000        6.0734360000
  C         8.7846520000        0.9195150000        1.2397800000
  C        -2.5081420000        6.6152490000       11.9630650000
  C        11.6489580000        7.7305070000        1.1103030000
  C        -7.3513660000        1.0220250000       11.8219320000
  C         7.4413710000        9.4696440000        5.1127230000
  C        -3.0183170000       -2.6945520000        6.0174810000
  C         3.6326370000        3.2980560000        7.1812080000
  C         0.9806210000        3.5787050000        8.0528890000
  C         7.3617660000        0.4895280000       11.7535480000
  C        -3.0892010000        8.2549460000        1.1524790000
  C         4.4380030000       -6.3885600000       11.9106760000
  C         1.8336000000       13.8971630000        1.3187970000
  N         1.9163670000       13.2991920000        2.5559680000
  N         6.7825160000        0.2881570000       10.5174260000
  N         8.0012830000        4.7573400000        7.6391270000
  N         6.4187750000       -4.0420780000        9.2844230000
  O         7.2346650000        5.0226370000        5.0766040000
  O        -3.0539240000        1.4237030000        8.0201130000
  O         4.3452240000       -2.4564070000        9.6957080000
  O         0.4260540000        9.8718970000        3.4226800000
  O         1.3189610000        8.5130790000        5.0022280000
  O         2.7767760000       -2.2647240000        8.0780870000
  O         8.8243980000        4.7557010000        3.4898050000
  O        -3.9037660000        2.7797510000        9.6244670000
  O         6.1566970000        4.4091270000        2.5052180000
  O        -1.3679750000        1.9936580000       10.1096280000
  O         7.0178010000        6.7271700000        2.9531850000
  O        -3.0562790000        0.2084610000       10.6096570000
  O         1.6596210000       -2.8373120000       10.6743830000
  O         2.9694580000        9.1219370000        2.9092790000
  O         2.5316240000       -0.5433780000       10.2080480000
  O         1.3225750000        7.3069720000        2.3988930000
  O         4.5751670000        5.0876310000        5.2443370000
  O        -1.8361440000       -1.0225280000        7.9235160000
  O         4.0663910000       -3.6100490000       11.9620950000
  O         1.7435140000       11.0064290000        1.1443500000
  O         4.7710260000       -0.7954980000       11.9564180000
  O        -0.4275040000        9.0940250000        1.0940980000
  O         0.0288670000       -2.2880590000        7.9912580000
  O         2.5742950000        6.1196160000        5.1177960000
  O         9.1994190000        6.4527850000        1.0832950000
  O        -4.7481140000        1.9889750000       11.9440290000
  O         8.5002540000        3.6724200000        1.1132920000
  O        -2.5429750000        3.8492400000       12.0152310000
  O         4.2691710000        6.7355740000        3.0196680000
  O        -0.1470930000       -0.4360620000       10.0170300000
  O         6.7480570000        5.6000860000        0.0715300000
  O         2.0742010000        8.5415910000       -0.0654600000
  S         0.9061526179       -2.3177485788        3.2804381897
  S         2.2928801381       -0.0106620166        4.1991593420
  F         2.1953105662       -2.6448924966        0.9317645022
  F         0.0865106537       -3.2481915397        0.9255839837
  F         0.6175526507       -1.1200283203        0.8767900709
  F         4.6409099469        1.1983298942        4.5837747738
  F         4.8668643355       -0.7560901181        3.6126878070
  F         4.1222973440        0.9510994578        2.4553496265
  O        -7.3772705723       12.7147588928        3.6073832420
  O        -3.2161030075      -10.9682564178       16.7077282664
  O         2.3409418000        0.0516341762        5.6588427891
  O         1.4932462261        0.9769951013        3.4840247714
  N         2.2383527541       -1.5264816575        3.6715463585
  C         0.9622990491       -2.3213181538        1.4050103554
  C         4.0810522669        0.3508874526        3.6710140309
     139
 i =       10, E =     -1553.2097919925
 Ti        -2.8683350000        2.1154420000       11.2652140000
 Ti         7.8027880000        5.3832100000        1.8443910000
 Ti         1.3525720000       -1.6735000000        9.4171130000
 Ti         2.5117920000        7.5426520000        3.6484140000
 Ti         1.4446720000        9.1874180000        1.7519890000
 Ti         3.2594580000       -1.8642570000       11.3595300000
 Ti        -1.8697820000        0.4160240000        9.3661400000
 Ti         5.8159840000        5.6142840000        3.7032810000
  H         3.7468960000        1.6526260000        8.5834390000
  H        -0.0029370000       -4.2340410000        6.4782570000
  H         4.4316300000       11.0106120000        4.6504380000
  H        -2.5036940000        6.0280510000       11.0484600000
  H         8.7487370000        1.5073420000        2.1552500000
  H        -6.8015420000        1.2218930000       10.9036440000
  H        11.1142460000        7.5038380000        2.0290890000
  H         4.3727210000       -5.8620200000       10.9626530000
  H        -2.5891430000        8.4561810000        2.0957030000
  H         4.6569660000        3.2041470000        6.8269530000
  H        -0.0452240000        3.6702680000        8.4060300000
  H        -3.5685920000       -1.8281670000        6.3785400000
  H         1.9853270000        7.5711820000       -0.1261220000
  H         5.9273850000        5.0774030000        0.1545840000
  H         3.7614260000       -2.5066170000        5.8447260000
  H         0.7455600000        9.3142620000        7.2794310000
  H        -6.0599130000        3.6612130000        9.0374900000
  H        10.6412470000        3.3933790000        4.1321340000
  H        -3.7285870000        2.2987080000        5.6888700000
  H        -1.7039720000       10.9033860000        4.1249230000
  H         1.7334520000       12.3009450000        2.6095370000
  H         8.6679850000       -0.5170630000        3.3558310000
  H         4.6066800000        7.2974510000        2.2978250000
  H         0.2154870000        0.1346200000       10.7192460000
  H         7.4153320000        0.2186850000        9.7283660000
  H         5.9554960000       -0.3025340000       10.4832990000
  H         7.8286560000        4.6709870000        8.6325370000
  H         7.2376510000        5.0115380000        7.0177090000
  H         7.0981770000       -4.7499770000        9.5343200000
  H         5.7840300000       -3.6950290000       10.0001570000
  H         1.4114850000        1.9115480000        9.3560850000
  H         0.8637590000        5.2270400000        6.6485740000
  H         5.7410230000        9.0693330000        3.8453710000
  H        -8.0103750000        8.6099930000        4.7446230000
  C         8.4223250000        4.6591910000        4.7037060000
  C        -3.8533280000        2.3467180000        8.4238990000
  C         3.9615950000       -2.5926300000        8.4765240000
  C         0.5135400000        9.4433570000        4.6213200000
  C         9.3443360000        4.0851920000        5.6931050000
  C        -4.8119260000        2.9400260000        7.4529070000
  C         4.9173150000       -3.1727480000        7.5232700000
  C        -0.3926610000       10.0575610000        5.6268840000
  C         9.1010420000        4.1497630000        7.1009990000
  C        -4.5992560000        2.8293420000        6.0635380000
  C         6.0750720000       -3.8937710000        7.9690880000
  C        -1.5160550000       10.7924690000        5.1890900000
  C        -0.1248110000        9.8942340000        6.9800950000
  C         4.6574050000       -3.0476440000        6.1409150000
  C        10.4989470000        3.4266870000        5.2100540000
  C        -5.9326790000        3.5931240000        7.9586910000
  C         2.8136840000        4.3074110000        6.6395670000
  C         1.8021000000        2.5801680000        8.5909250000
  C         6.1614730000        9.7262760000        4.6051290000
  C        -1.7300840000       -2.9447200000        6.5282340000
  C         8.7151750000        1.5883300000        0.0112620000
  C         1.8390400000       13.1474290000        0.0885870000
  C        10.9967290000        7.4345870000       -0.1203400000
  C        -2.4072200000        8.5110540000       -0.0635070000
  C         3.3505170000        5.2244920000        5.6056060000
  C        -1.1450180000       -2.0335150000        7.5402480000
  C         8.5285440000        3.0375930000       -0.0090850000
  C         1.7960860000       11.7116510000        0.0497010000
  C         9.7214410000        6.7729680000       -0.0672300000
  C        -1.0200150000        8.9738490000       -0.0463320000
  C         1.4829060000        4.4426040000        7.0787380000
  C         3.1252220000        2.4368270000        8.1546130000
  C         5.4241200000       10.8275940000        5.0587470000
  C        -0.9969320000       -4.0572320000        6.0734360000
  C         8.7846520000        0.9195150000        1.2397800000
  C        -2.5081420000        6.6152490000       11.9630650000
  C        11.6489580000        7.7305070000        1.1103030000
  C        -7.3513660000        1.0220250000       11.8219320000
  C         7.4413710000        9.4696440000        5.1127230000
  C        -3.0183170000       -2.6945520000        6.0174810000
  C         3.6326370000        3.2980560000        7.1812080000
  C         0.9806210000        3.5787050000        8.0528890000
  C         7.3617660000        0.4895280000       11.7535480000
  C        -3.0892010000        8.2549460000        1.1524790000
  C         4.4380030000       -6.3885600000       11.9106760000
  C         1.8336000000       13.8971630000        1.3187970000
  N         1.9163670000       13.2991920000        2.5559680000
  N         6.7825160000        0.2881570000       10.5174260000
  N         8.0012830000        4.7573400000        7.6391270000
  N         6.4187750000       -4.0420780000        9.2844230000
  O         7.2346650000        5.0226370000        5.0766040000
  O        -3.0539240000        1.4237030000        8.0201130000
  O         4.3452240000       -2.4564070000        9.6957080000
  O         0.4260540000        9.8718970000        3.4226800000
  O         1.3189610000        8.5130790000        5.0022280000
  O         2.7767760000       -2.2647240000        8.0780870000
  O         8.8243980000        4.7557010000        3.4898050000
  O        -3.9037660000        2.7797510000        9.6244670000
  O         6.1566970000        4.4091270000        2.5052180000
  O        -1.3679750000        1.9936580000       10.1096280000
  O         7.0178010000        6.7271700000        2.9531850000
  O        -3.0562790000        0.2084610000       10.6096570000
  O         1.6596210000       -2.8373120000       10.6743830000
  O         2.9694580000        9.1219370000        2.9092790000
  O         2.5316240000       -0.5433780000       10.2080480000
  O         1.3225750000        7.3069720000        2.3988930000
  O         4.5751670000        5.0876310000        5.2443370000
  O        -1.8361440000       -1.0225280000        7.9235160000
  O         4.0663910000       -3.6100490000       11.9620950000
  O         1.7435140000       11.0064290000        1.1443500000
  O         4.7710260000       -0.7954980000       11.9564180000
  O        -0.4275040000        9.0940250000        1.0940980000
  O         0.0288670000       -2.2880590000        7.9912580000
  O         2.5742950000        6.1196160000        5.1177960000
  O         9.1994190000        6.4527850000        1.0832950000
  O        -4.7481140000        1.9889750000       11.9440290000
  O         8.5002540000        3.6724200000        1.1132920000
  O        -2.5429750000        3.8492400000       12.0152310000
  O         4.2691710000        6.7355740000        3.0196680000
  O        -0.1470930000       -0.4360620000       10.0170300000
  O         6.7480570000        5.6000860000        0.0715300000
  O         2.0742010000        8.5415910000       -0.0654600000
  S         0.9160030543       -2.3284557929        3.2830850855
  S         2.2980780602       -0.0161177425        4.2062642188
  F         2.1968589645       -2.6424114663        0.9321358957
  F         0.0874499813       -3.2435714832        0.9264115447
  F         0.6174586912       -1.1183267210        0.8781544536
  F         4.6421667046        1.1999872507        4.5804587461
  F         4.8695469136       -0.7540372482        3.6089164615
  F         4.1272265213        0.9509345060        2.4555730269
  O        -7.3713546792       12.6881711479        3.6259110985
  O        -3.1872174950      -10.9787904579       16.7004574164
  O         2.3564485921        0.0465250618        5.6654494156
  O         1.4921450454        0.9717889470        3.4978466765
  N         2.2435884902       -1.5291843928        3.6733283438
  C         0.9643149704       -2.3191116553        1.4051339977
  C         4.0816297261        0.3495717520        3.6710675596
     139
 i =       11, E =     -1553.2099206074
 Ti        -2.8683350000        2.1154420000       11.2652140000
 Ti         7.8027880000        5.3832100000        1.8443910000
 Ti         1.3525720000       -1.6735000000        9.4171130000
 Ti         2.5117920000        7.5426520000        3.6484140000
 Ti         1.4446720000        9.1874180000        1.7519890000
 Ti         3.2594580000       -1.8642570000       11.3595300000
 Ti        -1.8697820000        0.4160240000        9.3661400000
 Ti         5.8159840000        5.6142840000        3.7032810000
  H         3.7468960000        1.6526260000        8.5834390000
  H        -0.0029370000       -4.2340410000        6.4782570000
  H         4.4316300000       11.0106120000        4.6504380000
  H        -2.5036940000        6.0280510000       11.0484600000
  H         8.7487370000        1.5073420000        2.1552500000
  H        -6.8015420000        1.2218930000       10.9036440000
  H        11.1142460000        7.5038380000        2.0290890000
  H         4.3727210000       -5.8620200000       10.9626530000
  H        -2.5891430000        8.4561810000        2.0957030000
  H         4.6569660000        3.2041470000        6.8269530000
  H        -0.0452240000        3.6702680000        8.4060300000
  H        -3.5685920000       -1.8281670000        6.3785400000
  H         1.9853270000        7.5711820000       -0.1261220000
  H         5.9273850000        5.0774030000        0.1545840000
  H         3.7614260000       -2.5066170000        5.8447260000
  H         0.7455600000        9.3142620000        7.2794310000
  H        -6.0599130000        3.6612130000        9.0374900000
  H        10.6412470000        3.3933790000        4.1321340000
  H        -3.7285870000        2.2987080000        5.6888700000
  H        -1.7039720000       10.9033860000        4.1249230000
  H         1.7334520000       12.3009450000        2.6095370000
  H         8.6679850000       -0.5170630000        3.3558310000
  H         4.6066800000        7.2974510000        2.2978250000
  H         0.2154870000        0.1346200000       10.7192460000
  H         7.4153320000        0.2186850000        9.7283660000
  H         5.9554960000       -0.3025340000       10.4832990000
  H         7.8286560000        4.6709870000        8.6325370000
  H         7.2376510000        5.0115380000        7.0177090000
  H         7.0981770000       -4.7499770000        9.5343200000
  H         5.7840300000       -3.6950290000       10.0001570000
  H         1.4114850000        1.9115480000        9.3560850000
  H         0.8637590000        5.2270400000        6.6485740000
  H         5.7410230000        9.0693330000        3.8453710000
  H        -8.0103750000        8.6099930000        4.7446230000
  C         8.4223250000        4.6591910000        4.7037060000
  C        -3.8533280000        2.3467180000        8.4238990000
  C         3.9615950000       -2.5926300000        8.4765240000
  C         0.5135400000        9.4433570000        4.6213200000
  C         9.3443360000        4.0851920000        5.6931050000
  C        -4.8119260000        2.9400260000        7.4529070000
  C         4.9173150000       -3.1727480000        7.5232700000
  C        -0.3926610000       10.0575610000        5.6268840000
  C         9.1010420000        4.1497630000        7.1009990000
  C        -4.5992560000        2.8293420000        6.0635380000
  C         6.0750720000       -3.8937710000        7.9690880000
  C        -1.5160550000       10.7924690000        5.1890900000
  C        -0.1248110000        9.8942340000        6.9800950000
  C         4.6574050000       -3.0476440000        6.1409150000
  C        10.4989470000        3.4266870000        5.2100540000
  C        -5.9326790000        3.5931240000        7.9586910000
  C         2.8136840000        4.3074110000        6.6395670000
  C         1.8021000000        2.5801680000        8.5909250000
  C         6.1614730000        9.7262760000        4.6051290000
  C        -1.7300840000       -2.9447200000        6.5282340000
  C         8.7151750000        1.5883300000        0.0112620000
  C         1.8390400000       13.1474290000        0.0885870000
  C        10.9967290000        7.4345870000       -0.1203400000
  C        -2.4072200000        8.5110540000       -0.0635070000
  C         3.3505170000        5.2244920000        5.6056060000
  C        -1.1450180000       -2.0335150000        7.5402480000
  C         8.5285440000        3.0375930000       -0.0090850000
  C         1.7960860000       11.7116510000        0.0497010000
  C         9.7214410000        6.7729680000       -0.0672300000
  C        -1.0200150000        8.9738490000       -0.0463320000
  C         1.4829060000        4.4426040000        7.0787380000
  C         3.1252220000        2.4368270000        8.1546130000
  C         5.4241200000       10.8275940000        5.0587470000
  C        -0.9969320000       -4.0572320000        6.0734360000
  C         8.7846520000        0.9195150000        1.2397800000
  C        -2.5081420000        6.6152490000       11.9630650000
  C        11.6489580000        7.7305070000        1.1103030000
  C        -7.3513660000        1.0220250000       11.8219320000
  C         7.4413710000        9.4696440000        5.1127230000
  C        -3.0183170000       -2.6945520000        6.0174810000
  C         3.6326370000        3.2980560000        7.1812080000
  C         0.9806210000        3.5787050000        8.0528890000
  C         7.3617660000        0.4895280000       11.7535480000
  C        -3.0892010000        8.2549460000        1.1524790000
  C         4.4380030000       -6.3885600000       11.9106760000
  C         1.8336000000       13.8971630000        1.3187970000
  N         1.9163670000       13.2991920000        2.5559680000
  N         6.7825160000        0.2881570000       10.5174260000
  N         8.0012830000        4.7573400000        7.6391270000
  N         6.4187750000       -4.0420780000        9.2844230000
  O         7.2346650000        5.0226370000        5.0766040000
  O        -3.0539240000        1.4237030000        8.0201130000
  O         4.3452240000       -2.4564070000        9.6957080000
  O         0.4260540000        9.8718970000        3.4226800000
  O         1.3189610000        8.5130790000        5.0022280000
  O         2.7767760000       -2.2647240000        8.0780870000
  O         8.8243980000        4.7557010000        3.4898050000
  O        -3.9037660000        2.7797510000        9.6244670000
  O         6.1566970000        4.4091270000        2.5052180000
  O        -1.3679750000        1.9936580000       10.1096280000
  O         7.0178010000        6.7271700000        2.9531850000
  O        -3.0562790000        0.2084610000       10.6096570000
  O         1.6596210000       -2.8373120000       10.6743830000
  O         2.9694580000        9.1219370000        2.9092790000
  O         2.5316240000       -0.5433780000       10.2080480000
  O         1.3225750000        7.3069720000        2.3988930000
  O         4.5751670000        5.0876310000        5.2443370000
  O        -1.8361440000       -1.0225280000        7.9235160000
  O         4.0663910000       -3.6100490000       11.9620950000
  O         1.7435140000       11.0064290000        1.1443500000
  O         4.7710260000       -0.7954980000       11.9564180000
  O        -0.4275040000        9.0940250000        1.0940980000
  O         0.0288670000       -2.2880590000        7.9912580000
  O         2.5742950000        6.1196160000        5.1177960000
  O         9.1994190000        6.4527850000        1.0832950000
  O        -4.7481140000        1.9889750000       11.9440290000
  O         8.5002540000        3.6724200000        1.1132920000
  O        -2.5429750000        3.8492400000       12.0152310000
  O         4.2691710000        6.7355740000        3.0196680000
  O        -0.1470930000       -0.4360620000       10.0170300000
  O         6.7480570000        5.6000860000        0.0715300000
  O         2.0742010000        8.5415910000       -0.0654600000
  S         0.9405782705       -2.3501992336        3.2887321551
  S         2.3111045352       -0.0231930341        4.2201870979
  F         2.1977021390       -2.6422572976        0.9290940894
  F         0.0905127037       -3.2405925466        0.9216747245
  F         0.6236447044       -1.1147643605        0.8798934747
  F         4.6456192614        1.1992799139        4.5843958294
  F         4.8714023172       -0.7520774611        3.6086652807
  F         4.1234589589        0.9498834889        2.4553349630
  O        -7.3528138447       12.6392168133        3.6567764457
  O        -3.1314052759      -11.0000981896       16.6880651377
  O         2.3829853206        0.0335006080        5.6791243034
  O         1.4876313322        0.9605262466        3.5243797438
  N         2.2577622945       -1.5327384004        3.6793065368
  C         0.9659703252       -2.3193536941        1.4050207199
  C         4.0851789121        0.3495821061        3.6725636602
     139
 i =       12, E =     -1553.2100245231
 Ti        -2.8683350000        2.1154420000       11.2652140000
 Ti         7.8027880000        5.3832100000        1.8443910000
 Ti         1.3525720000       -1.6735000000        9.4171130000
 Ti         2.5117920000        7.5426520000        3.6484140000
 Ti         1.4446720000        9.1874180000        1.7519890000
 Ti         3.2594580000       -1.8642570000       11.3595300000
 Ti        -1.8697820000        0.4160240000        9.3661400000
 Ti         5.8159840000        5.6142840000        3.7032810000
  H         3.7468960000        1.6526260000        8.5834390000
  H        -0.0029370000       -4.2340410000        6.4782570000
  H         4.4316300000       11.0106120000        4.6504380000
  H        -2.5036940000        6.0280510000       11.0484600000
  H         8.7487370000        1.5073420000        2.1552500000
  H        -6.8015420000        1.2218930000       10.9036440000
  H        11.1142460000        7.5038380000        2.0290890000
  H         4.3727210000       -5.8620200000       10.9626530000
  H        -2.5891430000        8.4561810000        2.0957030000
  H         4.6569660000        3.2041470000        6.8269530000
  H        -0.0452240000        3.6702680000        8.4060300000
  H        -3.5685920000       -1.8281670000        6.3785400000
  H         1.9853270000        7.5711820000       -0.1261220000
  H         5.9273850000        5.0774030000        0.1545840000
  H         3.7614260000       -2.5066170000        5.8447260000
  H         0.7455600000        9.3142620000        7.2794310000
  H        -6.0599130000        3.6612130000        9.0374900000
  H        10.6412470000        3.3933790000        4.1321340000
  H        -3.7285870000        2.2987080000        5.6888700000
  H        -1.7039720000       10.9033860000        4.1249230000
  H         1.7334520000       12.3009450000        2.6095370000
  H         8.6679850000       -0.5170630000        3.3558310000
  H         4.6066800000        7.2974510000        2.2978250000
  H         0.2154870000        0.1346200000       10.7192460000
  H         7.4153320000        0.2186850000        9.7283660000
  H         5.9554960000       -0.3025340000       10.4832990000
  H         7.8286560000        4.6709870000        8.6325370000
  H         7.2376510000        5.0115380000        7.0177090000
  H         7.0981770000       -4.7499770000        9.5343200000
  H         5.7840300000       -3.6950290000       10.0001570000
  H         1.4114850000        1.9115480000        9.3560850000
  H         0.8637590000        5.2270400000        6.6485740000
  H         5.7410230000        9.0693330000        3.8453710000
  H        -8.0103750000        8.6099930000        4.7446230000
  C         8.4223250000        4.6591910000        4.7037060000
  C        -3.8533280000        2.3467180000        8.4238990000
  C         3.9615950000       -2.5926300000        8.4765240000
  C         0.5135400000        9.4433570000        4.6213200000
  C         9.3443360000        4.0851920000        5.6931050000
  C        -4.8119260000        2.9400260000        7.4529070000
  C         4.9173150000       -3.1727480000        7.5232700000
  C        -0.3926610000       10.0575610000        5.6268840000
  C         9.1010420000        4.1497630000        7.1009990000
  C        -4.5992560000        2.8293420000        6.0635380000
  C         6.0750720000       -3.8937710000        7.9690880000
  C        -1.5160550000       10.7924690000        5.1890900000
  C        -0.1248110000        9.8942340000        6.9800950000
  C         4.6574050000       -3.0476440000        6.1409150000
  C        10.4989470000        3.4266870000        5.2100540000
  C        -5.9326790000        3.5931240000        7.9586910000
  C         2.8136840000        4.3074110000        6.6395670000
  C         1.8021000000        2.5801680000        8.5909250000
  C         6.1614730000        9.7262760000        4.6051290000
  C        -1.7300840000       -2.9447200000        6.5282340000
  C         8.7151750000        1.5883300000        0.0112620000
  C         1.8390400000       13.1474290000        0.0885870000
  C        10.9967290000        7.4345870000       -0.1203400000
  C        -2.4072200000        8.5110540000       -0.0635070000
  C         3.3505170000        5.2244920000        5.6056060000
  C        -1.1450180000       -2.0335150000        7.5402480000
  C         8.5285440000        3.0375930000       -0.0090850000
  C         1.7960860000       11.7116510000        0.0497010000
  C         9.7214410000        6.7729680000       -0.0672300000
  C        -1.0200150000        8.9738490000       -0.0463320000
  C         1.4829060000        4.4426040000        7.0787380000
  C         3.1252220000        2.4368270000        8.1546130000
  C         5.4241200000       10.8275940000        5.0587470000
  C        -0.9969320000       -4.0572320000        6.0734360000
  C         8.7846520000        0.9195150000        1.2397800000
  C        -2.5081420000        6.6152490000       11.9630650000
  C        11.6489580000        7.7305070000        1.1103030000
  C        -7.3513660000        1.0220250000       11.8219320000
  C         7.4413710000        9.4696440000        5.1127230000
  C        -3.0183170000       -2.6945520000        6.0174810000
  C         3.6326370000        3.2980560000        7.1812080000
  C         0.9806210000        3.5787050000        8.0528890000
  C         7.3617660000        0.4895280000       11.7535480000
  C        -3.0892010000        8.2549460000        1.1524790000
  C         4.4380030000       -6.3885600000       11.9106760000
  C         1.8336000000       13.8971630000        1.3187970000
  N         1.9163670000       13.2991920000        2.5559680000
  N         6.7825160000        0.2881570000       10.5174260000
  N         8.0012830000        4.7573400000        7.6391270000
  N         6.4187750000       -4.0420780000        9.2844230000
  O         7.2346650000        5.0226370000        5.0766040000
  O        -3.0539240000        1.4237030000        8.0201130000
  O         4.3452240000       -2.4564070000        9.6957080000
  O         0.4260540000        9.8718970000        3.4226800000
  O         1.3189610000        8.5130790000        5.0022280000
  O         2.7767760000       -2.2647240000        8.0780870000
  O         8.8243980000        4.7557010000        3.4898050000
  O        -3.9037660000        2.7797510000        9.6244670000
  O         6.1566970000        4.4091270000        2.5052180000
  O        -1.3679750000        1.9936580000       10.1096280000
  O         7.0178010000        6.7271700000        2.9531850000
  O        -3.0562790000        0.2084610000       10.6096570000
  O         1.6596210000       -2.8373120000       10.6743830000
  O         2.9694580000        9.1219370000        2.9092790000
  O         2.5316240000       -0.5433780000       10.2080480000
  O         1.3225750000        7.3069720000        2.3988930000
  O         4.5751670000        5.0876310000        5.2443370000
  O        -1.8361440000       -1.0225280000        7.9235160000
  O         4.0663910000       -3.6100490000       11.9620950000
  O         1.7435140000       11.0064290000        1.1443500000
  O         4.7710260000       -0.7954980000       11.9564180000
  O        -0.4275040000        9.0940250000        1.0940980000
  O         0.0288670000       -2.2880590000        7.9912580000
  O         2.5742950000        6.1196160000        5.1177960000
  O         9.1994190000        6.4527850000        1.0832950000
  O        -4.7481140000        1.9889750000       11.9440290000
  O         8.5002540000        3.6724200000        1.1132920000
  O        -2.5429750000        3.8492400000       12.0152310000
  O         4.2691710000        6.7355740000        3.0196680000
  O        -0.1470930000       -0.4360620000       10.0170300000
  O         6.7480570000        5.6000860000        0.0715300000
  O         2.0742010000        8.5415910000       -0.0654600000
  S         0.9564933248       -2.3605456152        3.2900223826
  S         2.3134175642       -0.0280389197        4.2279253221
  F         2.2016594448       -2.6476877758        0.9254579898
  F         0.0876890358       -3.2439729050        0.9270033685
  F         0.6260818740       -1.1178598582        0.8861511280
  F         4.6462864172        1.2023915904        4.5849104346
  F         4.8715144438       -0.7544144355        3.6113749979
  F         4.1231315499        0.9518078949        2.4623821969
  O        -7.3387135143       12.6163289790        3.6696706048
  O        -3.1031217934      -11.0109926620       16.6775216758
  O         2.3936791246        0.0228671784        5.6869972053
  O         1.4844858815        0.9554168537        3.5386869486
  N         2.2678186171       -1.5363169616        3.6824411551
  C         0.9706565857       -2.3258536517        1.4046333415
  C         4.0839636977        0.3472741348        3.6781649273
     139
 i =       13, E =     -1553.2100879626
 Ti        -2.8683350000        2.1154420000       11.2652140000
 Ti         7.8027880000        5.3832100000        1.8443910000
 Ti         1.3525720000       -1.6735000000        9.4171130000
 Ti         2.5117920000        7.5426520000        3.6484140000
 Ti         1.4446720000        9.1874180000        1.7519890000
 Ti         3.2594580000       -1.8642570000       11.3595300000
 Ti        -1.8697820000        0.4160240000        9.3661400000
 Ti         5.8159840000        5.6142840000        3.7032810000
  H         3.7468960000        1.6526260000        8.5834390000
  H        -0.0029370000       -4.2340410000        6.4782570000
  H         4.4316300000       11.0106120000        4.6504380000
  H        -2.5036940000        6.0280510000       11.0484600000
  H         8.7487370000        1.5073420000        2.1552500000
  H        -6.8015420000        1.2218930000       10.9036440000
  H        11.1142460000        7.5038380000        2.0290890000
  H         4.3727210000       -5.8620200000       10.9626530000
  H        -2.5891430000        8.4561810000        2.0957030000
  H         4.6569660000        3.2041470000        6.8269530000
  H        -0.0452240000        3.6702680000        8.4060300000
  H        -3.5685920000       -1.8281670000        6.3785400000
  H         1.9853270000        7.5711820000       -0.1261220000
  H         5.9273850000        5.0774030000        0.1545840000
  H         3.7614260000       -2.5066170000        5.8447260000
  H         0.7455600000        9.3142620000        7.2794310000
  H        -6.0599130000        3.6612130000        9.0374900000
  H        10.6412470000        3.3933790000        4.1321340000
  H        -3.7285870000        2.2987080000        5.6888700000
  H        -1.7039720000       10.9033860000        4.1249230000
  H         1.7334520000       12.3009450000        2.6095370000
  H         8.6679850000       -0.5170630000        3.3558310000
  H         4.6066800000        7.2974510000        2.2978250000
  H         0.2154870000        0.1346200000       10.7192460000
  H         7.4153320000        0.2186850000        9.7283660000
  H         5.9554960000       -0.3025340000       10.4832990000
  H         7.8286560000        4.6709870000        8.6325370000
  H         7.2376510000        5.0115380000        7.0177090000
  H         7.0981770000       -4.7499770000        9.5343200000
  H         5.7840300000       -3.6950290000       10.0001570000
  H         1.4114850000        1.9115480000        9.3560850000
  H         0.8637590000        5.2270400000        6.6485740000
  H         5.7410230000        9.0693330000        3.8453710000
  H        -8.0103750000        8.6099930000        4.7446230000
  C         8.4223250000        4.6591910000        4.7037060000
  C        -3.8533280000        2.3467180000        8.4238990000
  C         3.9615950000       -2.5926300000        8.4765240000
  C         0.5135400000        9.4433570000        4.6213200000
  C         9.3443360000        4.0851920000        5.6931050000
  C        -4.8119260000        2.9400260000        7.4529070000
  C         4.9173150000       -3.1727480000        7.5232700000
  C        -0.3926610000       10.0575610000        5.6268840000
  C         9.1010420000        4.1497630000        7.1009990000
  C        -4.5992560000        2.8293420000        6.0635380000
  C         6.0750720000       -3.8937710000        7.9690880000
  C        -1.5160550000       10.7924690000        5.1890900000
  C        -0.1248110000        9.8942340000        6.9800950000
  C         4.6574050000       -3.0476440000        6.1409150000
  C        10.4989470000        3.4266870000        5.2100540000
  C        -5.9326790000        3.5931240000        7.9586910000
  C         2.8136840000        4.3074110000        6.6395670000
  C         1.8021000000        2.5801680000        8.5909250000
  C         6.1614730000        9.7262760000        4.6051290000
  C        -1.7300840000       -2.9447200000        6.5282340000
  C         8.7151750000        1.5883300000        0.0112620000
  C         1.8390400000       13.1474290000        0.0885870000
  C        10.9967290000        7.4345870000       -0.1203400000
  C        -2.4072200000        8.5110540000       -0.0635070000
  C         3.3505170000        5.2244920000        5.6056060000
  C        -1.1450180000       -2.0335150000        7.5402480000
  C         8.5285440000        3.0375930000       -0.0090850000
  C         1.7960860000       11.7116510000        0.0497010000
  C         9.7214410000        6.7729680000       -0.0672300000
  C        -1.0200150000        8.9738490000       -0.0463320000
  C         1.4829060000        4.4426040000        7.0787380000
  C         3.1252220000        2.4368270000        8.1546130000
  C         5.4241200000       10.8275940000        5.0587470000
  C        -0.9969320000       -4.0572320000        6.0734360000
  C         8.7846520000        0.9195150000        1.2397800000
  C        -2.5081420000        6.6152490000       11.9630650000
  C        11.6489580000        7.7305070000        1.1103030000
  C        -7.3513660000        1.0220250000       11.8219320000
  C         7.4413710000        9.4696440000        5.1127230000
  C        -3.0183170000       -2.6945520000        6.0174810000
  C         3.6326370000        3.2980560000        7.1812080000
  C         0.9806210000        3.5787050000        8.0528890000
  C         7.3617660000        0.4895280000       11.7535480000
  C        -3.0892010000        8.2549460000        1.1524790000
  C         4.4380030000       -6.3885600000       11.9106760000
  C         1.8336000000       13.8971630000        1.3187970000
  N         1.9163670000       13.2991920000        2.5559680000
  N         6.7825160000        0.2881570000       10.5174260000
  N         8.0012830000        4.7573400000        7.6391270000
  N         6.4187750000       -4.0420780000        9.2844230000
  O         7.2346650000        5.0226370000        5.0766040000
  O        -3.0539240000        1.4237030000        8.0201130000
  O         4.3452240000       -2.4564070000        9.6957080000
  O         0.4260540000        9.8718970000        3.4226800000
  O         1.3189610000        8.5130790000        5.0022280000
  O         2.7767760000       -2.2647240000        8.0780870000
  O         8.8243980000        4.7557010000        3.4898050000
  O        -3.9037660000        2.7797510000        9.6244670000
  O         6.1566970000        4.4091270000        2.5052180000
  O        -1.3679750000        1.9936580000       10.1096280000
  O         7.0178010000        6.7271700000        2.9531850000
  O        -3.0562790000        0.2084610000       10.6096570000
  O         1.6596210000       -2.8373120000       10.6743830000
  O         2.9694580000        9.1219370000        2.9092790000
  O         2.5316240000       -0.5433780000       10.2080480000
  O         1.3225750000        7.3069720000        2.3988930000
  O         4.5751670000        5.0876310000        5.2443370000
  O        -1.8361440000       -1.0225280000        7.9235160000
  O         4.0663910000       -3.6100490000       11.9620950000
  O         1.7435140000       11.0064290000        1.1443500000
  O         4.7710260000       -0.7954980000       11.9564180000
  O        -0.4275040000        9.0940250000        1.0940980000
  O         0.0288670000       -2.2880590000        7.9912580000
  O         2.5742950000        6.1196160000        5.1177960000
  O         9.1994190000        6.4527850000        1.0832950000
  O        -4.7481140000        1.9889750000       11.9440290000
  O         8.5002540000        3.6724200000        1.1132920000
  O        -2.5429750000        3.8492400000       12.0152310000
  O         4.2691710000        6.7355740000        3.0196680000
  O        -0.1470930000       -0.4360620000       10.0170300000
  O         6.7480570000        5.6000860000        0.0715300000
  O         2.0742010000        8.5415910000       -0.0654600000
  S         0.9656455700       -2.3663856315        3.2903963695
  S         2.3140015821       -0.0322492679        4.2322334585
  F         2.2042973742       -2.6476935196        0.9214989368
  F         0.0878559931       -3.2463777854        0.9280645805
  F         0.6260835714       -1.1219063144        0.8912328810
  F         4.6470103528        1.2013265158        4.5872232887
  F         4.8720441167       -0.7531476825        3.6098383632
  F         4.1208879158        0.9499128051        2.4610782919
  O        -7.3293999476       12.6064346564        3.6725238023
  O        -3.0917855175      -11.0168107281       16.6716300200
  O         2.3965066661        0.0127049341        5.6914509279
  O         1.4836894171        0.9520002254        3.5471021314
  N         2.2742133120       -1.5397282172        3.6824515450
  C         0.9744203729       -2.3311219956        1.4076202859
  C         4.0827297883        0.3492563628        3.6791518120
     139
 i =       14, E =     -1553.2101481191
 Ti        -2.8683350000        2.1154420000       11.2652140000
 Ti         7.8027880000        5.3832100000        1.8443910000
 Ti         1.3525720000       -1.6735000000        9.4171130000
 Ti         2.5117920000        7.5426520000        3.6484140000
 Ti         1.4446720000        9.1874180000        1.7519890000
 Ti         3.2594580000       -1.8642570000       11.3595300000
 Ti        -1.8697820000        0.4160240000        9.3661400000
 Ti         5.8159840000        5.6142840000        3.7032810000
  H         3.7468960000        1.6526260000        8.5834390000
  H        -0.0029370000       -4.2340410000        6.4782570000
  H         4.4316300000       11.0106120000        4.6504380000
  H        -2.5036940000        6.0280510000       11.0484600000
  H         8.7487370000        1.5073420000        2.1552500000
  H        -6.8015420000        1.2218930000       10.9036440000
  H        11.1142460000        7.5038380000        2.0290890000
  H         4.3727210000       -5.8620200000       10.9626530000
  H        -2.5891430000        8.4561810000        2.0957030000
  H         4.6569660000        3.2041470000        6.8269530000
  H        -0.0452240000        3.6702680000        8.4060300000
  H        -3.5685920000       -1.8281670000        6.3785400000
  H         1.9853270000        7.5711820000       -0.1261220000
  H         5.9273850000        5.0774030000        0.1545840000
  H         3.7614260000       -2.5066170000        5.8447260000
  H         0.7455600000        9.3142620000        7.2794310000
  H        -6.0599130000        3.6612130000        9.0374900000
  H        10.6412470000        3.3933790000        4.1321340000
  H        -3.7285870000        2.2987080000        5.6888700000
  H        -1.7039720000       10.9033860000        4.1249230000
  H         1.7334520000       12.3009450000        2.6095370000
  H         8.6679850000       -0.5170630000        3.3558310000
  H         4.6066800000        7.2974510000        2.2978250000
  H         0.2154870000        0.1346200000       10.7192460000
  H         7.4153320000        0.2186850000        9.7283660000
  H         5.9554960000       -0.3025340000       10.4832990000
  H         7.8286560000        4.6709870000        8.6325370000
  H         7.2376510000        5.0115380000        7.0177090000
  H         7.0981770000       -4.7499770000        9.5343200000
  H         5.7840300000       -3.6950290000       10.0001570000
  H         1.4114850000        1.9115480000        9.3560850000
  H         0.8637590000        5.2270400000        6.6485740000
  H         5.7410230000        9.0693330000        3.8453710000
  H        -8.0103750000        8.6099930000        4.7446230000
  C         8.4223250000        4.6591910000        4.7037060000
  C        -3.8533280000        2.3467180000        8.4238990000
  C         3.9615950000       -2.5926300000        8.4765240000
  C         0.5135400000        9.4433570000        4.6213200000
  C         9.3443360000        4.0851920000        5.6931050000
  C        -4.8119260000        2.9400260000        7.4529070000
  C         4.9173150000       -3.1727480000        7.5232700000
  C        -0.3926610000       10.0575610000        5.6268840000
  C         9.1010420000        4.1497630000        7.1009990000
  C        -4.5992560000        2.8293420000        6.0635380000
  C         6.0750720000       -3.8937710000        7.9690880000
  C        -1.5160550000       10.7924690000        5.1890900000
  C        -0.1248110000        9.8942340000        6.9800950000
  C         4.6574050000       -3.0476440000        6.1409150000
  C        10.4989470000        3.4266870000        5.2100540000
  C        -5.9326790000        3.5931240000        7.9586910000
  C         2.8136840000        4.3074110000        6.6395670000
  C         1.8021000000        2.5801680000        8.5909250000
  C         6.1614730000        9.7262760000        4.6051290000
  C        -1.7300840000       -2.9447200000        6.5282340000
  C         8.7151750000        1.5883300000        0.0112620000
  C         1.8390400000       13.1474290000        0.0885870000
  C        10.9967290000        7.4345870000       -0.1203400000
  C        -2.4072200000        8.5110540000       -0.0635070000
  C         3.3505170000        5.2244920000        5.6056060000
  C        -1.1450180000       -2.0335150000        7.5402480000
  C         8.5285440000        3.0375930000       -0.0090850000
  C         1.7960860000       11.7116510000        0.0497010000
  C         9.7214410000        6.7729680000       -0.0672300000
  C        -1.0200150000        8.9738490000       -0.0463320000
  C         1.4829060000        4.4426040000        7.0787380000
  C         3.1252220000        2.4368270000        8.1546130000
  C         5.4241200000       10.8275940000        5.0587470000
  C        -0.9969320000       -4.0572320000        6.0734360000
  C         8.7846520000        0.9195150000        1.2397800000
  C        -2.5081420000        6.6152490000       11.9630650000
  C        11.6489580000        7.7305070000        1.1103030000
  C        -7.3513660000        1.0220250000       11.8219320000
  C         7.4413710000        9.4696440000        5.1127230000
  C        -3.0183170000       -2.6945520000        6.0174810000
  C         3.6326370000        3.2980560000        7.1812080000
  C         0.9806210000        3.5787050000        8.0528890000
  C         7.3617660000        0.4895280000       11.7535480000
  C        -3.0892010000        8.2549460000        1.1524790000
  C         4.4380030000       -6.3885600000       11.9106760000
  C         1.8336000000       13.8971630000        1.3187970000
  N         1.9163670000       13.2991920000        2.5559680000
  N         6.7825160000        0.2881570000       10.5174260000
  N         8.0012830000        4.7573400000        7.6391270000
  N         6.4187750000       -4.0420780000        9.2844230000
  O         7.2346650000        5.0226370000        5.0766040000
  O        -3.0539240000        1.4237030000        8.0201130000
  O         4.3452240000       -2.4564070000        9.6957080000
  O         0.4260540000        9.8718970000        3.4226800000
  O         1.3189610000        8.5130790000        5.0022280000
  O         2.7767760000       -2.2647240000        8.0780870000
  O         8.8243980000        4.7557010000        3.4898050000
  O        -3.9037660000        2.7797510000        9.6244670000
  O         6.1566970000        4.4091270000        2.5052180000
  O        -1.3679750000        1.9936580000       10.1096280000
  O         7.0178010000        6.7271700000        2.9531850000
  O        -3.0562790000        0.2084610000       10.6096570000
  O         1.6596210000       -2.8373120000       10.6743830000
  O         2.9694580000        9.1219370000        2.9092790000
  O         2.5316240000       -0.5433780000       10.2080480000
  O         1.3225750000        7.3069720000        2.3988930000
  O         4.5751670000        5.0876310000        5.2443370000
  O        -1.8361440000       -1.0225280000        7.9235160000
  O         4.0663910000       -3.6100490000       11.9620950000
  O         1.7435140000       11.0064290000        1.1443500000
  O         4.7710260000       -0.7954980000       11.9564180000
  O        -0.4275040000        9.0940250000        1.0940980000
  O         0.0288670000       -2.2880590000        7.9912580000
  O         2.5742950000        6.1196160000        5.1177960000
  O         9.1994190000        6.4527850000        1.0832950000
  O        -4.7481140000        1.9889750000       11.9440290000
  O         8.5002540000        3.6724200000        1.1132920000
  O        -2.5429750000        3.8492400000       12.0152310000
  O         4.2691710000        6.7355740000        3.0196680000
  O        -0.1470930000       -0.4360620000       10.0170300000
  O         6.7480570000        5.6000860000        0.0715300000
  O         2.0742010000        8.5415910000       -0.0654600000
  S         0.9783216437       -2.3776129703        3.2908199520
  S         2.3169667242       -0.0398133531        4.2375933123
  F         2.2065695401       -2.6508688024        0.9208060492
  F         0.0936355299       -3.2485429734        0.9279472307
  F         0.6281432254       -1.1211683057        0.8995238138
  F         4.6470345280        1.2028908670        4.5859586555
  F         4.8738385690       -0.7539677509        3.6098002059
  F         4.1193646256        0.9508165868        2.4615673976
  O        -7.3170004321       12.5887556086        3.6773518474
  O        -3.0724187691      -11.0273352834       16.6636695085
  O         2.4015245597       -0.0047145524        5.6968123659
  O         1.4820521426        0.9451229606        3.5607002703
  N         2.2824760415       -1.5456429504        3.6805557521
  C         0.9786566392       -2.3326715792        1.4121886696
  C         4.0833275830        0.3500732694        3.6795281558
     139
 i =       15, E =     -1553.2103617796
 Ti        -2.8683350000        2.1154420000       11.2652140000
 Ti         7.8027880000        5.3832100000        1.8443910000
 Ti         1.3525720000       -1.6735000000        9.4171130000
 Ti         2.5117920000        7.5426520000        3.6484140000
 Ti         1.4446720000        9.1874180000        1.7519890000
 Ti         3.2594580000       -1.8642570000       11.3595300000
 Ti        -1.8697820000        0.4160240000        9.3661400000
 Ti         5.8159840000        5.6142840000        3.7032810000
  H         3.7468960000        1.6526260000        8.5834390000
  H        -0.0029370000       -4.2340410000        6.4782570000
  H         4.4316300000       11.0106120000        4.6504380000
  H        -2.5036940000        6.0280510000       11.0484600000
  H         8.7487370000        1.5073420000        2.1552500000
  H        -6.8015420000        1.2218930000       10.9036440000
  H        11.1142460000        7.5038380000        2.0290890000
  H         4.3727210000       -5.8620200000       10.9626530000
  H        -2.5891430000        8.4561810000        2.0957030000
  H         4.6569660000        3.2041470000        6.8269530000
  H        -0.0452240000        3.6702680000        8.4060300000
  H        -3.5685920000       -1.8281670000        6.3785400000
  H         1.9853270000        7.5711820000       -0.1261220000
  H         5.9273850000        5.0774030000        0.1545840000
  H         3.7614260000       -2.5066170000        5.8447260000
  H         0.7455600000        9.3142620000        7.2794310000
  H        -6.0599130000        3.6612130000        9.0374900000
  H        10.6412470000        3.3933790000        4.1321340000
  H        -3.7285870000        2.2987080000        5.6888700000
  H        -1.7039720000       10.9033860000        4.1249230000
  H         1.7334520000       12.3009450000        2.6095370000
  H         8.6679850000       -0.5170630000        3.3558310000
  H         4.6066800000        7.2974510000        2.2978250000
  H         0.2154870000        0.1346200000       10.7192460000
  H         7.4153320000        0.2186850000        9.7283660000
  H         5.9554960000       -0.3025340000       10.4832990000
  H         7.8286560000        4.6709870000        8.6325370000
  H         7.2376510000        5.0115380000        7.0177090000
  H         7.0981770000       -4.7499770000        9.5343200000
  H         5.7840300000       -3.6950290000       10.0001570000
  H         1.4114850000        1.9115480000        9.3560850000
  H         0.8637590000        5.2270400000        6.6485740000
  H         5.7410230000        9.0693330000        3.8453710000
  H        -8.0103750000        8.6099930000        4.7446230000
  C         8.4223250000        4.6591910000        4.7037060000
  C        -3.8533280000        2.3467180000        8.4238990000
  C         3.9615950000       -2.5926300000        8.4765240000
  C         0.5135400000        9.4433570000        4.6213200000
  C         9.3443360000        4.0851920000        5.6931050000
  C        -4.8119260000        2.9400260000        7.4529070000
  C         4.9173150000       -3.1727480000        7.5232700000
  C        -0.3926610000       10.0575610000        5.6268840000
  C         9.1010420000        4.1497630000        7.1009990000
  C        -4.5992560000        2.8293420000        6.0635380000
  C         6.0750720000       -3.8937710000        7.9690880000
  C        -1.5160550000       10.7924690000        5.1890900000
  C        -0.1248110000        9.8942340000        6.9800950000
  C         4.6574050000       -3.0476440000        6.1409150000
  C        10.4989470000        3.4266870000        5.2100540000
  C        -5.9326790000        3.5931240000        7.9586910000
  C         2.8136840000        4.3074110000        6.6395670000
  C         1.8021000000        2.5801680000        8.5909250000
  C         6.1614730000        9.7262760000        4.6051290000
  C        -1.7300840000       -2.9447200000        6.5282340000
  C         8.7151750000        1.5883300000        0.0112620000
  C         1.8390400000       13.1474290000        0.0885870000
  C        10.9967290000        7.4345870000       -0.1203400000
  C        -2.4072200000        8.5110540000       -0.0635070000
  C         3.3505170000        5.2244920000        5.6056060000
  C        -1.1450180000       -2.0335150000        7.5402480000
  C         8.5285440000        3.0375930000       -0.0090850000
  C         1.7960860000       11.7116510000        0.0497010000
  C         9.7214410000        6.7729680000       -0.0672300000
  C        -1.0200150000        8.9738490000       -0.0463320000
  C         1.4829060000        4.4426040000        7.0787380000
  C         3.1252220000        2.4368270000        8.1546130000
  C         5.4241200000       10.8275940000        5.0587470000
  C        -0.9969320000       -4.0572320000        6.0734360000
  C         8.7846520000        0.9195150000        1.2397800000
  C        -2.5081420000        6.6152490000       11.9630650000
  C        11.6489580000        7.7305070000        1.1103030000
  C        -7.3513660000        1.0220250000       11.8219320000
  C         7.4413710000        9.4696440000        5.1127230000
  C        -3.0183170000       -2.6945520000        6.0174810000
  C         3.6326370000        3.2980560000        7.1812080000
  C         0.9806210000        3.5787050000        8.0528890000
  C         7.3617660000        0.4895280000       11.7535480000
  C        -3.0892010000        8.2549460000        1.1524790000
  C         4.4380030000       -6.3885600000       11.9106760000
  C         1.8336000000       13.8971630000        1.3187970000
  N         1.9163670000       13.2991920000        2.5559680000
  N         6.7825160000        0.2881570000       10.5174260000
  N         8.0012830000        4.7573400000        7.6391270000
  N         6.4187750000       -4.0420780000        9.2844230000
  O         7.2346650000        5.0226370000        5.0766040000
  O        -3.0539240000        1.4237030000        8.0201130000
  O         4.3452240000       -2.4564070000        9.6957080000
  O         0.4260540000        9.8718970000        3.4226800000
  O         1.3189610000        8.5130790000        5.0022280000
  O         2.7767760000       -2.2647240000        8.0780870000
  O         8.8243980000        4.7557010000        3.4898050000
  O        -3.9037660000        2.7797510000        9.6244670000
  O         6.1566970000        4.4091270000        2.5052180000
  O        -1.3679750000        1.9936580000       10.1096280000
  O         7.0178010000        6.7271700000        2.9531850000
  O        -3.0562790000        0.2084610000       10.6096570000
  O         1.6596210000       -2.8373120000       10.6743830000
  O         2.9694580000        9.1219370000        2.9092790000
  O         2.5316240000       -0.5433780000       10.2080480000
  O         1.3225750000        7.3069720000        2.3988930000
  O         4.5751670000        5.0876310000        5.2443370000
  O        -1.8361440000       -1.0225280000        7.9235160000
  O         4.0663910000       -3.6100490000       11.9620950000
  O         1.7435140000       11.0064290000        1.1443500000
  O         4.7710260000       -0.7954980000       11.9564180000
  O        -0.4275040000        9.0940250000        1.0940980000
  O         0.0288670000       -2.2880590000        7.9912580000
  O         2.5742950000        6.1196160000        5.1177960000
  O         9.1994190000        6.4527850000        1.0832950000
  O        -4.7481140000        1.9889750000       11.9440290000
  O         8.5002540000        3.6724200000        1.1132920000
  O        -2.5429750000        3.8492400000       12.0152310000
  O         4.2691710000        6.7355740000        3.0196680000
  O        -0.1470930000       -0.4360620000       10.0170300000
  O         6.7480570000        5.6000860000        0.0715300000
  O         2.0742010000        8.5415910000       -0.0654600000
  S         1.0070647429       -2.4051219691        3.2917402687
  S         2.3259271406       -0.0582648249        4.2486614948
  F         2.2162577903       -2.6512462641        0.9192730937
  F         0.0986589670       -3.2433205402        0.9264296243
  F         0.6376897852       -1.1158423920        0.9289153716
  F         4.6456860398        1.2050574153        4.5851600337
  F         4.8802074240       -0.7558440300        3.6106548859
  F         4.1160974778        0.9521034748        2.4628228049
  O        -7.2906357708       12.5435942048        3.6918368499
  O        -3.0240093270      -11.0531948804       16.6446352914
  O         2.4139921291       -0.0443539691        5.7076955896
  O         1.4772951103        0.9270388320        3.5919052671
  N         2.3015631776       -1.5597207509        3.6745930091
  C         0.9910271460       -2.3367850291        1.4218841695
  C         4.0871579110        0.3505374081        3.6798998529
     139
 i =       16, E =     -1553.2086485011
 Ti        -2.8683350000        2.1154420000       11.2652140000
 Ti         7.8027880000        5.3832100000        1.8443910000
 Ti         1.3525720000       -1.6735000000        9.4171130000
 Ti         2.5117920000        7.5426520000        3.6484140000
 Ti         1.4446720000        9.1874180000        1.7519890000
 Ti         3.2594580000       -1.8642570000       11.3595300000
 Ti        -1.8697820000        0.4160240000        9.3661400000
 Ti         5.8159840000        5.6142840000        3.7032810000
  H         3.7468960000        1.6526260000        8.5834390000
  H        -0.0029370000       -4.2340410000        6.4782570000
  H         4.4316300000       11.0106120000        4.6504380000
  H        -2.5036940000        6.0280510000       11.0484600000
  H         8.7487370000        1.5073420000        2.1552500000
  H        -6.8015420000        1.2218930000       10.9036440000
  H        11.1142460000        7.5038380000        2.0290890000
  H         4.3727210000       -5.8620200000       10.9626530000
  H        -2.5891430000        8.4561810000        2.0957030000
  H         4.6569660000        3.2041470000        6.8269530000
  H        -0.0452240000        3.6702680000        8.4060300000
  H        -3.5685920000       -1.8281670000        6.3785400000
  H         1.9853270000        7.5711820000       -0.1261220000
  H         5.9273850000        5.0774030000        0.1545840000
  H         3.7614260000       -2.5066170000        5.8447260000
  H         0.7455600000        9.3142620000        7.2794310000
  H        -6.0599130000        3.6612130000        9.0374900000
  H        10.6412470000        3.3933790000        4.1321340000
  H        -3.7285870000        2.2987080000        5.6888700000
  H        -1.7039720000       10.9033860000        4.1249230000
  H         1.7334520000       12.3009450000        2.6095370000
  H         8.6679850000       -0.5170630000        3.3558310000
  H         4.6066800000        7.2974510000        2.2978250000
  H         0.2154870000        0.1346200000       10.7192460000
  H         7.4153320000        0.2186850000        9.7283660000
  H         5.9554960000       -0.3025340000       10.4832990000
  H         7.8286560000        4.6709870000        8.6325370000
  H         7.2376510000        5.0115380000        7.0177090000
  H         7.0981770000       -4.7499770000        9.5343200000
  H         5.7840300000       -3.6950290000       10.0001570000
  H         1.4114850000        1.9115480000        9.3560850000
  H         0.8637590000        5.2270400000        6.6485740000
  H         5.7410230000        9.0693330000        3.8453710000
  H        -8.0103750000        8.6099930000        4.7446230000
  C         8.4223250000        4.6591910000        4.7037060000
  C        -3.8533280000        2.3467180000        8.4238990000
  C         3.9615950000       -2.5926300000        8.4765240000
  C         0.5135400000        9.4433570000        4.6213200000
  C         9.3443360000        4.0851920000        5.6931050000
  C        -4.8119260000        2.9400260000        7.4529070000
  C         4.9173150000       -3.1727480000        7.5232700000
  C        -0.3926610000       10.0575610000        5.6268840000
  C         9.1010420000        4.1497630000        7.1009990000
  C        -4.5992560000        2.8293420000        6.0635380000
  C         6.0750720000       -3.8937710000        7.9690880000
  C        -1.5160550000       10.7924690000        5.1890900000
  C        -0.1248110000        9.8942340000        6.9800950000
  C         4.6574050000       -3.0476440000        6.1409150000
  C        10.4989470000        3.4266870000        5.2100540000
  C        -5.9326790000        3.5931240000        7.9586910000
  C         2.8136840000        4.3074110000        6.6395670000
  C         1.8021000000        2.5801680000        8.5909250000
  C         6.1614730000        9.7262760000        4.6051290000
  C        -1.7300840000       -2.9447200000        6.5282340000
  C         8.7151750000        1.5883300000        0.0112620000
  C         1.8390400000       13.1474290000        0.0885870000
  C        10.9967290000        7.4345870000       -0.1203400000
  C        -2.4072200000        8.5110540000       -0.0635070000
  C         3.3505170000        5.2244920000        5.6056060000
  C        -1.1450180000       -2.0335150000        7.5402480000
  C         8.5285440000        3.0375930000       -0.0090850000
  C         1.7960860000       11.7116510000        0.0497010000
  C         9.7214410000        6.7729680000       -0.0672300000
  C        -1.0200150000        8.9738490000       -0.0463320000
  C         1.4829060000        4.4426040000        7.0787380000
  C         3.1252220000        2.4368270000        8.1546130000
  C         5.4241200000       10.8275940000        5.0587470000
  C        -0.9969320000       -4.0572320000        6.0734360000
  C         8.7846520000        0.9195150000        1.2397800000
  C        -2.5081420000        6.6152490000       11.9630650000
  C        11.6489580000        7.7305070000        1.1103030000
  C        -7.3513660000        1.0220250000       11.8219320000
  C         7.4413710000        9.4696440000        5.1127230000
  C        -3.0183170000       -2.6945520000        6.0174810000
  C         3.6326370000        3.2980560000        7.1812080000
  C         0.9806210000        3.5787050000        8.0528890000
  C         7.3617660000        0.4895280000       11.7535480000
  C        -3.0892010000        8.2549460000        1.1524790000
  C         4.4380030000       -6.3885600000       11.9106760000
  C         1.8336000000       13.8971630000        1.3187970000
  N         1.9163670000       13.2991920000        2.5559680000
  N         6.7825160000        0.2881570000       10.5174260000
  N         8.0012830000        4.7573400000        7.6391270000
  N         6.4187750000       -4.0420780000        9.2844230000
  O         7.2346650000        5.0226370000        5.0766040000
  O        -3.0539240000        1.4237030000        8.0201130000
  O         4.3452240000       -2.4564070000        9.6957080000
  O         0.4260540000        9.8718970000        3.4226800000
  O         1.3189610000        8.5130790000        5.0022280000
  O         2.7767760000       -2.2647240000        8.0780870000
  O         8.8243980000        4.7557010000        3.4898050000
  O        -3.9037660000        2.7797510000        9.6244670000
  O         6.1566970000        4.4091270000        2.5052180000
  O        -1.3679750000        1.9936580000       10.1096280000
  O         7.0178010000        6.7271700000        2.9531850000
  O        -3.0562790000        0.2084610000       10.6096570000
  O         1.6596210000       -2.8373120000       10.6743830000
  O         2.9694580000        9.1219370000        2.9092790000
  O         2.5316240000       -0.5433780000       10.2080480000
  O         1.3225750000        7.3069720000        2.3988930000
  O         4.5751670000        5.0876310000        5.2443370000
  O        -1.8361440000       -1.0225280000        7.9235160000
  O         4.0663910000       -3.6100490000       11.9620950000
  O         1.7435140000       11.0064290000        1.1443500000
  O         4.7710260000       -0.7954980000       11.9564180000
  O        -0.4275040000        9.0940250000        1.0940980000
  O         0.0288670000       -2.2880590000        7.9912580000
  O         2.5742950000        6.1196160000        5.1177960000
  O         9.1994190000        6.4527850000        1.0832950000
  O        -4.7481140000        1.9889750000       11.9440290000
  O         8.5002540000        3.6724200000        1.1132920000
  O        -2.5429750000        3.8492400000       12.0152310000
  O         4.2691710000        6.7355740000        3.0196680000
  O        -0.1470930000       -0.4360620000       10.0170300000
  O         6.7480570000        5.6000860000        0.0715300000
  O         2.0742010000        8.5415910000       -0.0654600000
  S         1.1515357249       -2.5433809187        3.2989016112
  S         2.3705642842       -0.1510440204        4.3059379274
  F         2.2643555271       -2.6529301615        0.9087362529
  F         0.1263806313       -3.2153940417        0.9245105103
  F         0.6908157481       -1.0822049065        1.0721505484
  F         4.6406091735        1.2127323299        4.5823676270
  F         4.9137426501       -0.7626907606        3.6138747240
  F         4.1002422502        0.9553417973        2.4698072208
  O        -7.1620928025       12.3074281436        3.7763252891
  O        -2.7740093270      -11.1839929272       16.5498720628
  O         2.4896607459       -0.2384442741        5.7642391932
  O         1.4530322847        0.8376601761        3.7504347543
  N         2.3982132083       -1.6290072529        3.6472237259
  C         1.0537957851       -2.3509303497        1.4665776173
  C         4.1047550121        0.3499792666        3.6832574492
     139
 i =       17, E =     -1553.2103830778
 Ti        -2.8683350000        2.1154420000       11.2652140000
 Ti         7.8027880000        5.3832100000        1.8443910000
 Ti         1.3525720000       -1.6735000000        9.4171130000
 Ti         2.5117920000        7.5426520000        3.6484140000
 Ti         1.4446720000        9.1874180000        1.7519890000
 Ti         3.2594580000       -1.8642570000       11.3595300000
 Ti        -1.8697820000        0.4160240000        9.3661400000
 Ti         5.8159840000        5.6142840000        3.7032810000
  H         3.7468960000        1.6526260000        8.5834390000
  H        -0.0029370000       -4.2340410000        6.4782570000
  H         4.4316300000       11.0106120000        4.6504380000
  H        -2.5036940000        6.0280510000       11.0484600000
  H         8.7487370000        1.5073420000        2.1552500000
  H        -6.8015420000        1.2218930000       10.9036440000
  H        11.1142460000        7.5038380000        2.0290890000
  H         4.3727210000       -5.8620200000       10.9626530000
  H        -2.5891430000        8.4561810000        2.0957030000
  H         4.6569660000        3.2041470000        6.8269530000
  H        -0.0452240000        3.6702680000        8.4060300000
  H        -3.5685920000       -1.8281670000        6.3785400000
  H         1.9853270000        7.5711820000       -0.1261220000
  H         5.9273850000        5.0774030000        0.1545840000
  H         3.7614260000       -2.5066170000        5.8447260000
  H         0.7455600000        9.3142620000        7.2794310000
  H        -6.0599130000        3.6612130000        9.0374900000
  H        10.6412470000        3.3933790000        4.1321340000
  H        -3.7285870000        2.2987080000        5.6888700000
  H        -1.7039720000       10.9033860000        4.1249230000
  H         1.7334520000       12.3009450000        2.6095370000
  H         8.6679850000       -0.5170630000        3.3558310000
  H         4.6066800000        7.2974510000        2.2978250000
  H         0.2154870000        0.1346200000       10.7192460000
  H         7.4153320000        0.2186850000        9.7283660000
  H         5.9554960000       -0.3025340000       10.4832990000
  H         7.8286560000        4.6709870000        8.6325370000
  H         7.2376510000        5.0115380000        7.0177090000
  H         7.0981770000       -4.7499770000        9.5343200000
  H         5.7840300000       -3.6950290000       10.0001570000
  H         1.4114850000        1.9115480000        9.3560850000
  H         0.8637590000        5.2270400000        6.6485740000
  H         5.7410230000        9.0693330000        3.8453710000
  H        -8.0103750000        8.6099930000        4.7446230000
  C         8.4223250000        4.6591910000        4.7037060000
  C        -3.8533280000        2.3467180000        8.4238990000
  C         3.9615950000       -2.5926300000        8.4765240000
  C         0.5135400000        9.4433570000        4.6213200000
  C         9.3443360000        4.0851920000        5.6931050000
  C        -4.8119260000        2.9400260000        7.4529070000
  C         4.9173150000       -3.1727480000        7.5232700000
  C        -0.3926610000       10.0575610000        5.6268840000
  C         9.1010420000        4.1497630000        7.1009990000
  C        -4.5992560000        2.8293420000        6.0635380000
  C         6.0750720000       -3.8937710000        7.9690880000
  C        -1.5160550000       10.7924690000        5.1890900000
  C        -0.1248110000        9.8942340000        6.9800950000
  C         4.6574050000       -3.0476440000        6.1409150000
  C        10.4989470000        3.4266870000        5.2100540000
  C        -5.9326790000        3.5931240000        7.9586910000
  C         2.8136840000        4.3074110000        6.6395670000
  C         1.8021000000        2.5801680000        8.5909250000
  C         6.1614730000        9.7262760000        4.6051290000
  C        -1.7300840000       -2.9447200000        6.5282340000
  C         8.7151750000        1.5883300000        0.0112620000
  C         1.8390400000       13.1474290000        0.0885870000
  C        10.9967290000        7.4345870000       -0.1203400000
  C        -2.4072200000        8.5110540000       -0.0635070000
  C         3.3505170000        5.2244920000        5.6056060000
  C        -1.1450180000       -2.0335150000        7.5402480000
  C         8.5285440000        3.0375930000       -0.0090850000
  C         1.7960860000       11.7116510000        0.0497010000
  C         9.7214410000        6.7729680000       -0.0672300000
  C        -1.0200150000        8.9738490000       -0.0463320000
  C         1.4829060000        4.4426040000        7.0787380000
  C         3.1252220000        2.4368270000        8.1546130000
  C         5.4241200000       10.8275940000        5.0587470000
  C        -0.9969320000       -4.0572320000        6.0734360000
  C         8.7846520000        0.9195150000        1.2397800000
  C        -2.5081420000        6.6152490000       11.9630650000
  C        11.6489580000        7.7305070000        1.1103030000
  C        -7.3513660000        1.0220250000       11.8219320000
  C         7.4413710000        9.4696440000        5.1127230000
  C        -3.0183170000       -2.6945520000        6.0174810000
  C         3.6326370000        3.2980560000        7.1812080000
  C         0.9806210000        3.5787050000        8.0528890000
  C         7.3617660000        0.4895280000       11.7535480000
  C        -3.0892010000        8.2549460000        1.1524790000
  C         4.4380030000       -6.3885600000       11.9106760000
  C         1.8336000000       13.8971630000        1.3187970000
  N         1.9163670000       13.2991920000        2.5559680000
  N         6.7825160000        0.2881570000       10.5174260000
  N         8.0012830000        4.7573400000        7.6391270000
  N         6.4187750000       -4.0420780000        9.2844230000
  O         7.2346650000        5.0226370000        5.0766040000
  O        -3.0539240000        1.4237030000        8.0201130000
  O         4.3452240000       -2.4564070000        9.6957080000
  O         0.4260540000        9.8718970000        3.4226800000
  O         1.3189610000        8.5130790000        5.0022280000
  O         2.7767760000       -2.2647240000        8.0780870000
  O         8.8243980000        4.7557010000        3.4898050000
  O        -3.9037660000        2.7797510000        9.6244670000
  O         6.1566970000        4.4091270000        2.5052180000
  O        -1.3679750000        1.9936580000       10.1096280000
  O         7.0178010000        6.7271700000        2.9531850000
  O        -3.0562790000        0.2084610000       10.6096570000
  O         1.6596210000       -2.8373120000       10.6743830000
  O         2.9694580000        9.1219370000        2.9092790000
  O         2.5316240000       -0.5433780000       10.2080480000
  O         1.3225750000        7.3069720000        2.3988930000
  O         4.5751670000        5.0876310000        5.2443370000
  O        -1.8361440000       -1.0225280000        7.9235160000
  O         4.0663910000       -3.6100490000       11.9620950000
  O         1.7435140000       11.0064290000        1.1443500000
  O         4.7710260000       -0.7954980000       11.9564180000
  O        -0.4275040000        9.0940250000        1.0940980000
  O         0.0288670000       -2.2880590000        7.9912580000
  O         2.5742950000        6.1196160000        5.1177960000
  O         9.1994190000        6.4527850000        1.0832950000
  O        -4.7481140000        1.9889750000       11.9440290000
  O         8.5002540000        3.6724200000        1.1132920000
  O        -2.5429750000        3.8492400000       12.0152310000
  O         4.2691710000        6.7355740000        3.0196680000
  O        -0.1470930000       -0.4360620000       10.0170300000
  O         6.7480570000        5.6000860000        0.0715300000
  O         2.0742010000        8.5415910000       -0.0654600000
  S         1.0406687353       -2.4401373696        3.2919389329
  S         2.3362574089       -0.0841760366        4.2604651974
  F         2.2291894068       -2.6483290902        0.9176209761
  F         0.1051560175       -3.2334266602        0.9249417155
  F         0.6530125126       -1.1061774749        0.9703313671
  F         4.6441263499        1.2066623991        4.5839829386
  F         4.8965358485       -0.7544354695        3.6119704909
  F         4.1087347037        0.9515136926        2.4667708268
  O        -7.2605476146       12.4862480304        3.7103431361
  O        -2.9667934694      -11.0848777820       16.6236956419
  O         2.4313458261       -0.0932498495        5.7188155655
  O         1.4718875543        0.9021507894        3.6283827249
  N         2.3248416323       -1.5787965975        3.6643420391
  C         1.0072891766       -2.3396758057        1.4326779090
  C         4.0925949326        0.3478820818        3.6819135496
     139
 i =       18, E =     -1553.2105859943
 Ti        -2.8683350000        2.1154420000       11.2652140000
 Ti         7.8027880000        5.3832100000        1.8443910000
 Ti         1.3525720000       -1.6735000000        9.4171130000
 Ti         2.5117920000        7.5426520000        3.6484140000
 Ti         1.4446720000        9.1874180000        1.7519890000
 Ti         3.2594580000       -1.8642570000       11.3595300000
 Ti        -1.8697820000        0.4160240000        9.3661400000
 Ti         5.8159840000        5.6142840000        3.7032810000
  H         3.7468960000        1.6526260000        8.5834390000
  H        -0.0029370000       -4.2340410000        6.4782570000
  H         4.4316300000       11.0106120000        4.6504380000
  H        -2.5036940000        6.0280510000       11.0484600000
  H         8.7487370000        1.5073420000        2.1552500000
  H        -6.8015420000        1.2218930000       10.9036440000
  H        11.1142460000        7.5038380000        2.0290890000
  H         4.3727210000       -5.8620200000       10.9626530000
  H        -2.5891430000        8.4561810000        2.0957030000
  H         4.6569660000        3.2041470000        6.8269530000
  H        -0.0452240000        3.6702680000        8.4060300000
  H        -3.5685920000       -1.8281670000        6.3785400000
  H         1.9853270000        7.5711820000       -0.1261220000
  H         5.9273850000        5.0774030000        0.1545840000
  H         3.7614260000       -2.5066170000        5.8447260000
  H         0.7455600000        9.3142620000        7.2794310000
  H        -6.0599130000        3.6612130000        9.0374900000
  H        10.6412470000        3.3933790000        4.1321340000
  H        -3.7285870000        2.2987080000        5.6888700000
  H        -1.7039720000       10.9033860000        4.1249230000
  H         1.7334520000       12.3009450000        2.6095370000
  H         8.6679850000       -0.5170630000        3.3558310000
  H         4.6066800000        7.2974510000        2.2978250000
  H         0.2154870000        0.1346200000       10.7192460000
  H         7.4153320000        0.2186850000        9.7283660000
  H         5.9554960000       -0.3025340000       10.4832990000
  H         7.8286560000        4.6709870000        8.6325370000
  H         7.2376510000        5.0115380000        7.0177090000
  H         7.0981770000       -4.7499770000        9.5343200000
  H         5.7840300000       -3.6950290000       10.0001570000
  H         1.4114850000        1.9115480000        9.3560850000
  H         0.8637590000        5.2270400000        6.6485740000
  H         5.7410230000        9.0693330000        3.8453710000
  H        -8.0103750000        8.6099930000        4.7446230000
  C         8.4223250000        4.6591910000        4.7037060000
  C        -3.8533280000        2.3467180000        8.4238990000
  C         3.9615950000       -2.5926300000        8.4765240000
  C         0.5135400000        9.4433570000        4.6213200000
  C         9.3443360000        4.0851920000        5.6931050000
  C        -4.8119260000        2.9400260000        7.4529070000
  C         4.9173150000       -3.1727480000        7.5232700000
  C        -0.3926610000       10.0575610000        5.6268840000
  C         9.1010420000        4.1497630000        7.1009990000
  C        -4.5992560000        2.8293420000        6.0635380000
  C         6.0750720000       -3.8937710000        7.9690880000
  C        -1.5160550000       10.7924690000        5.1890900000
  C        -0.1248110000        9.8942340000        6.9800950000
  C         4.6574050000       -3.0476440000        6.1409150000
  C        10.4989470000        3.4266870000        5.2100540000
  C        -5.9326790000        3.5931240000        7.9586910000
  C         2.8136840000        4.3074110000        6.6395670000
  C         1.8021000000        2.5801680000        8.5909250000
  C         6.1614730000        9.7262760000        4.6051290000
  C        -1.7300840000       -2.9447200000        6.5282340000
  C         8.7151750000        1.5883300000        0.0112620000
  C         1.8390400000       13.1474290000        0.0885870000
  C        10.9967290000        7.4345870000       -0.1203400000
  C        -2.4072200000        8.5110540000       -0.0635070000
  C         3.3505170000        5.2244920000        5.6056060000
  C        -1.1450180000       -2.0335150000        7.5402480000
  C         8.5285440000        3.0375930000       -0.0090850000
  C         1.7960860000       11.7116510000        0.0497010000
  C         9.7214410000        6.7729680000       -0.0672300000
  C        -1.0200150000        8.9738490000       -0.0463320000
  C         1.4829060000        4.4426040000        7.0787380000
  C         3.1252220000        2.4368270000        8.1546130000
  C         5.4241200000       10.8275940000        5.0587470000
  C        -0.9969320000       -4.0572320000        6.0734360000
  C         8.7846520000        0.9195150000        1.2397800000
  C        -2.5081420000        6.6152490000       11.9630650000
  C        11.6489580000        7.7305070000        1.1103030000
  C        -7.3513660000        1.0220250000       11.8219320000
  C         7.4413710000        9.4696440000        5.1127230000
  C        -3.0183170000       -2.6945520000        6.0174810000
  C         3.6326370000        3.2980560000        7.1812080000
  C         0.9806210000        3.5787050000        8.0528890000
  C         7.3617660000        0.4895280000       11.7535480000
  C        -3.0892010000        8.2549460000        1.1524790000
  C         4.4380030000       -6.3885600000       11.9106760000
  C         1.8336000000       13.8971630000        1.3187970000
  N         1.9163670000       13.2991920000        2.5559680000
  N         6.7825160000        0.2881570000       10.5174260000
  N         8.0012830000        4.7573400000        7.6391270000
  N         6.4187750000       -4.0420780000        9.2844230000
  O         7.2346650000        5.0226370000        5.0766040000
  O        -3.0539240000        1.4237030000        8.0201130000
  O         4.3452240000       -2.4564070000        9.6957080000
  O         0.4260540000        9.8718970000        3.4226800000
  O         1.3189610000        8.5130790000        5.0022280000
  O         2.7767760000       -2.2647240000        8.0780870000
  O         8.8243980000        4.7557010000        3.4898050000
  O        -3.9037660000        2.7797510000        9.6244670000
  O         6.1566970000        4.4091270000        2.5052180000
  O        -1.3679750000        1.9936580000       10.1096280000
  O         7.0178010000        6.7271700000        2.9531850000
  O        -3.0562790000        0.2084610000       10.6096570000
  O         1.6596210000       -2.8373120000       10.6743830000
  O         2.9694580000        9.1219370000        2.9092790000
  O         2.5316240000       -0.5433780000       10.2080480000
  O         1.3225750000        7.3069720000        2.3988930000
  O         4.5751670000        5.0876310000        5.2443370000
  O        -1.8361440000       -1.0225280000        7.9235160000
  O         4.0663910000       -3.6100490000       11.9620950000
  O         1.7435140000       11.0064290000        1.1443500000
  O         4.7710260000       -0.7954980000       11.9564180000
  O        -0.4275040000        9.0940250000        1.0940980000
  O         0.0288670000       -2.2880590000        7.9912580000
  O         2.5742950000        6.1196160000        5.1177960000
  O         9.1994190000        6.4527850000        1.0832950000
  O        -4.7481140000        1.9889750000       11.9440290000
  O         8.5002540000        3.6724200000        1.1132920000
  O        -2.5429750000        3.8492400000       12.0152310000
  O         4.2691710000        6.7355740000        3.0196680000
  O        -0.1470930000       -0.4360620000       10.0170300000
  O         6.7480570000        5.6000860000        0.0715300000
  O         2.0742010000        8.5415910000       -0.0654600000
  S         1.0401287607       -2.4410166904        3.2929194263
  S         2.3386140333       -0.0854026893        4.2605238594
  F         2.2327386638       -2.6468430458        0.9181165725
  F         0.1039923978       -3.2379481217        0.9290570706
  F         0.6504996172       -1.1104375862        0.9731547791
  F         4.6456540234        1.2047548808        4.5858871833
  F         4.9086988015       -0.7503932963        3.6119024344
  F         4.1078320792        0.9488586580        2.4680778418
  O        -7.2627905882       12.4825677671        3.7147752748
  O        -2.9640430764      -11.0870389738       16.6222586072
  O         2.4329978645       -0.0920948611        5.7188619999
  O         1.4728877029        0.8993414067        3.6263860965
  N         2.3255015659       -1.5789554069        3.6641530673
  C         1.0082486395       -2.3432730205        1.4313885458
  C         4.0955471189        0.3442674176        3.6832497000
     139
 i =       19, E =     -1553.2035154152
 Ti        -2.8683350000        2.1154420000       11.2652140000
 Ti         7.8027880000        5.3832100000        1.8443910000
 Ti         1.3525720000       -1.6735000000        9.4171130000
 Ti         2.5117920000        7.5426520000        3.6484140000
 Ti         1.4446720000        9.1874180000        1.7519890000
 Ti         3.2594580000       -1.8642570000       11.3595300000
 Ti        -1.8697820000        0.4160240000        9.3661400000
 Ti         5.8159840000        5.6142840000        3.7032810000
  H         3.7468960000        1.6526260000        8.5834390000
  H        -0.0029370000       -4.2340410000        6.4782570000
  H         4.4316300000       11.0106120000        4.6504380000
  H        -2.5036940000        6.0280510000       11.0484600000
  H         8.7487370000        1.5073420000        2.1552500000
  H        -6.8015420000        1.2218930000       10.9036440000
  H        11.1142460000        7.5038380000        2.0290890000
  H         4.3727210000       -5.8620200000       10.9626530000
  H        -2.5891430000        8.4561810000        2.0957030000
  H         4.6569660000        3.2041470000        6.8269530000
  H        -0.0452240000        3.6702680000        8.4060300000
  H        -3.5685920000       -1.8281670000        6.3785400000
  H         1.9853270000        7.5711820000       -0.1261220000
  H         5.9273850000        5.0774030000        0.1545840000
  H         3.7614260000       -2.5066170000        5.8447260000
  H         0.7455600000        9.3142620000        7.2794310000
  H        -6.0599130000        3.6612130000        9.0374900000
  H        10.6412470000        3.3933790000        4.1321340000
  H        -3.7285870000        2.2987080000        5.6888700000
  H        -1.7039720000       10.9033860000        4.1249230000
  H         1.7334520000       12.3009450000        2.6095370000
  H         8.6679850000       -0.5170630000        3.3558310000
  H         4.6066800000        7.2974510000        2.2978250000
  H         0.2154870000        0.1346200000       10.7192460000
  H         7.4153320000        0.2186850000        9.7283660000
  H         5.9554960000       -0.3025340000       10.4832990000
  H         7.8286560000        4.6709870000        8.6325370000
  H         7.2376510000        5.0115380000        7.0177090000
  H         7.0981770000       -4.7499770000        9.5343200000
  H         5.7840300000       -3.6950290000       10.0001570000
  H         1.4114850000        1.9115480000        9.3560850000
  H         0.8637590000        5.2270400000        6.6485740000
  H         5.7410230000        9.0693330000        3.8453710000
  H        -8.0103750000        8.6099930000        4.7446230000
  C         8.4223250000        4.6591910000        4.7037060000
  C        -3.8533280000        2.3467180000        8.4238990000
  C         3.9615950000       -2.5926300000        8.4765240000
  C         0.5135400000        9.4433570000        4.6213200000
  C         9.3443360000        4.0851920000        5.6931050000
  C        -4.8119260000        2.9400260000        7.4529070000
  C         4.9173150000       -3.1727480000        7.5232700000
  C        -0.3926610000       10.0575610000        5.6268840000
  C         9.1010420000        4.1497630000        7.1009990000
  C        -4.5992560000        2.8293420000        6.0635380000
  C         6.0750720000       -3.8937710000        7.9690880000
  C        -1.5160550000       10.7924690000        5.1890900000
  C        -0.1248110000        9.8942340000        6.9800950000
  C         4.6574050000       -3.0476440000        6.1409150000
  C        10.4989470000        3.4266870000        5.2100540000
  C        -5.9326790000        3.5931240000        7.9586910000
  C         2.8136840000        4.3074110000        6.6395670000
  C         1.8021000000        2.5801680000        8.5909250000
  C         6.1614730000        9.7262760000        4.6051290000
  C        -1.7300840000       -2.9447200000        6.5282340000
  C         8.7151750000        1.5883300000        0.0112620000
  C         1.8390400000       13.1474290000        0.0885870000
  C        10.9967290000        7.4345870000       -0.1203400000
  C        -2.4072200000        8.5110540000       -0.0635070000
  C         3.3505170000        5.2244920000        5.6056060000
  C        -1.1450180000       -2.0335150000        7.5402480000
  C         8.5285440000        3.0375930000       -0.0090850000
  C         1.7960860000       11.7116510000        0.0497010000
  C         9.7214410000        6.7729680000       -0.0672300000
  C        -1.0200150000        8.9738490000       -0.0463320000
  C         1.4829060000        4.4426040000        7.0787380000
  C         3.1252220000        2.4368270000        8.1546130000
  C         5.4241200000       10.8275940000        5.0587470000
  C        -0.9969320000       -4.0572320000        6.0734360000
  C         8.7846520000        0.9195150000        1.2397800000
  C        -2.5081420000        6.6152490000       11.9630650000
  C        11.6489580000        7.7305070000        1.1103030000
  C        -7.3513660000        1.0220250000       11.8219320000
  C         7.4413710000        9.4696440000        5.1127230000
  C        -3.0183170000       -2.6945520000        6.0174810000
  C         3.6326370000        3.2980560000        7.1812080000
  C         0.9806210000        3.5787050000        8.0528890000
  C         7.3617660000        0.4895280000       11.7535480000
  C        -3.0892010000        8.2549460000        1.1524790000
  C         4.4380030000       -6.3885600000       11.9106760000
  C         1.8336000000       13.8971630000        1.3187970000
  N         1.9163670000       13.2991920000        2.5559680000
  N         6.7825160000        0.2881570000       10.5174260000
  N         8.0012830000        4.7573400000        7.6391270000
  N         6.4187750000       -4.0420780000        9.2844230000
  O         7.2346650000        5.0226370000        5.0766040000
  O        -3.0539240000        1.4237030000        8.0201130000
  O         4.3452240000       -2.4564070000        9.6957080000
  O         0.4260540000        9.8718970000        3.4226800000
  O         1.3189610000        8.5130790000        5.0022280000
  O         2.7767760000       -2.2647240000        8.0780870000
  O         8.8243980000        4.7557010000        3.4898050000
  O        -3.9037660000        2.7797510000        9.6244670000
  O         6.1566970000        4.4091270000        2.5052180000
  O        -1.3679750000        1.9936580000       10.1096280000
  O         7.0178010000        6.7271700000        2.9531850000
  O        -3.0562790000        0.2084610000       10.6096570000
  O         1.6596210000       -2.8373120000       10.6743830000
  O         2.9694580000        9.1219370000        2.9092790000
  O         2.5316240000       -0.5433780000       10.2080480000
  O         1.3225750000        7.3069720000        2.3988930000
  O         4.5751670000        5.0876310000        5.2443370000
  O        -1.8361440000       -1.0225280000        7.9235160000
  O         4.0663910000       -3.6100490000       11.9620950000
  O         1.7435140000       11.0064290000        1.1443500000
  O         4.7710260000       -0.7954980000       11.9564180000
  O        -0.4275040000        9.0940250000        1.0940980000
  O         0.0288670000       -2.2880590000        7.9912580000
  O         2.5742950000        6.1196160000        5.1177960000
  O         9.1994190000        6.4527850000        1.0832950000
  O        -4.7481140000        1.9889750000       11.9440290000
  O         8.5002540000        3.6724200000        1.1132920000
  O        -2.5429750000        3.8492400000       12.0152310000
  O         4.2691710000        6.7355740000        3.0196680000
  O        -0.1470930000       -0.4360620000       10.0170300000
  O         6.7480570000        5.6000860000        0.0715300000
  O         2.0742010000        8.5415910000       -0.0654600000
  S         1.1005135357       -2.5286385358        3.3103151399
  S         2.3940447668       -0.1584136465        4.2808315535
  F         2.3063361341       -2.6268197653        0.9246977309
  F         0.1093097382       -3.2703990723        0.9532185089
  F         0.6302673196       -1.1525352293        1.0997812424
  F         4.6612585723        1.1883042093        4.6094343104
  F         5.1563823844       -0.6708309421        3.6099116060
  F         4.0746767125        0.9123869869        2.4999387632
  O        -7.2276057738       12.3194836861        3.8138775199
  O        -2.8208455225      -11.1830601498       16.5754846346
  O         2.5004028922       -0.1640237557        5.7382524835
  O         1.4885470606        0.8147619959        3.6623405639
  N         2.3835580376       -1.6242058817        3.6470419189
  C         1.0509981303       -2.3984502989        1.4390980548
  C         4.1563433345        0.2826154706        3.7086324207
     139
 i =       20, E =     -1553.2107002285
 Ti        -2.8683350000        2.1154420000       11.2652140000
 Ti         7.8027880000        5.3832100000        1.8443910000
 Ti         1.3525720000       -1.6735000000        9.4171130000
 Ti         2.5117920000        7.5426520000        3.6484140000
 Ti         1.4446720000        9.1874180000        1.7519890000
 Ti         3.2594580000       -1.8642570000       11.3595300000
 Ti        -1.8697820000        0.4160240000        9.3661400000
 Ti         5.8159840000        5.6142840000        3.7032810000
  H         3.7468960000        1.6526260000        8.5834390000
  H        -0.0029370000       -4.2340410000        6.4782570000
  H         4.4316300000       11.0106120000        4.6504380000
  H        -2.5036940000        6.0280510000       11.0484600000
  H         8.7487370000        1.5073420000        2.1552500000
  H        -6.8015420000        1.2218930000       10.9036440000
  H        11.1142460000        7.5038380000        2.0290890000
  H         4.3727210000       -5.8620200000       10.9626530000
  H        -2.5891430000        8.4561810000        2.0957030000
  H         4.6569660000        3.2041470000        6.8269530000
  H        -0.0452240000        3.6702680000        8.4060300000
  H        -3.5685920000       -1.8281670000        6.3785400000
  H         1.9853270000        7.5711820000       -0.1261220000
  H         5.9273850000        5.0774030000        0.1545840000
  H         3.7614260000       -2.5066170000        5.8447260000
  H         0.7455600000        9.3142620000        7.2794310000
  H        -6.0599130000        3.6612130000        9.0374900000
  H        10.6412470000        3.3933790000        4.1321340000
  H        -3.7285870000        2.2987080000        5.6888700000
  H        -1.7039720000       10.9033860000        4.1249230000
  H         1.7334520000       12.3009450000        2.6095370000
  H         8.6679850000       -0.5170630000        3.3558310000
  H         4.6066800000        7.2974510000        2.2978250000
  H         0.2154870000        0.1346200000       10.7192460000
  H         7.4153320000        0.2186850000        9.7283660000
  H         5.9554960000       -0.3025340000       10.4832990000
  H         7.8286560000        4.6709870000        8.6325370000
  H         7.2376510000        5.0115380000        7.0177090000
  H         7.0981770000       -4.7499770000        9.5343200000
  H         5.7840300000       -3.6950290000       10.0001570000
  H         1.4114850000        1.9115480000        9.3560850000
  H         0.8637590000        5.2270400000        6.6485740000
  H         5.7410230000        9.0693330000        3.8453710000
  H        -8.0103750000        8.6099930000        4.7446230000
  C         8.4223250000        4.6591910000        4.7037060000
  C        -3.8533280000        2.3467180000        8.4238990000
  C         3.9615950000       -2.5926300000        8.4765240000
  C         0.5135400000        9.4433570000        4.6213200000
  C         9.3443360000        4.0851920000        5.6931050000
  C        -4.8119260000        2.9400260000        7.4529070000
  C         4.9173150000       -3.1727480000        7.5232700000
  C        -0.3926610000       10.0575610000        5.6268840000
  C         9.1010420000        4.1497630000        7.1009990000
  C        -4.5992560000        2.8293420000        6.0635380000
  C         6.0750720000       -3.8937710000        7.9690880000
  C        -1.5160550000       10.7924690000        5.1890900000
  C        -0.1248110000        9.8942340000        6.9800950000
  C         4.6574050000       -3.0476440000        6.1409150000
  C        10.4989470000        3.4266870000        5.2100540000
  C        -5.9326790000        3.5931240000        7.9586910000
  C         2.8136840000        4.3074110000        6.6395670000
  C         1.8021000000        2.5801680000        8.5909250000
  C         6.1614730000        9.7262760000        4.6051290000
  C        -1.7300840000       -2.9447200000        6.5282340000
  C         8.7151750000        1.5883300000        0.0112620000
  C         1.8390400000       13.1474290000        0.0885870000
  C        10.9967290000        7.4345870000       -0.1203400000
  C        -2.4072200000        8.5110540000       -0.0635070000
  C         3.3505170000        5.2244920000        5.6056060000
  C        -1.1450180000       -2.0335150000        7.5402480000
  C         8.5285440000        3.0375930000       -0.0090850000
  C         1.7960860000       11.7116510000        0.0497010000
  C         9.7214410000        6.7729680000       -0.0672300000
  C        -1.0200150000        8.9738490000       -0.0463320000
  C         1.4829060000        4.4426040000        7.0787380000
  C         3.1252220000        2.4368270000        8.1546130000
  C         5.4241200000       10.8275940000        5.0587470000
  C        -0.9969320000       -4.0572320000        6.0734360000
  C         8.7846520000        0.9195150000        1.2397800000
  C        -2.5081420000        6.6152490000       11.9630650000
  C        11.6489580000        7.7305070000        1.1103030000
  C        -7.3513660000        1.0220250000       11.8219320000
  C         7.4413710000        9.4696440000        5.1127230000
  C        -3.0183170000       -2.6945520000        6.0174810000
  C         3.6326370000        3.2980560000        7.1812080000
  C         0.9806210000        3.5787050000        8.0528890000
  C         7.3617660000        0.4895280000       11.7535480000
  C        -3.0892010000        8.2549460000        1.1524790000
  C         4.4380030000       -6.3885600000       11.9106760000
  C         1.8336000000       13.8971630000        1.3187970000
  N         1.9163670000       13.2991920000        2.5559680000
  N         6.7825160000        0.2881570000       10.5174260000
  N         8.0012830000        4.7573400000        7.6391270000
  N         6.4187750000       -4.0420780000        9.2844230000
  O         7.2346650000        5.0226370000        5.0766040000
  O        -3.0539240000        1.4237030000        8.0201130000
  O         4.3452240000       -2.4564070000        9.6957080000
  O         0.4260540000        9.8718970000        3.4226800000
  O         1.3189610000        8.5130790000        5.0022280000
  O         2.7767760000       -2.2647240000        8.0780870000
  O         8.8243980000        4.7557010000        3.4898050000
  O        -3.9037660000        2.7797510000        9.6244670000
  O         6.1566970000        4.4091270000        2.5052180000
  O        -1.3679750000        1.9936580000       10.1096280000
  O         7.0178010000        6.7271700000        2.9531850000
  O        -3.0562790000        0.2084610000       10.6096570000
  O         1.6596210000       -2.8373120000       10.6743830000
  O         2.9694580000        9.1219370000        2.9092790000
  O         2.5316240000       -0.5433780000       10.2080480000
  O         1.3225750000        7.3069720000        2.3988930000
  O         4.5751670000        5.0876310000        5.2443370000
  O        -1.8361440000       -1.0225280000        7.9235160000
  O         4.0663910000       -3.6100490000       11.9620950000
  O         1.7435140000       11.0064290000        1.1443500000
  O         4.7710260000       -0.7954980000       11.9564180000
  O        -0.4275040000        9.0940250000        1.0940980000
  O         0.0288670000       -2.2880590000        7.9912580000
  O         2.5742950000        6.1196160000        5.1177960000
  O         9.1994190000        6.4527850000        1.0832950000
  O        -4.7481140000        1.9889750000       11.9440290000
  O         8.5002540000        3.6724200000        1.1132920000
  O        -2.5429750000        3.8492400000       12.0152310000
  O         4.2691710000        6.7355740000        3.0196680000
  O        -0.1470930000       -0.4360620000       10.0170300000
  O         6.7480570000        5.6000860000        0.0715300000
  O         2.0742010000        8.5415910000       -0.0654600000
  S         1.0529154950       -2.4630767910        3.2972737114
  S         2.3517139970       -0.1069058576        4.2632473009
  F         2.2454296129       -2.6427952227        0.9176144578
  F         0.1079027564       -3.2485410166        0.9367397872
  F         0.6488338032       -1.1167422072        1.0045897111
  F         4.6473507346        1.2044706944        4.5946170831
  F         4.9627834589       -0.7321571811        3.6108770963
  F         4.1037308661        0.9364991673        2.4755033547
  O        -7.2510016909       12.4539044015        3.7304741721
  O        -2.9441603069      -11.1091239863       16.6222988736
  O         2.4443189551       -0.1064130648        5.7213373740
  O         1.4850594345        0.8782572025        3.6273396757
  N         2.3409245010       -1.5942054659        3.6588503584
  C         1.0154344071       -2.3537624555        1.4340957124
  C         4.1121504962        0.3315986039        3.6913770285
     139
 i =       21, E =     -1553.2109071139
 Ti        -2.8683350000        2.1154420000       11.2652140000
 Ti         7.8027880000        5.3832100000        1.8443910000
 Ti         1.3525720000       -1.6735000000        9.4171130000
 Ti         2.5117920000        7.5426520000        3.6484140000
 Ti         1.4446720000        9.1874180000        1.7519890000
 Ti         3.2594580000       -1.8642570000       11.3595300000
 Ti        -1.8697820000        0.4160240000        9.3661400000
 Ti         5.8159840000        5.6142840000        3.7032810000
  H         3.7468960000        1.6526260000        8.5834390000
  H        -0.0029370000       -4.2340410000        6.4782570000
  H         4.4316300000       11.0106120000        4.6504380000
  H        -2.5036940000        6.0280510000       11.0484600000
  H         8.7487370000        1.5073420000        2.1552500000
  H        -6.8015420000        1.2218930000       10.9036440000
  H        11.1142460000        7.5038380000        2.0290890000
  H         4.3727210000       -5.8620200000       10.9626530000
  H        -2.5891430000        8.4561810000        2.0957030000
  H         4.6569660000        3.2041470000        6.8269530000
  H        -0.0452240000        3.6702680000        8.4060300000
  H        -3.5685920000       -1.8281670000        6.3785400000
  H         1.9853270000        7.5711820000       -0.1261220000
  H         5.9273850000        5.0774030000        0.1545840000
  H         3.7614260000       -2.5066170000        5.8447260000
  H         0.7455600000        9.3142620000        7.2794310000
  H        -6.0599130000        3.6612130000        9.0374900000
  H        10.6412470000        3.3933790000        4.1321340000
  H        -3.7285870000        2.2987080000        5.6888700000
  H        -1.7039720000       10.9033860000        4.1249230000
  H         1.7334520000       12.3009450000        2.6095370000
  H         8.6679850000       -0.5170630000        3.3558310000
  H         4.6066800000        7.2974510000        2.2978250000
  H         0.2154870000        0.1346200000       10.7192460000
  H         7.4153320000        0.2186850000        9.7283660000
  H         5.9554960000       -0.3025340000       10.4832990000
  H         7.8286560000        4.6709870000        8.6325370000
  H         7.2376510000        5.0115380000        7.0177090000
  H         7.0981770000       -4.7499770000        9.5343200000
  H         5.7840300000       -3.6950290000       10.0001570000
  H         1.4114850000        1.9115480000        9.3560850000
  H         0.8637590000        5.2270400000        6.6485740000
  H         5.7410230000        9.0693330000        3.8453710000
  H        -8.0103750000        8.6099930000        4.7446230000
  C         8.4223250000        4.6591910000        4.7037060000
  C        -3.8533280000        2.3467180000        8.4238990000
  C         3.9615950000       -2.5926300000        8.4765240000
  C         0.5135400000        9.4433570000        4.6213200000
  C         9.3443360000        4.0851920000        5.6931050000
  C        -4.8119260000        2.9400260000        7.4529070000
  C         4.9173150000       -3.1727480000        7.5232700000
  C        -0.3926610000       10.0575610000        5.6268840000
  C         9.1010420000        4.1497630000        7.1009990000
  C        -4.5992560000        2.8293420000        6.0635380000
  C         6.0750720000       -3.8937710000        7.9690880000
  C        -1.5160550000       10.7924690000        5.1890900000
  C        -0.1248110000        9.8942340000        6.9800950000
  C         4.6574050000       -3.0476440000        6.1409150000
  C        10.4989470000        3.4266870000        5.2100540000
  C        -5.9326790000        3.5931240000        7.9586910000
  C         2.8136840000        4.3074110000        6.6395670000
  C         1.8021000000        2.5801680000        8.5909250000
  C         6.1614730000        9.7262760000        4.6051290000
  C        -1.7300840000       -2.9447200000        6.5282340000
  C         8.7151750000        1.5883300000        0.0112620000
  C         1.8390400000       13.1474290000        0.0885870000
  C        10.9967290000        7.4345870000       -0.1203400000
  C        -2.4072200000        8.5110540000       -0.0635070000
  C         3.3505170000        5.2244920000        5.6056060000
  C        -1.1450180000       -2.0335150000        7.5402480000
  C         8.5285440000        3.0375930000       -0.0090850000
  C         1.7960860000       11.7116510000        0.0497010000
  C         9.7214410000        6.7729680000       -0.0672300000
  C        -1.0200150000        8.9738490000       -0.0463320000
  C         1.4829060000        4.4426040000        7.0787380000
  C         3.1252220000        2.4368270000        8.1546130000
  C         5.4241200000       10.8275940000        5.0587470000
  C        -0.9969320000       -4.0572320000        6.0734360000
  C         8.7846520000        0.9195150000        1.2397800000
  C        -2.5081420000        6.6152490000       11.9630650000
  C        11.6489580000        7.7305070000        1.1103030000
  C        -7.3513660000        1.0220250000       11.8219320000
  C         7.4413710000        9.4696440000        5.1127230000
  C        -3.0183170000       -2.6945520000        6.0174810000
  C         3.6326370000        3.2980560000        7.1812080000
  C         0.9806210000        3.5787050000        8.0528890000
  C         7.3617660000        0.4895280000       11.7535480000
  C        -3.0892010000        8.2549460000        1.1524790000
  C         4.4380030000       -6.3885600000       11.9106760000
  C         1.8336000000       13.8971630000        1.3187970000
  N         1.9163670000       13.2991920000        2.5559680000
  N         6.7825160000        0.2881570000       10.5174260000
  N         8.0012830000        4.7573400000        7.6391270000
  N         6.4187750000       -4.0420780000        9.2844230000
  O         7.2346650000        5.0226370000        5.0766040000
  O        -3.0539240000        1.4237030000        8.0201130000
  O         4.3452240000       -2.4564070000        9.6957080000
  O         0.4260540000        9.8718970000        3.4226800000
  O         1.3189610000        8.5130790000        5.0022280000
  O         2.7767760000       -2.2647240000        8.0780870000
  O         8.8243980000        4.7557010000        3.4898050000
  O        -3.9037660000        2.7797510000        9.6244670000
  O         6.1566970000        4.4091270000        2.5052180000
  O        -1.3679750000        1.9936580000       10.1096280000
  O         7.0178010000        6.7271700000        2.9531850000
  O        -3.0562790000        0.2084610000       10.6096570000
  O         1.6596210000       -2.8373120000       10.6743830000
  O         2.9694580000        9.1219370000        2.9092790000
  O         2.5316240000       -0.5433780000       10.2080480000
  O         1.3225750000        7.3069720000        2.3988930000
  O         4.5751670000        5.0876310000        5.2443370000
  O        -1.8361440000       -1.0225280000        7.9235160000
  O         4.0663910000       -3.6100490000       11.9620950000
  O         1.7435140000       11.0064290000        1.1443500000
  O         4.7710260000       -0.7954980000       11.9564180000
  O        -0.4275040000        9.0940250000        1.0940980000
  O         0.0288670000       -2.2880590000        7.9912580000
  O         2.5742950000        6.1196160000        5.1177960000
  O         9.1994190000        6.4527850000        1.0832950000
  O        -4.7481140000        1.9889750000       11.9440290000
  O         8.5002540000        3.6724200000        1.1132920000
  O        -2.5429750000        3.8492400000       12.0152310000
  O         4.2691710000        6.7355740000        3.0196680000
  O        -0.1470930000       -0.4360620000       10.0170300000
  O         6.7480570000        5.6000860000        0.0715300000
  O         2.0742010000        8.5415910000       -0.0654600000
  S         1.0780542830       -2.4827807314        3.3032246964
  S         2.3596874395       -0.1186734442        4.2745704424
  F         2.2432255890       -2.6421876681        0.9163954146
  F         0.1090728282       -3.2381376775        0.9296261135
  F         0.6544653765       -1.1141371470        1.0159258578
  F         4.6498159430        1.2067424977        4.5887633656
  F         4.9504326617       -0.7374967674        3.6181796896
  F         4.1049496207        0.9387966405        2.4762402666
  O        -7.2309916511       12.4116518587        3.7537670977
  O        -2.8976043079      -11.1288967434       16.6094093915
  O         2.4667265408       -0.1313969522        5.7327795632
  O         1.4826129139        0.8659971246        3.6514877212
  N         2.3582666557       -1.6038471230        3.6648413808
  C         1.0183728812       -2.3547887528        1.4420072301
  C         4.1101357594        0.3333092857        3.6915924854
     139
 i =       22, E =     -1553.2109391939
 Ti        -2.8683350000        2.1154420000       11.2652140000
 Ti         7.8027880000        5.3832100000        1.8443910000
 Ti         1.3525720000       -1.6735000000        9.4171130000
 Ti         2.5117920000        7.5426520000        3.6484140000
 Ti         1.4446720000        9.1874180000        1.7519890000
 Ti         3.2594580000       -1.8642570000       11.3595300000
 Ti        -1.8697820000        0.4160240000        9.3661400000
 Ti         5.8159840000        5.6142840000        3.7032810000
  H         3.7468960000        1.6526260000        8.5834390000
  H        -0.0029370000       -4.2340410000        6.4782570000
  H         4.4316300000       11.0106120000        4.6504380000
  H        -2.5036940000        6.0280510000       11.0484600000
  H         8.7487370000        1.5073420000        2.1552500000
  H        -6.8015420000        1.2218930000       10.9036440000
  H        11.1142460000        7.5038380000        2.0290890000
  H         4.3727210000       -5.8620200000       10.9626530000
  H        -2.5891430000        8.4561810000        2.0957030000
  H         4.6569660000        3.2041470000        6.8269530000
  H        -0.0452240000        3.6702680000        8.4060300000
  H        -3.5685920000       -1.8281670000        6.3785400000
  H         1.9853270000        7.5711820000       -0.1261220000
  H         5.9273850000        5.0774030000        0.1545840000
  H         3.7614260000       -2.5066170000        5.8447260000
  H         0.7455600000        9.3142620000        7.2794310000
  H        -6.0599130000        3.6612130000        9.0374900000
  H        10.6412470000        3.3933790000        4.1321340000
  H        -3.7285870000        2.2987080000        5.6888700000
  H        -1.7039720000       10.9033860000        4.1249230000
  H         1.7334520000       12.3009450000        2.6095370000
  H         8.6679850000       -0.5170630000        3.3558310000
  H         4.6066800000        7.2974510000        2.2978250000
  H         0.2154870000        0.1346200000       10.7192460000
  H         7.4153320000        0.2186850000        9.7283660000
  H         5.9554960000       -0.3025340000       10.4832990000
  H         7.8286560000        4.6709870000        8.6325370000
  H         7.2376510000        5.0115380000        7.0177090000
  H         7.0981770000       -4.7499770000        9.5343200000
  H         5.7840300000       -3.6950290000       10.0001570000
  H         1.4114850000        1.9115480000        9.3560850000
  H         0.8637590000        5.2270400000        6.6485740000
  H         5.7410230000        9.0693330000        3.8453710000
  H        -8.0103750000        8.6099930000        4.7446230000
  C         8.4223250000        4.6591910000        4.7037060000
  C        -3.8533280000        2.3467180000        8.4238990000
  C         3.9615950000       -2.5926300000        8.4765240000
  C         0.5135400000        9.4433570000        4.6213200000
  C         9.3443360000        4.0851920000        5.6931050000
  C        -4.8119260000        2.9400260000        7.4529070000
  C         4.9173150000       -3.1727480000        7.5232700000
  C        -0.3926610000       10.0575610000        5.6268840000
  C         9.1010420000        4.1497630000        7.1009990000
  C        -4.5992560000        2.8293420000        6.0635380000
  C         6.0750720000       -3.8937710000        7.9690880000
  C        -1.5160550000       10.7924690000        5.1890900000
  C        -0.1248110000        9.8942340000        6.9800950000
  C         4.6574050000       -3.0476440000        6.1409150000
  C        10.4989470000        3.4266870000        5.2100540000
  C        -5.9326790000        3.5931240000        7.9586910000
  C         2.8136840000        4.3074110000        6.6395670000
  C         1.8021000000        2.5801680000        8.5909250000
  C         6.1614730000        9.7262760000        4.6051290000
  C        -1.7300840000       -2.9447200000        6.5282340000
  C         8.7151750000        1.5883300000        0.0112620000
  C         1.8390400000       13.1474290000        0.0885870000
  C        10.9967290000        7.4345870000       -0.1203400000
  C        -2.4072200000        8.5110540000       -0.0635070000
  C         3.3505170000        5.2244920000        5.6056060000
  C        -1.1450180000       -2.0335150000        7.5402480000
  C         8.5285440000        3.0375930000       -0.0090850000
  C         1.7960860000       11.7116510000        0.0497010000
  C         9.7214410000        6.7729680000       -0.0672300000
  C        -1.0200150000        8.9738490000       -0.0463320000
  C         1.4829060000        4.4426040000        7.0787380000
  C         3.1252220000        2.4368270000        8.1546130000
  C         5.4241200000       10.8275940000        5.0587470000
  C        -0.9969320000       -4.0572320000        6.0734360000
  C         8.7846520000        0.9195150000        1.2397800000
  C        -2.5081420000        6.6152490000       11.9630650000
  C        11.6489580000        7.7305070000        1.1103030000
  C        -7.3513660000        1.0220250000       11.8219320000
  C         7.4413710000        9.4696440000        5.1127230000
  C        -3.0183170000       -2.6945520000        6.0174810000
  C         3.6326370000        3.2980560000        7.1812080000
  C         0.9806210000        3.5787050000        8.0528890000
  C         7.3617660000        0.4895280000       11.7535480000
  C        -3.0892010000        8.2549460000        1.1524790000
  C         4.4380030000       -6.3885600000       11.9106760000
  C         1.8336000000       13.8971630000        1.3187970000
  N         1.9163670000       13.2991920000        2.5559680000
  N         6.7825160000        0.2881570000       10.5174260000
  N         8.0012830000        4.7573400000        7.6391270000
  N         6.4187750000       -4.0420780000        9.2844230000
  O         7.2346650000        5.0226370000        5.0766040000
  O        -3.0539240000        1.4237030000        8.0201130000
  O         4.3452240000       -2.4564070000        9.6957080000
  O         0.4260540000        9.8718970000        3.4226800000
  O         1.3189610000        8.5130790000        5.0022280000
  O         2.7767760000       -2.2647240000        8.0780870000
  O         8.8243980000        4.7557010000        3.4898050000
  O        -3.9037660000        2.7797510000        9.6244670000
  O         6.1566970000        4.4091270000        2.5052180000
  O        -1.3679750000        1.9936580000       10.1096280000
  O         7.0178010000        6.7271700000        2.9531850000
  O        -3.0562790000        0.2084610000       10.6096570000
  O         1.6596210000       -2.8373120000       10.6743830000
  O         2.9694580000        9.1219370000        2.9092790000
  O         2.5316240000       -0.5433780000       10.2080480000
  O         1.3225750000        7.3069720000        2.3988930000
  O         4.5751670000        5.0876310000        5.2443370000
  O        -1.8361440000       -1.0225280000        7.9235160000
  O         4.0663910000       -3.6100490000       11.9620950000
  O         1.7435140000       11.0064290000        1.1443500000
  O         4.7710260000       -0.7954980000       11.9564180000
  O        -0.4275040000        9.0940250000        1.0940980000
  O         0.0288670000       -2.2880590000        7.9912580000
  O         2.5742950000        6.1196160000        5.1177960000
  O         9.1994190000        6.4527850000        1.0832950000
  O        -4.7481140000        1.9889750000       11.9440290000
  O         8.5002540000        3.6724200000        1.1132920000
  O        -2.5429750000        3.8492400000       12.0152310000
  O         4.2691710000        6.7355740000        3.0196680000
  O        -0.1470930000       -0.4360620000       10.0170300000
  O         6.7480570000        5.6000860000        0.0715300000
  O         2.0742010000        8.5415910000       -0.0654600000
  S         1.1088189356       -2.5133958407        3.3087694426
  S         2.3719268636       -0.1409720814        4.2863366433
  F         2.2447372385       -2.6445554588        0.9144887193
  F         0.1123213732       -3.2280167605        0.9254349471
  F         0.6605197208       -1.1057636468        1.0553759042
  F         4.6469433857        1.2100236533        4.5898857873
  F         4.9442043360       -0.7445812226        3.6221066599
  F         4.1050714849        0.9352550643        2.4804235040
  O        -7.1990065444       12.3658045724        3.7760864055
  O        -2.8518557041      -11.1562587622       16.6013881820
  O         2.4860847106       -0.1705245788        5.7444245883
  O         1.4815758629        0.8412510723        3.6788897029
  N         2.3819397703       -1.6227407236        3.6652275084
  C         1.0262316094       -2.3575084274        1.4531961998
  C         4.1126132332        0.3314241174        3.6962509143
     139
 i =       23, E =     -1553.2111646869
 Ti        -2.8683350000        2.1154420000       11.2652140000
 Ti         7.8027880000        5.3832100000        1.8443910000
 Ti         1.3525720000       -1.6735000000        9.4171130000
 Ti         2.5117920000        7.5426520000        3.6484140000
 Ti         1.4446720000        9.1874180000        1.7519890000
 Ti         3.2594580000       -1.8642570000       11.3595300000
 Ti        -1.8697820000        0.4160240000        9.3661400000
 Ti         5.8159840000        5.6142840000        3.7032810000
  H         3.7468960000        1.6526260000        8.5834390000
  H        -0.0029370000       -4.2340410000        6.4782570000
  H         4.4316300000       11.0106120000        4.6504380000
  H        -2.5036940000        6.0280510000       11.0484600000
  H         8.7487370000        1.5073420000        2.1552500000
  H        -6.8015420000        1.2218930000       10.9036440000
  H        11.1142460000        7.5038380000        2.0290890000
  H         4.3727210000       -5.8620200000       10.9626530000
  H        -2.5891430000        8.4561810000        2.0957030000
  H         4.6569660000        3.2041470000        6.8269530000
  H        -0.0452240000        3.6702680000        8.4060300000
  H        -3.5685920000       -1.8281670000        6.3785400000
  H         1.9853270000        7.5711820000       -0.1261220000
  H         5.9273850000        5.0774030000        0.1545840000
  H         3.7614260000       -2.5066170000        5.8447260000
  H         0.7455600000        9.3142620000        7.2794310000
  H        -6.0599130000        3.6612130000        9.0374900000
  H        10.6412470000        3.3933790000        4.1321340000
  H        -3.7285870000        2.2987080000        5.6888700000
  H        -1.7039720000       10.9033860000        4.1249230000
  H         1.7334520000       12.3009450000        2.6095370000
  H         8.6679850000       -0.5170630000        3.3558310000
  H         4.6066800000        7.2974510000        2.2978250000
  H         0.2154870000        0.1346200000       10.7192460000
  H         7.4153320000        0.2186850000        9.7283660000
  H         5.9554960000       -0.3025340000       10.4832990000
  H         7.8286560000        4.6709870000        8.6325370000
  H         7.2376510000        5.0115380000        7.0177090000
  H         7.0981770000       -4.7499770000        9.5343200000
  H         5.7840300000       -3.6950290000       10.0001570000
  H         1.4114850000        1.9115480000        9.3560850000
  H         0.8637590000        5.2270400000        6.6485740000
  H         5.7410230000        9.0693330000        3.8453710000
  H        -8.0103750000        8.6099930000        4.7446230000
  C         8.4223250000        4.6591910000        4.7037060000
  C        -3.8533280000        2.3467180000        8.4238990000
  C         3.9615950000       -2.5926300000        8.4765240000
  C         0.5135400000        9.4433570000        4.6213200000
  C         9.3443360000        4.0851920000        5.6931050000
  C        -4.8119260000        2.9400260000        7.4529070000
  C         4.9173150000       -3.1727480000        7.5232700000
  C        -0.3926610000       10.0575610000        5.6268840000
  C         9.1010420000        4.1497630000        7.1009990000
  C        -4.5992560000        2.8293420000        6.0635380000
  C         6.0750720000       -3.8937710000        7.9690880000
  C        -1.5160550000       10.7924690000        5.1890900000
  C        -0.1248110000        9.8942340000        6.9800950000
  C         4.6574050000       -3.0476440000        6.1409150000
  C        10.4989470000        3.4266870000        5.2100540000
  C        -5.9326790000        3.5931240000        7.9586910000
  C         2.8136840000        4.3074110000        6.6395670000
  C         1.8021000000        2.5801680000        8.5909250000
  C         6.1614730000        9.7262760000        4.6051290000
  C        -1.7300840000       -2.9447200000        6.5282340000
  C         8.7151750000        1.5883300000        0.0112620000
  C         1.8390400000       13.1474290000        0.0885870000
  C        10.9967290000        7.4345870000       -0.1203400000
  C        -2.4072200000        8.5110540000       -0.0635070000
  C         3.3505170000        5.2244920000        5.6056060000
  C        -1.1450180000       -2.0335150000        7.5402480000
  C         8.5285440000        3.0375930000       -0.0090850000
  C         1.7960860000       11.7116510000        0.0497010000
  C         9.7214410000        6.7729680000       -0.0672300000
  C        -1.0200150000        8.9738490000       -0.0463320000
  C         1.4829060000        4.4426040000        7.0787380000
  C         3.1252220000        2.4368270000        8.1546130000
  C         5.4241200000       10.8275940000        5.0587470000
  C        -0.9969320000       -4.0572320000        6.0734360000
  C         8.7846520000        0.9195150000        1.2397800000
  C        -2.5081420000        6.6152490000       11.9630650000
  C        11.6489580000        7.7305070000        1.1103030000
  C        -7.3513660000        1.0220250000       11.8219320000
  C         7.4413710000        9.4696440000        5.1127230000
  C        -3.0183170000       -2.6945520000        6.0174810000
  C         3.6326370000        3.2980560000        7.1812080000
  C         0.9806210000        3.5787050000        8.0528890000
  C         7.3617660000        0.4895280000       11.7535480000
  C        -3.0892010000        8.2549460000        1.1524790000
  C         4.4380030000       -6.3885600000       11.9106760000
  C         1.8336000000       13.8971630000        1.3187970000
  N         1.9163670000       13.2991920000        2.5559680000
  N         6.7825160000        0.2881570000       10.5174260000
  N         8.0012830000        4.7573400000        7.6391270000
  N         6.4187750000       -4.0420780000        9.2844230000
  O         7.2346650000        5.0226370000        5.0766040000
  O        -3.0539240000        1.4237030000        8.0201130000
  O         4.3452240000       -2.4564070000        9.6957080000
  O         0.4260540000        9.8718970000        3.4226800000
  O         1.3189610000        8.5130790000        5.0022280000
  O         2.7767760000       -2.2647240000        8.0780870000
  O         8.8243980000        4.7557010000        3.4898050000
  O        -3.9037660000        2.7797510000        9.6244670000
  O         6.1566970000        4.4091270000        2.5052180000
  O        -1.3679750000        1.9936580000       10.1096280000
  O         7.0178010000        6.7271700000        2.9531850000
  O        -3.0562790000        0.2084610000       10.6096570000
  O         1.6596210000       -2.8373120000       10.6743830000
  O         2.9694580000        9.1219370000        2.9092790000
  O         2.5316240000       -0.5433780000       10.2080480000
  O         1.3225750000        7.3069720000        2.3988930000
  O         4.5751670000        5.0876310000        5.2443370000
  O        -1.8361440000       -1.0225280000        7.9235160000
  O         4.0663910000       -3.6100490000       11.9620950000
  O         1.7435140000       11.0064290000        1.1443500000
  O         4.7710260000       -0.7954980000       11.9564180000
  O        -0.4275040000        9.0940250000        1.0940980000
  O         0.0288670000       -2.2880590000        7.9912580000
  O         2.5742950000        6.1196160000        5.1177960000
  O         9.1994190000        6.4527850000        1.0832950000
  O        -4.7481140000        1.9889750000       11.9440290000
  O         8.5002540000        3.6724200000        1.1132920000
  O        -2.5429750000        3.8492400000       12.0152310000
  O         4.2691710000        6.7355740000        3.0196680000
  O        -0.1470930000       -0.4360620000       10.0170300000
  O         6.7480570000        5.6000860000        0.0715300000
  O         2.0742010000        8.5415910000       -0.0654600000
  S         1.0860300471       -2.4958860103        3.3084736492
  S         2.3664560782       -0.1324680560        4.2760767480
  F         2.2398648506       -2.6443198499        0.9171690198
  F         0.1085079797       -3.2326888210        0.9283334118
  F         0.6525986581       -1.1093563027        1.0395680918
  F         4.6462543004        1.2068569736        4.5936278939
  F         4.9501640386       -0.7416844029        3.6201010448
  F         4.1069306502        0.9313922805        2.4812506688
  O        -7.2163048761       12.4041513481        3.7622697065
  O        -2.8950576300      -11.1393979790       16.6203789279
  O         2.4733089716       -0.1435378520        5.7344316674
  O         1.4891500293        0.8502237714        3.6512391622
  N         2.3691527483       -1.6173978770        3.6664716474
  C         1.0180727933       -2.3550030019        1.4479271605
  C         4.1132152004        0.3278187364        3.6972190249
     139
 i =       24, E =     -1553.2112330021
 Ti        -2.8683350000        2.1154420000       11.2652140000
 Ti         7.8027880000        5.3832100000        1.8443910000
 Ti         1.3525720000       -1.6735000000        9.4171130000
 Ti         2.5117920000        7.5426520000        3.6484140000
 Ti         1.4446720000        9.1874180000        1.7519890000
 Ti         3.2594580000       -1.8642570000       11.3595300000
 Ti        -1.8697820000        0.4160240000        9.3661400000
 Ti         5.8159840000        5.6142840000        3.7032810000
  H         3.7468960000        1.6526260000        8.5834390000
  H        -0.0029370000       -4.2340410000        6.4782570000
  H         4.4316300000       11.0106120000        4.6504380000
  H        -2.5036940000        6.0280510000       11.0484600000
  H         8.7487370000        1.5073420000        2.1552500000
  H        -6.8015420000        1.2218930000       10.9036440000
  H        11.1142460000        7.5038380000        2.0290890000
  H         4.3727210000       -5.8620200000       10.9626530000
  H        -2.5891430000        8.4561810000        2.0957030000
  H         4.6569660000        3.2041470000        6.8269530000
  H        -0.0452240000        3.6702680000        8.4060300000
  H        -3.5685920000       -1.8281670000        6.3785400000
  H         1.9853270000        7.5711820000       -0.1261220000
  H         5.9273850000        5.0774030000        0.1545840000
  H         3.7614260000       -2.5066170000        5.8447260000
  H         0.7455600000        9.3142620000        7.2794310000
  H        -6.0599130000        3.6612130000        9.0374900000
  H        10.6412470000        3.3933790000        4.1321340000
  H        -3.7285870000        2.2987080000        5.6888700000
  H        -1.7039720000       10.9033860000        4.1249230000
  H         1.7334520000       12.3009450000        2.6095370000
  H         8.6679850000       -0.5170630000        3.3558310000
  H         4.6066800000        7.2974510000        2.2978250000
  H         0.2154870000        0.1346200000       10.7192460000
  H         7.4153320000        0.2186850000        9.7283660000
  H         5.9554960000       -0.3025340000       10.4832990000
  H         7.8286560000        4.6709870000        8.6325370000
  H         7.2376510000        5.0115380000        7.0177090000
  H         7.0981770000       -4.7499770000        9.5343200000
  H         5.7840300000       -3.6950290000       10.0001570000
  H         1.4114850000        1.9115480000        9.3560850000
  H         0.8637590000        5.2270400000        6.6485740000
  H         5.7410230000        9.0693330000        3.8453710000
  H        -8.0103750000        8.6099930000        4.7446230000
  C         8.4223250000        4.6591910000        4.7037060000
  C        -3.8533280000        2.3467180000        8.4238990000
  C         3.9615950000       -2.5926300000        8.4765240000
  C         0.5135400000        9.4433570000        4.6213200000
  C         9.3443360000        4.0851920000        5.6931050000
  C        -4.8119260000        2.9400260000        7.4529070000
  C         4.9173150000       -3.1727480000        7.5232700000
  C        -0.3926610000       10.0575610000        5.6268840000
  C         9.1010420000        4.1497630000        7.1009990000
  C        -4.5992560000        2.8293420000        6.0635380000
  C         6.0750720000       -3.8937710000        7.9690880000
  C        -1.5160550000       10.7924690000        5.1890900000
  C        -0.1248110000        9.8942340000        6.9800950000
  C         4.6574050000       -3.0476440000        6.1409150000
  C        10.4989470000        3.4266870000        5.2100540000
  C        -5.9326790000        3.5931240000        7.9586910000
  C         2.8136840000        4.3074110000        6.6395670000
  C         1.8021000000        2.5801680000        8.5909250000
  C         6.1614730000        9.7262760000        4.6051290000
  C        -1.7300840000       -2.9447200000        6.5282340000
  C         8.7151750000        1.5883300000        0.0112620000
  C         1.8390400000       13.1474290000        0.0885870000
  C        10.9967290000        7.4345870000       -0.1203400000
  C        -2.4072200000        8.5110540000       -0.0635070000
  C         3.3505170000        5.2244920000        5.6056060000
  C        -1.1450180000       -2.0335150000        7.5402480000
  C         8.5285440000        3.0375930000       -0.0090850000
  C         1.7960860000       11.7116510000        0.0497010000
  C         9.7214410000        6.7729680000       -0.0672300000
  C        -1.0200150000        8.9738490000       -0.0463320000
  C         1.4829060000        4.4426040000        7.0787380000
  C         3.1252220000        2.4368270000        8.1546130000
  C         5.4241200000       10.8275940000        5.0587470000
  C        -0.9969320000       -4.0572320000        6.0734360000
  C         8.7846520000        0.9195150000        1.2397800000
  C        -2.5081420000        6.6152490000       11.9630650000
  C        11.6489580000        7.7305070000        1.1103030000
  C        -7.3513660000        1.0220250000       11.8219320000
  C         7.4413710000        9.4696440000        5.1127230000
  C        -3.0183170000       -2.6945520000        6.0174810000
  C         3.6326370000        3.2980560000        7.1812080000
  C         0.9806210000        3.5787050000        8.0528890000
  C         7.3617660000        0.4895280000       11.7535480000
  C        -3.0892010000        8.2549460000        1.1524790000
  C         4.4380030000       -6.3885600000       11.9106760000
  C         1.8336000000       13.8971630000        1.3187970000
  N         1.9163670000       13.2991920000        2.5559680000
  N         6.7825160000        0.2881570000       10.5174260000
  N         8.0012830000        4.7573400000        7.6391270000
  N         6.4187750000       -4.0420780000        9.2844230000
  O         7.2346650000        5.0226370000        5.0766040000
  O        -3.0539240000        1.4237030000        8.0201130000
  O         4.3452240000       -2.4564070000        9.6957080000
  O         0.4260540000        9.8718970000        3.4226800000
  O         1.3189610000        8.5130790000        5.0022280000
  O         2.7767760000       -2.2647240000        8.0780870000
  O         8.8243980000        4.7557010000        3.4898050000
  O        -3.9037660000        2.7797510000        9.6244670000
  O         6.1566970000        4.4091270000        2.5052180000
  O        -1.3679750000        1.9936580000       10.1096280000
  O         7.0178010000        6.7271700000        2.9531850000
  O        -3.0562790000        0.2084610000       10.6096570000
  O         1.6596210000       -2.8373120000       10.6743830000
  O         2.9694580000        9.1219370000        2.9092790000
  O         2.5316240000       -0.5433780000       10.2080480000
  O         1.3225750000        7.3069720000        2.3988930000
  O         4.5751670000        5.0876310000        5.2443370000
  O        -1.8361440000       -1.0225280000        7.9235160000
  O         4.0663910000       -3.6100490000       11.9620950000
  O         1.7435140000       11.0064290000        1.1443500000
  O         4.7710260000       -0.7954980000       11.9564180000
  O        -0.4275040000        9.0940250000        1.0940980000
  O         0.0288670000       -2.2880590000        7.9912580000
  O         2.5742950000        6.1196160000        5.1177960000
  O         9.1994190000        6.4527850000        1.0832950000
  O        -4.7481140000        1.9889750000       11.9440290000
  O         8.5002540000        3.6724200000        1.1132920000
  O        -2.5429750000        3.8492400000       12.0152310000
  O         4.2691710000        6.7355740000        3.0196680000
  O        -0.1470930000       -0.4360620000       10.0170300000
  O         6.7480570000        5.6000860000        0.0715300000
  O         2.0742010000        8.5415910000       -0.0654600000
  S         1.0827578033       -2.4962523637        3.3126435698
  S         2.3695181120       -0.1372784945        4.2752437441
  F         2.2380211364       -2.6410558228        0.9165368629
  F         0.1078491206       -3.2357500102        0.9331879547
  F         0.6471508133       -1.1109545407        1.0420165562
  F         4.6485696046        1.2037288478        4.5954534364
  F         4.9602612993       -0.7398193670        3.6215630950
  F         4.1061211229        0.9273657910        2.4845953114
  O        -7.2167053501       12.4088296656        3.7689642553
  O        -2.9034831185      -11.1414135324       16.6262927942
  O         2.4741064381       -0.1402063309        5.7335167569
  O         1.4949587931        0.8440700248        3.6442823633
  N         2.3709057212       -1.6228514559        3.6691114594
  C         1.0156045075       -2.3552402898        1.4495646313
  C         4.1160893883        0.3230436304        3.6996551821
     139
 i =       25, E =     -1553.2113003770
 Ti        -2.8683350000        2.1154420000       11.2652140000
 Ti         7.8027880000        5.3832100000        1.8443910000
 Ti         1.3525720000       -1.6735000000        9.4171130000
 Ti         2.5117920000        7.5426520000        3.6484140000
 Ti         1.4446720000        9.1874180000        1.7519890000
 Ti         3.2594580000       -1.8642570000       11.3595300000
 Ti        -1.8697820000        0.4160240000        9.3661400000
 Ti         5.8159840000        5.6142840000        3.7032810000
  H         3.7468960000        1.6526260000        8.5834390000
  H        -0.0029370000       -4.2340410000        6.4782570000
  H         4.4316300000       11.0106120000        4.6504380000
  H        -2.5036940000        6.0280510000       11.0484600000
  H         8.7487370000        1.5073420000        2.1552500000
  H        -6.8015420000        1.2218930000       10.9036440000
  H        11.1142460000        7.5038380000        2.0290890000
  H         4.3727210000       -5.8620200000       10.9626530000
  H        -2.5891430000        8.4561810000        2.0957030000
  H         4.6569660000        3.2041470000        6.8269530000
  H        -0.0452240000        3.6702680000        8.4060300000
  H        -3.5685920000       -1.8281670000        6.3785400000
  H         1.9853270000        7.5711820000       -0.1261220000
  H         5.9273850000        5.0774030000        0.1545840000
  H         3.7614260000       -2.5066170000        5.8447260000
  H         0.7455600000        9.3142620000        7.2794310000
  H        -6.0599130000        3.6612130000        9.0374900000
  H        10.6412470000        3.3933790000        4.1321340000
  H        -3.7285870000        2.2987080000        5.6888700000
  H        -1.7039720000       10.9033860000        4.1249230000
  H         1.7334520000       12.3009450000        2.6095370000
  H         8.6679850000       -0.5170630000        3.3558310000
  H         4.6066800000        7.2974510000        2.2978250000
  H         0.2154870000        0.1346200000       10.7192460000
  H         7.4153320000        0.2186850000        9.7283660000
  H         5.9554960000       -0.3025340000       10.4832990000
  H         7.8286560000        4.6709870000        8.6325370000
  H         7.2376510000        5.0115380000        7.0177090000
  H         7.0981770000       -4.7499770000        9.5343200000
  H         5.7840300000       -3.6950290000       10.0001570000
  H         1.4114850000        1.9115480000        9.3560850000
  H         0.8637590000        5.2270400000        6.6485740000
  H         5.7410230000        9.0693330000        3.8453710000
  H        -8.0103750000        8.6099930000        4.7446230000
  C         8.4223250000        4.6591910000        4.7037060000
  C        -3.8533280000        2.3467180000        8.4238990000
  C         3.9615950000       -2.5926300000        8.4765240000
  C         0.5135400000        9.4433570000        4.6213200000
  C         9.3443360000        4.0851920000        5.6931050000
  C        -4.8119260000        2.9400260000        7.4529070000
  C         4.9173150000       -3.1727480000        7.5232700000
  C        -0.3926610000       10.0575610000        5.6268840000
  C         9.1010420000        4.1497630000        7.1009990000
  C        -4.5992560000        2.8293420000        6.0635380000
  C         6.0750720000       -3.8937710000        7.9690880000
  C        -1.5160550000       10.7924690000        5.1890900000
  C        -0.1248110000        9.8942340000        6.9800950000
  C         4.6574050000       -3.0476440000        6.1409150000
  C        10.4989470000        3.4266870000        5.2100540000
  C        -5.9326790000        3.5931240000        7.9586910000
  C         2.8136840000        4.3074110000        6.6395670000
  C         1.8021000000        2.5801680000        8.5909250000
  C         6.1614730000        9.7262760000        4.6051290000
  C        -1.7300840000       -2.9447200000        6.5282340000
  C         8.7151750000        1.5883300000        0.0112620000
  C         1.8390400000       13.1474290000        0.0885870000
  C        10.9967290000        7.4345870000       -0.1203400000
  C        -2.4072200000        8.5110540000       -0.0635070000
  C         3.3505170000        5.2244920000        5.6056060000
  C        -1.1450180000       -2.0335150000        7.5402480000
  C         8.5285440000        3.0375930000       -0.0090850000
  C         1.7960860000       11.7116510000        0.0497010000
  C         9.7214410000        6.7729680000       -0.0672300000
  C        -1.0200150000        8.9738490000       -0.0463320000
  C         1.4829060000        4.4426040000        7.0787380000
  C         3.1252220000        2.4368270000        8.1546130000
  C         5.4241200000       10.8275940000        5.0587470000
  C        -0.9969320000       -4.0572320000        6.0734360000
  C         8.7846520000        0.9195150000        1.2397800000
  C        -2.5081420000        6.6152490000       11.9630650000
  C        11.6489580000        7.7305070000        1.1103030000
  C        -7.3513660000        1.0220250000       11.8219320000
  C         7.4413710000        9.4696440000        5.1127230000
  C        -3.0183170000       -2.6945520000        6.0174810000
  C         3.6326370000        3.2980560000        7.1812080000
  C         0.9806210000        3.5787050000        8.0528890000
  C         7.3617660000        0.4895280000       11.7535480000
  C        -3.0892010000        8.2549460000        1.1524790000
  C         4.4380030000       -6.3885600000       11.9106760000
  C         1.8336000000       13.8971630000        1.3187970000
  N         1.9163670000       13.2991920000        2.5559680000
  N         6.7825160000        0.2881570000       10.5174260000
  N         8.0012830000        4.7573400000        7.6391270000
  N         6.4187750000       -4.0420780000        9.2844230000
  O         7.2346650000        5.0226370000        5.0766040000
  O        -3.0539240000        1.4237030000        8.0201130000
  O         4.3452240000       -2.4564070000        9.6957080000
  O         0.4260540000        9.8718970000        3.4226800000
  O         1.3189610000        8.5130790000        5.0022280000
  O         2.7767760000       -2.2647240000        8.0780870000
  O         8.8243980000        4.7557010000        3.4898050000
  O        -3.9037660000        2.7797510000        9.6244670000
  O         6.1566970000        4.4091270000        2.5052180000
  O        -1.3679750000        1.9936580000       10.1096280000
  O         7.0178010000        6.7271700000        2.9531850000
  O        -3.0562790000        0.2084610000       10.6096570000
  O         1.6596210000       -2.8373120000       10.6743830000
  O         2.9694580000        9.1219370000        2.9092790000
  O         2.5316240000       -0.5433780000       10.2080480000
  O         1.3225750000        7.3069720000        2.3988930000
  O         4.5751670000        5.0876310000        5.2443370000
  O        -1.8361440000       -1.0225280000        7.9235160000
  O         4.0663910000       -3.6100490000       11.9620950000
  O         1.7435140000       11.0064290000        1.1443500000
  O         4.7710260000       -0.7954980000       11.9564180000
  O        -0.4275040000        9.0940250000        1.0940980000
  O         0.0288670000       -2.2880590000        7.9912580000
  O         2.5742950000        6.1196160000        5.1177960000
  O         9.1994190000        6.4527850000        1.0832950000
  O        -4.7481140000        1.9889750000       11.9440290000
  O         8.5002540000        3.6724200000        1.1132920000
  O        -2.5429750000        3.8492400000       12.0152310000
  O         4.2691710000        6.7355740000        3.0196680000
  O        -0.1470930000       -0.4360620000       10.0170300000
  O         6.7480570000        5.6000860000        0.0715300000
  O         2.0742010000        8.5415910000       -0.0654600000
  S         1.0785886983       -2.4982083667        3.3207648666
  S         2.3783833220       -0.1511585482        4.2751190973
  F         2.2358936894       -2.6386401202        0.9170168805
  F         0.1035779589       -3.2394739229        0.9406471165
  F         0.6469848091       -1.1126661466        1.0491678861
  F         4.6508660839        1.2019502935        4.5982217837
  F         4.9880221646       -0.7363116019        3.6280925978
  F         4.1002636560        0.9153773515        2.4940945562
  O        -7.2137501424       12.4183425288        3.7843441570
  O        -2.9215433591      -11.1474061156       16.6360311590
  O         2.4741428735       -0.1410832145        5.7332237189
  O         1.5070578821        0.8244808512        3.6314977158
  N         2.3779196557       -1.6388009885        3.6761231448
  C         1.0122355777       -2.3579231564        1.4535112118
  C         4.1240923768        0.3111874066        3.7072187100
     139
 i =       26, E =     -1553.2113631857
 Ti        -2.8683350000        2.1154420000       11.2652140000
 Ti         7.8027880000        5.3832100000        1.8443910000
 Ti         1.3525720000       -1.6735000000        9.4171130000
 Ti         2.5117920000        7.5426520000        3.6484140000
 Ti         1.4446720000        9.1874180000        1.7519890000
 Ti         3.2594580000       -1.8642570000       11.3595300000
 Ti        -1.8697820000        0.4160240000        9.3661400000
 Ti         5.8159840000        5.6142840000        3.7032810000
  H         3.7468960000        1.6526260000        8.5834390000
  H        -0.0029370000       -4.2340410000        6.4782570000
  H         4.4316300000       11.0106120000        4.6504380000
  H        -2.5036940000        6.0280510000       11.0484600000
  H         8.7487370000        1.5073420000        2.1552500000
  H        -6.8015420000        1.2218930000       10.9036440000
  H        11.1142460000        7.5038380000        2.0290890000
  H         4.3727210000       -5.8620200000       10.9626530000
  H        -2.5891430000        8.4561810000        2.0957030000
  H         4.6569660000        3.2041470000        6.8269530000
  H        -0.0452240000        3.6702680000        8.4060300000
  H        -3.5685920000       -1.8281670000        6.3785400000
  H         1.9853270000        7.5711820000       -0.1261220000
  H         5.9273850000        5.0774030000        0.1545840000
  H         3.7614260000       -2.5066170000        5.8447260000
  H         0.7455600000        9.3142620000        7.2794310000
  H        -6.0599130000        3.6612130000        9.0374900000
  H        10.6412470000        3.3933790000        4.1321340000
  H        -3.7285870000        2.2987080000        5.6888700000
  H        -1.7039720000       10.9033860000        4.1249230000
  H         1.7334520000       12.3009450000        2.6095370000
  H         8.6679850000       -0.5170630000        3.3558310000
  H         4.6066800000        7.2974510000        2.2978250000
  H         0.2154870000        0.1346200000       10.7192460000
  H         7.4153320000        0.2186850000        9.7283660000
  H         5.9554960000       -0.3025340000       10.4832990000
  H         7.8286560000        4.6709870000        8.6325370000
  H         7.2376510000        5.0115380000        7.0177090000
  H         7.0981770000       -4.7499770000        9.5343200000
  H         5.7840300000       -3.6950290000       10.0001570000
  H         1.4114850000        1.9115480000        9.3560850000
  H         0.8637590000        5.2270400000        6.6485740000
  H         5.7410230000        9.0693330000        3.8453710000
  H        -8.0103750000        8.6099930000        4.7446230000
  C         8.4223250000        4.6591910000        4.7037060000
  C        -3.8533280000        2.3467180000        8.4238990000
  C         3.9615950000       -2.5926300000        8.4765240000
  C         0.5135400000        9.4433570000        4.6213200000
  C         9.3443360000        4.0851920000        5.6931050000
  C        -4.8119260000        2.9400260000        7.4529070000
  C         4.9173150000       -3.1727480000        7.5232700000
  C        -0.3926610000       10.0575610000        5.6268840000
  C         9.1010420000        4.1497630000        7.1009990000
  C        -4.5992560000        2.8293420000        6.0635380000
  C         6.0750720000       -3.8937710000        7.9690880000
  C        -1.5160550000       10.7924690000        5.1890900000
  C        -0.1248110000        9.8942340000        6.9800950000
  C         4.6574050000       -3.0476440000        6.1409150000
  C        10.4989470000        3.4266870000        5.2100540000
  C        -5.9326790000        3.5931240000        7.9586910000
  C         2.8136840000        4.3074110000        6.6395670000
  C         1.8021000000        2.5801680000        8.5909250000
  C         6.1614730000        9.7262760000        4.6051290000
  C        -1.7300840000       -2.9447200000        6.5282340000
  C         8.7151750000        1.5883300000        0.0112620000
  C         1.8390400000       13.1474290000        0.0885870000
  C        10.9967290000        7.4345870000       -0.1203400000
  C        -2.4072200000        8.5110540000       -0.0635070000
  C         3.3505170000        5.2244920000        5.6056060000
  C        -1.1450180000       -2.0335150000        7.5402480000
  C         8.5285440000        3.0375930000       -0.0090850000
  C         1.7960860000       11.7116510000        0.0497010000
  C         9.7214410000        6.7729680000       -0.0672300000
  C        -1.0200150000        8.9738490000       -0.0463320000
  C         1.4829060000        4.4426040000        7.0787380000
  C         3.1252220000        2.4368270000        8.1546130000
  C         5.4241200000       10.8275940000        5.0587470000
  C        -0.9969320000       -4.0572320000        6.0734360000
  C         8.7846520000        0.9195150000        1.2397800000
  C        -2.5081420000        6.6152490000       11.9630650000
  C        11.6489580000        7.7305070000        1.1103030000
  C        -7.3513660000        1.0220250000       11.8219320000
  C         7.4413710000        9.4696440000        5.1127230000
  C        -3.0183170000       -2.6945520000        6.0174810000
  C         3.6326370000        3.2980560000        7.1812080000
  C         0.9806210000        3.5787050000        8.0528890000
  C         7.3617660000        0.4895280000       11.7535480000
  C        -3.0892010000        8.2549460000        1.1524790000
  C         4.4380030000       -6.3885600000       11.9106760000
  C         1.8336000000       13.8971630000        1.3187970000
  N         1.9163670000       13.2991920000        2.5559680000
  N         6.7825160000        0.2881570000       10.5174260000
  N         8.0012830000        4.7573400000        7.6391270000
  N         6.4187750000       -4.0420780000        9.2844230000
  O         7.2346650000        5.0226370000        5.0766040000
  O        -3.0539240000        1.4237030000        8.0201130000
  O         4.3452240000       -2.4564070000        9.6957080000
  O         0.4260540000        9.8718970000        3.4226800000
  O         1.3189610000        8.5130790000        5.0022280000
  O         2.7767760000       -2.2647240000        8.0780870000
  O         8.8243980000        4.7557010000        3.4898050000
  O        -3.9037660000        2.7797510000        9.6244670000
  O         6.1566970000        4.4091270000        2.5052180000
  O        -1.3679750000        1.9936580000       10.1096280000
  O         7.0178010000        6.7271700000        2.9531850000
  O        -3.0562790000        0.2084610000       10.6096570000
  O         1.6596210000       -2.8373120000       10.6743830000
  O         2.9694580000        9.1219370000        2.9092790000
  O         2.5316240000       -0.5433780000       10.2080480000
  O         1.3225750000        7.3069720000        2.3988930000
  O         4.5751670000        5.0876310000        5.2443370000
  O        -1.8361440000       -1.0225280000        7.9235160000
  O         4.0663910000       -3.6100490000       11.9620950000
  O         1.7435140000       11.0064290000        1.1443500000
  O         4.7710260000       -0.7954980000       11.9564180000
  O        -0.4275040000        9.0940250000        1.0940980000
  O         0.0288670000       -2.2880590000        7.9912580000
  O         2.5742950000        6.1196160000        5.1177960000
  O         9.1994190000        6.4527850000        1.0832950000
  O        -4.7481140000        1.9889750000       11.9440290000
  O         8.5002540000        3.6724200000        1.1132920000
  O        -2.5429750000        3.8492400000       12.0152310000
  O         4.2691710000        6.7355740000        3.0196680000
  O        -0.1470930000       -0.4360620000       10.0170300000
  O         6.7480570000        5.6000860000        0.0715300000
  O         2.0742010000        8.5415910000       -0.0654600000
  S         1.0778772619       -2.4946972249        3.3205599615
  S         2.3771967388       -0.1483740310        4.2754684747
  F         2.2341215605       -2.6422033372        0.9177084331
  F         0.1039909844       -3.2351943675        0.9369616710
  F         0.6486697117       -1.1103585249        1.0435808835
  F         4.6488562506        1.2023964450        4.5979153826
  F         4.9775834518       -0.7411085189        3.6266174221
  F         4.1024211090        0.9169443700        2.4928257623
  O        -7.2143916763       12.4231718165        3.7825461493
  O        -2.9259362168      -11.1445043026       16.6358553815
  O         2.4733452682       -0.1406594539        5.7339129435
  O         1.5053832450        0.8262227755        3.6312547780
  N         2.3774674753       -1.6379531151        3.6794852261
  C         1.0122314284       -2.3552748540        1.4526311733
  C         4.1220003439        0.3129054947        3.7059935512
     139
 i =       27, E =     -1553.2114127677
 Ti        -2.8683350000        2.1154420000       11.2652140000
 Ti         7.8027880000        5.3832100000        1.8443910000
 Ti         1.3525720000       -1.6735000000        9.4171130000
 Ti         2.5117920000        7.5426520000        3.6484140000
 Ti         1.4446720000        9.1874180000        1.7519890000
 Ti         3.2594580000       -1.8642570000       11.3595300000
 Ti        -1.8697820000        0.4160240000        9.3661400000
 Ti         5.8159840000        5.6142840000        3.7032810000
  H         3.7468960000        1.6526260000        8.5834390000
  H        -0.0029370000       -4.2340410000        6.4782570000
  H         4.4316300000       11.0106120000        4.6504380000
  H        -2.5036940000        6.0280510000       11.0484600000
  H         8.7487370000        1.5073420000        2.1552500000
  H        -6.8015420000        1.2218930000       10.9036440000
  H        11.1142460000        7.5038380000        2.0290890000
  H         4.3727210000       -5.8620200000       10.9626530000
  H        -2.5891430000        8.4561810000        2.0957030000
  H         4.6569660000        3.2041470000        6.8269530000
  H        -0.0452240000        3.6702680000        8.4060300000
  H        -3.5685920000       -1.8281670000        6.3785400000
  H         1.9853270000        7.5711820000       -0.1261220000
  H         5.9273850000        5.0774030000        0.1545840000
  H         3.7614260000       -2.5066170000        5.8447260000
  H         0.7455600000        9.3142620000        7.2794310000
  H        -6.0599130000        3.6612130000        9.0374900000
  H        10.6412470000        3.3933790000        4.1321340000
  H        -3.7285870000        2.2987080000        5.6888700000
  H        -1.7039720000       10.9033860000        4.1249230000
  H         1.7334520000       12.3009450000        2.6095370000
  H         8.6679850000       -0.5170630000        3.3558310000
  H         4.6066800000        7.2974510000        2.2978250000
  H         0.2154870000        0.1346200000       10.7192460000
  H         7.4153320000        0.2186850000        9.7283660000
  H         5.9554960000       -0.3025340000       10.4832990000
  H         7.8286560000        4.6709870000        8.6325370000
  H         7.2376510000        5.0115380000        7.0177090000
  H         7.0981770000       -4.7499770000        9.5343200000
  H         5.7840300000       -3.6950290000       10.0001570000
  H         1.4114850000        1.9115480000        9.3560850000
  H         0.8637590000        5.2270400000        6.6485740000
  H         5.7410230000        9.0693330000        3.8453710000
  H        -8.0103750000        8.6099930000        4.7446230000
  C         8.4223250000        4.6591910000        4.7037060000
  C        -3.8533280000        2.3467180000        8.4238990000
  C         3.9615950000       -2.5926300000        8.4765240000
  C         0.5135400000        9.4433570000        4.6213200000
  C         9.3443360000        4.0851920000        5.6931050000
  C        -4.8119260000        2.9400260000        7.4529070000
  C         4.9173150000       -3.1727480000        7.5232700000
  C        -0.3926610000       10.0575610000        5.6268840000
  C         9.1010420000        4.1497630000        7.1009990000
  C        -4.5992560000        2.8293420000        6.0635380000
  C         6.0750720000       -3.8937710000        7.9690880000
  C        -1.5160550000       10.7924690000        5.1890900000
  C        -0.1248110000        9.8942340000        6.9800950000
  C         4.6574050000       -3.0476440000        6.1409150000
  C        10.4989470000        3.4266870000        5.2100540000
  C        -5.9326790000        3.5931240000        7.9586910000
  C         2.8136840000        4.3074110000        6.6395670000
  C         1.8021000000        2.5801680000        8.5909250000
  C         6.1614730000        9.7262760000        4.6051290000
  C        -1.7300840000       -2.9447200000        6.5282340000
  C         8.7151750000        1.5883300000        0.0112620000
  C         1.8390400000       13.1474290000        0.0885870000
  C        10.9967290000        7.4345870000       -0.1203400000
  C        -2.4072200000        8.5110540000       -0.0635070000
  C         3.3505170000        5.2244920000        5.6056060000
  C        -1.1450180000       -2.0335150000        7.5402480000
  C         8.5285440000        3.0375930000       -0.0090850000
  C         1.7960860000       11.7116510000        0.0497010000
  C         9.7214410000        6.7729680000       -0.0672300000
  C        -1.0200150000        8.9738490000       -0.0463320000
  C         1.4829060000        4.4426040000        7.0787380000
  C         3.1252220000        2.4368270000        8.1546130000
  C         5.4241200000       10.8275940000        5.0587470000
  C        -0.9969320000       -4.0572320000        6.0734360000
  C         8.7846520000        0.9195150000        1.2397800000
  C        -2.5081420000        6.6152490000       11.9630650000
  C        11.6489580000        7.7305070000        1.1103030000
  C        -7.3513660000        1.0220250000       11.8219320000
  C         7.4413710000        9.4696440000        5.1127230000
  C        -3.0183170000       -2.6945520000        6.0174810000
  C         3.6326370000        3.2980560000        7.1812080000
  C         0.9806210000        3.5787050000        8.0528890000
  C         7.3617660000        0.4895280000       11.7535480000
  C        -3.0892010000        8.2549460000        1.1524790000
  C         4.4380030000       -6.3885600000       11.9106760000
  C         1.8336000000       13.8971630000        1.3187970000
  N         1.9163670000       13.2991920000        2.5559680000
  N         6.7825160000        0.2881570000       10.5174260000
  N         8.0012830000        4.7573400000        7.6391270000
  N         6.4187750000       -4.0420780000        9.2844230000
  O         7.2346650000        5.0226370000        5.0766040000
  O        -3.0539240000        1.4237030000        8.0201130000
  O         4.3452240000       -2.4564070000        9.6957080000
  O         0.4260540000        9.8718970000        3.4226800000
  O         1.3189610000        8.5130790000        5.0022280000
  O         2.7767760000       -2.2647240000        8.0780870000
  O         8.8243980000        4.7557010000        3.4898050000
  O        -3.9037660000        2.7797510000        9.6244670000
  O         6.1566970000        4.4091270000        2.5052180000
  O        -1.3679750000        1.9936580000       10.1096280000
  O         7.0178010000        6.7271700000        2.9531850000
  O        -3.0562790000        0.2084610000       10.6096570000
  O         1.6596210000       -2.8373120000       10.6743830000
  O         2.9694580000        9.1219370000        2.9092790000
  O         2.5316240000       -0.5433780000       10.2080480000
  O         1.3225750000        7.3069720000        2.3988930000
  O         4.5751670000        5.0876310000        5.2443370000
  O        -1.8361440000       -1.0225280000        7.9235160000
  O         4.0663910000       -3.6100490000       11.9620950000
  O         1.7435140000       11.0064290000        1.1443500000
  O         4.7710260000       -0.7954980000       11.9564180000
  O        -0.4275040000        9.0940250000        1.0940980000
  O         0.0288670000       -2.2880590000        7.9912580000
  O         2.5742950000        6.1196160000        5.1177960000
  O         9.1994190000        6.4527850000        1.0832950000
  O        -4.7481140000        1.9889750000       11.9440290000
  O         8.5002540000        3.6724200000        1.1132920000
  O        -2.5429750000        3.8492400000       12.0152310000
  O         4.2691710000        6.7355740000        3.0196680000
  O        -0.1470930000       -0.4360620000       10.0170300000
  O         6.7480570000        5.6000860000        0.0715300000
  O         2.0742010000        8.5415910000       -0.0654600000
  S         1.0793802835       -2.4955737130        3.3224325458
  S         2.3795183979       -0.1532885248        4.2778530121
  F         2.2355699621       -2.6443372574        0.9186345748
  F         0.1068383499       -3.2340202580        0.9346597823
  F         0.6517211768       -1.1081512040        1.0446628431
  F         4.6492768349        1.2014004260        4.5982262379
  F         4.9819447217       -0.7425542937        3.6260281917
  F         4.1018284622        0.9162962863        2.4950635665
  O        -7.2111693870       12.4265639943        3.7841282305
  O        -2.9321227919      -11.1475106378       16.6351352353
  O         2.4741723965       -0.1457706453        5.7367295360
  O         1.5070289618        0.8189169967        3.6309197436
  N         2.3823749990       -1.6449236460        3.6838205644
  C         1.0144965820       -2.3547706443        1.4531351766
  C         4.1236730688        0.3108401148        3.7070823715
     139
 i =       28, E =     -1553.2114668745
 Ti        -2.8683350000        2.1154420000       11.2652140000
 Ti         7.8027880000        5.3832100000        1.8443910000
 Ti         1.3525720000       -1.6735000000        9.4171130000
 Ti         2.5117920000        7.5426520000        3.6484140000
 Ti         1.4446720000        9.1874180000        1.7519890000
 Ti         3.2594580000       -1.8642570000       11.3595300000
 Ti        -1.8697820000        0.4160240000        9.3661400000
 Ti         5.8159840000        5.6142840000        3.7032810000
  H         3.7468960000        1.6526260000        8.5834390000
  H        -0.0029370000       -4.2340410000        6.4782570000
  H         4.4316300000       11.0106120000        4.6504380000
  H        -2.5036940000        6.0280510000       11.0484600000
  H         8.7487370000        1.5073420000        2.1552500000
  H        -6.8015420000        1.2218930000       10.9036440000
  H        11.1142460000        7.5038380000        2.0290890000
  H         4.3727210000       -5.8620200000       10.9626530000
  H        -2.5891430000        8.4561810000        2.0957030000
  H         4.6569660000        3.2041470000        6.8269530000
  H        -0.0452240000        3.6702680000        8.4060300000
  H        -3.5685920000       -1.8281670000        6.3785400000
  H         1.9853270000        7.5711820000       -0.1261220000
  H         5.9273850000        5.0774030000        0.1545840000
  H         3.7614260000       -2.5066170000        5.8447260000
  H         0.7455600000        9.3142620000        7.2794310000
  H        -6.0599130000        3.6612130000        9.0374900000
  H        10.6412470000        3.3933790000        4.1321340000
  H        -3.7285870000        2.2987080000        5.6888700000
  H        -1.7039720000       10.9033860000        4.1249230000
  H         1.7334520000       12.3009450000        2.6095370000
  H         8.6679850000       -0.5170630000        3.3558310000
  H         4.6066800000        7.2974510000        2.2978250000
  H         0.2154870000        0.1346200000       10.7192460000
  H         7.4153320000        0.2186850000        9.7283660000
  H         5.9554960000       -0.3025340000       10.4832990000
  H         7.8286560000        4.6709870000        8.6325370000
  H         7.2376510000        5.0115380000        7.0177090000
  H         7.0981770000       -4.7499770000        9.5343200000
  H         5.7840300000       -3.6950290000       10.0001570000
  H         1.4114850000        1.9115480000        9.3560850000
  H         0.8637590000        5.2270400000        6.6485740000
  H         5.7410230000        9.0693330000        3.8453710000
  H        -8.0103750000        8.6099930000        4.7446230000
  C         8.4223250000        4.6591910000        4.7037060000
  C        -3.8533280000        2.3467180000        8.4238990000
  C         3.9615950000       -2.5926300000        8.4765240000
  C         0.5135400000        9.4433570000        4.6213200000
  C         9.3443360000        4.0851920000        5.6931050000
  C        -4.8119260000        2.9400260000        7.4529070000
  C         4.9173150000       -3.1727480000        7.5232700000
  C        -0.3926610000       10.0575610000        5.6268840000
  C         9.1010420000        4.1497630000        7.1009990000
  C        -4.5992560000        2.8293420000        6.0635380000
  C         6.0750720000       -3.8937710000        7.9690880000
  C        -1.5160550000       10.7924690000        5.1890900000
  C        -0.1248110000        9.8942340000        6.9800950000
  C         4.6574050000       -3.0476440000        6.1409150000
  C        10.4989470000        3.4266870000        5.2100540000
  C        -5.9326790000        3.5931240000        7.9586910000
  C         2.8136840000        4.3074110000        6.6395670000
  C         1.8021000000        2.5801680000        8.5909250000
  C         6.1614730000        9.7262760000        4.6051290000
  C        -1.7300840000       -2.9447200000        6.5282340000
  C         8.7151750000        1.5883300000        0.0112620000
  C         1.8390400000       13.1474290000        0.0885870000
  C        10.9967290000        7.4345870000       -0.1203400000
  C        -2.4072200000        8.5110540000       -0.0635070000
  C         3.3505170000        5.2244920000        5.6056060000
  C        -1.1450180000       -2.0335150000        7.5402480000
  C         8.5285440000        3.0375930000       -0.0090850000
  C         1.7960860000       11.7116510000        0.0497010000
  C         9.7214410000        6.7729680000       -0.0672300000
  C        -1.0200150000        8.9738490000       -0.0463320000
  C         1.4829060000        4.4426040000        7.0787380000
  C         3.1252220000        2.4368270000        8.1546130000
  C         5.4241200000       10.8275940000        5.0587470000
  C        -0.9969320000       -4.0572320000        6.0734360000
  C         8.7846520000        0.9195150000        1.2397800000
  C        -2.5081420000        6.6152490000       11.9630650000
  C        11.6489580000        7.7305070000        1.1103030000
  C        -7.3513660000        1.0220250000       11.8219320000
  C         7.4413710000        9.4696440000        5.1127230000
  C        -3.0183170000       -2.6945520000        6.0174810000
  C         3.6326370000        3.2980560000        7.1812080000
  C         0.9806210000        3.5787050000        8.0528890000
  C         7.3617660000        0.4895280000       11.7535480000
  C        -3.0892010000        8.2549460000        1.1524790000
  C         4.4380030000       -6.3885600000       11.9106760000
  C         1.8336000000       13.8971630000        1.3187970000
  N         1.9163670000       13.2991920000        2.5559680000
  N         6.7825160000        0.2881570000       10.5174260000
  N         8.0012830000        4.7573400000        7.6391270000
  N         6.4187750000       -4.0420780000        9.2844230000
  O         7.2346650000        5.0226370000        5.0766040000
  O        -3.0539240000        1.4237030000        8.0201130000
  O         4.3452240000       -2.4564070000        9.6957080000
  O         0.4260540000        9.8718970000        3.4226800000
  O         1.3189610000        8.5130790000        5.0022280000
  O         2.7767760000       -2.2647240000        8.0780870000
  O         8.8243980000        4.7557010000        3.4898050000
  O        -3.9037660000        2.7797510000        9.6244670000
  O         6.1566970000        4.4091270000        2.5052180000
  O        -1.3679750000        1.9936580000       10.1096280000
  O         7.0178010000        6.7271700000        2.9531850000
  O        -3.0562790000        0.2084610000       10.6096570000
  O         1.6596210000       -2.8373120000       10.6743830000
  O         2.9694580000        9.1219370000        2.9092790000
  O         2.5316240000       -0.5433780000       10.2080480000
  O         1.3225750000        7.3069720000        2.3988930000
  O         4.5751670000        5.0876310000        5.2443370000
  O        -1.8361440000       -1.0225280000        7.9235160000
  O         4.0663910000       -3.6100490000       11.9620950000
  O         1.7435140000       11.0064290000        1.1443500000
  O         4.7710260000       -0.7954980000       11.9564180000
  O        -0.4275040000        9.0940250000        1.0940980000
  O         0.0288670000       -2.2880590000        7.9912580000
  O         2.5742950000        6.1196160000        5.1177960000
  O         9.1994190000        6.4527850000        1.0832950000
  O        -4.7481140000        1.9889750000       11.9440290000
  O         8.5002540000        3.6724200000        1.1132920000
  O        -2.5429750000        3.8492400000       12.0152310000
  O         4.2691710000        6.7355740000        3.0196680000
  O        -0.1470930000       -0.4360620000       10.0170300000
  O         6.7480570000        5.6000860000        0.0715300000
  O         2.0742010000        8.5415910000       -0.0654600000
  S         1.0847561758       -2.5022902357        3.3258695798
  S         2.3878054283       -0.1664039065        4.2841988114
  F         2.2409898335       -2.6441848382        0.9211757061
  F         0.1092136635       -3.2312298885        0.9342447315
  F         0.6572863526       -1.1070531621        1.0448801004
  F         4.6490274661        1.2031474741        4.6000598414
  F         4.9960812571       -0.7422397564        3.6208808134
  F         4.1002392192        0.9150333719        2.4990991627
  O        -7.2031882098       12.4249560311        3.7918536016
  O        -2.9365786142      -11.1584045533       16.6308415591
  O         2.4845964908       -0.1581695745        5.7436589706
  O         1.5109938433        0.8020255180        3.6359968021
  N         2.3930911968       -1.6618050708        3.6944174376
  C         1.0198580601       -2.3550756330        1.4541871130
  C         4.1305648763        0.3080813179        3.7094468549
     139
 i =       29, E =     -1553.2114963719
 Ti        -2.8683350000        2.1154420000       11.2652140000
 Ti         7.8027880000        5.3832100000        1.8443910000
 Ti         1.3525720000       -1.6735000000        9.4171130000
 Ti         2.5117920000        7.5426520000        3.6484140000
 Ti         1.4446720000        9.1874180000        1.7519890000
 Ti         3.2594580000       -1.8642570000       11.3595300000
 Ti        -1.8697820000        0.4160240000        9.3661400000
 Ti         5.8159840000        5.6142840000        3.7032810000
  H         3.7468960000        1.6526260000        8.5834390000
  H        -0.0029370000       -4.2340410000        6.4782570000
  H         4.4316300000       11.0106120000        4.6504380000
  H        -2.5036940000        6.0280510000       11.0484600000
  H         8.7487370000        1.5073420000        2.1552500000
  H        -6.8015420000        1.2218930000       10.9036440000
  H        11.1142460000        7.5038380000        2.0290890000
  H         4.3727210000       -5.8620200000       10.9626530000
  H        -2.5891430000        8.4561810000        2.0957030000
  H         4.6569660000        3.2041470000        6.8269530000
  H        -0.0452240000        3.6702680000        8.4060300000
  H        -3.5685920000       -1.8281670000        6.3785400000
  H         1.9853270000        7.5711820000       -0.1261220000
  H         5.9273850000        5.0774030000        0.1545840000
  H         3.7614260000       -2.5066170000        5.8447260000
  H         0.7455600000        9.3142620000        7.2794310000
  H        -6.0599130000        3.6612130000        9.0374900000
  H        10.6412470000        3.3933790000        4.1321340000
  H        -3.7285870000        2.2987080000        5.6888700000
  H        -1.7039720000       10.9033860000        4.1249230000
  H         1.7334520000       12.3009450000        2.6095370000
  H         8.6679850000       -0.5170630000        3.3558310000
  H         4.6066800000        7.2974510000        2.2978250000
  H         0.2154870000        0.1346200000       10.7192460000
  H         7.4153320000        0.2186850000        9.7283660000
  H         5.9554960000       -0.3025340000       10.4832990000
  H         7.8286560000        4.6709870000        8.6325370000
  H         7.2376510000        5.0115380000        7.0177090000
  H         7.0981770000       -4.7499770000        9.5343200000
  H         5.7840300000       -3.6950290000       10.0001570000
  H         1.4114850000        1.9115480000        9.3560850000
  H         0.8637590000        5.2270400000        6.6485740000
  H         5.7410230000        9.0693330000        3.8453710000
  H        -8.0103750000        8.6099930000        4.7446230000
  C         8.4223250000        4.6591910000        4.7037060000
  C        -3.8533280000        2.3467180000        8.4238990000
  C         3.9615950000       -2.5926300000        8.4765240000
  C         0.5135400000        9.4433570000        4.6213200000
  C         9.3443360000        4.0851920000        5.6931050000
  C        -4.8119260000        2.9400260000        7.4529070000
  C         4.9173150000       -3.1727480000        7.5232700000
  C        -0.3926610000       10.0575610000        5.6268840000
  C         9.1010420000        4.1497630000        7.1009990000
  C        -4.5992560000        2.8293420000        6.0635380000
  C         6.0750720000       -3.8937710000        7.9690880000
  C        -1.5160550000       10.7924690000        5.1890900000
  C        -0.1248110000        9.8942340000        6.9800950000
  C         4.6574050000       -3.0476440000        6.1409150000
  C        10.4989470000        3.4266870000        5.2100540000
  C        -5.9326790000        3.5931240000        7.9586910000
  C         2.8136840000        4.3074110000        6.6395670000
  C         1.8021000000        2.5801680000        8.5909250000
  C         6.1614730000        9.7262760000        4.6051290000
  C        -1.7300840000       -2.9447200000        6.5282340000
  C         8.7151750000        1.5883300000        0.0112620000
  C         1.8390400000       13.1474290000        0.0885870000
  C        10.9967290000        7.4345870000       -0.1203400000
  C        -2.4072200000        8.5110540000       -0.0635070000
  C         3.3505170000        5.2244920000        5.6056060000
  C        -1.1450180000       -2.0335150000        7.5402480000
  C         8.5285440000        3.0375930000       -0.0090850000
  C         1.7960860000       11.7116510000        0.0497010000
  C         9.7214410000        6.7729680000       -0.0672300000
  C        -1.0200150000        8.9738490000       -0.0463320000
  C         1.4829060000        4.4426040000        7.0787380000
  C         3.1252220000        2.4368270000        8.1546130000
  C         5.4241200000       10.8275940000        5.0587470000
  C        -0.9969320000       -4.0572320000        6.0734360000
  C         8.7846520000        0.9195150000        1.2397800000
  C        -2.5081420000        6.6152490000       11.9630650000
  C        11.6489580000        7.7305070000        1.1103030000
  C        -7.3513660000        1.0220250000       11.8219320000
  C         7.4413710000        9.4696440000        5.1127230000
  C        -3.0183170000       -2.6945520000        6.0174810000
  C         3.6326370000        3.2980560000        7.1812080000
  C         0.9806210000        3.5787050000        8.0528890000
  C         7.3617660000        0.4895280000       11.7535480000
  C        -3.0892010000        8.2549460000        1.1524790000
  C         4.4380030000       -6.3885600000       11.9106760000
  C         1.8336000000       13.8971630000        1.3187970000
  N         1.9163670000       13.2991920000        2.5559680000
  N         6.7825160000        0.2881570000       10.5174260000
  N         8.0012830000        4.7573400000        7.6391270000
  N         6.4187750000       -4.0420780000        9.2844230000
  O         7.2346650000        5.0226370000        5.0766040000
  O        -3.0539240000        1.4237030000        8.0201130000
  O         4.3452240000       -2.4564070000        9.6957080000
  O         0.4260540000        9.8718970000        3.4226800000
  O         1.3189610000        8.5130790000        5.0022280000
  O         2.7767760000       -2.2647240000        8.0780870000
  O         8.8243980000        4.7557010000        3.4898050000
  O        -3.9037660000        2.7797510000        9.6244670000
  O         6.1566970000        4.4091270000        2.5052180000
  O        -1.3679750000        1.9936580000       10.1096280000
  O         7.0178010000        6.7271700000        2.9531850000
  O        -3.0562790000        0.2084610000       10.6096570000
  O         1.6596210000       -2.8373120000       10.6743830000
  O         2.9694580000        9.1219370000        2.9092790000
  O         2.5316240000       -0.5433780000       10.2080480000
  O         1.3225750000        7.3069720000        2.3988930000
  O         4.5751670000        5.0876310000        5.2443370000
  O        -1.8361440000       -1.0225280000        7.9235160000
  O         4.0663910000       -3.6100490000       11.9620950000
  O         1.7435140000       11.0064290000        1.1443500000
  O         4.7710260000       -0.7954980000       11.9564180000
  O        -0.4275040000        9.0940250000        1.0940980000
  O         0.0288670000       -2.2880590000        7.9912580000
  O         2.5742950000        6.1196160000        5.1177960000
  O         9.1994190000        6.4527850000        1.0832950000
  O        -4.7481140000        1.9889750000       11.9440290000
  O         8.5002540000        3.6724200000        1.1132920000
  O        -2.5429750000        3.8492400000       12.0152310000
  O         4.2691710000        6.7355740000        3.0196680000
  O        -0.1470930000       -0.4360620000       10.0170300000
  O         6.7480570000        5.6000860000        0.0715300000
  O         2.0742010000        8.5415910000       -0.0654600000
  S         1.0879048711       -2.5056122083        3.3240718059
  S         2.3890333069       -0.1697466910        4.2872883997
  F         2.2438789536       -2.6426552103        0.9220714016
  F         0.1106759818       -3.2306981016        0.9313561568
  F         0.6596077800       -1.1070551219        1.0453560999
  F         4.6508139997        1.2022185096        4.5985110766
  F         4.9932663825       -0.7413702572        3.6174018191
  F         4.1020225611        0.9207891496        2.4973283034
  O        -7.1997245707       12.4227414939        3.7878311555
  O        -2.9327583982      -11.1612374369       16.6266431507
  O         2.4906833215       -0.1632540961        5.7467111595
  O         1.5090767459        0.7991894451        3.6438259712
  N         2.3956750769       -1.6654523969        3.6952026538
  C         1.0219720937       -2.3560325220        1.4541931001
  C         4.1301962623        0.3113797826        3.7067759912
     139
 i =       30, E =     -1553.2115251886
 Ti        -2.8683350000        2.1154420000       11.2652140000
 Ti         7.8027880000        5.3832100000        1.8443910000
 Ti         1.3525720000       -1.6735000000        9.4171130000
 Ti         2.5117920000        7.5426520000        3.6484140000
 Ti         1.4446720000        9.1874180000        1.7519890000
 Ti         3.2594580000       -1.8642570000       11.3595300000
 Ti        -1.8697820000        0.4160240000        9.3661400000
 Ti         5.8159840000        5.6142840000        3.7032810000
  H         3.7468960000        1.6526260000        8.5834390000
  H        -0.0029370000       -4.2340410000        6.4782570000
  H         4.4316300000       11.0106120000        4.6504380000
  H        -2.5036940000        6.0280510000       11.0484600000
  H         8.7487370000        1.5073420000        2.1552500000
  H        -6.8015420000        1.2218930000       10.9036440000
  H        11.1142460000        7.5038380000        2.0290890000
  H         4.3727210000       -5.8620200000       10.9626530000
  H        -2.5891430000        8.4561810000        2.0957030000
  H         4.6569660000        3.2041470000        6.8269530000
  H        -0.0452240000        3.6702680000        8.4060300000
  H        -3.5685920000       -1.8281670000        6.3785400000
  H         1.9853270000        7.5711820000       -0.1261220000
  H         5.9273850000        5.0774030000        0.1545840000
  H         3.7614260000       -2.5066170000        5.8447260000
  H         0.7455600000        9.3142620000        7.2794310000
  H        -6.0599130000        3.6612130000        9.0374900000
  H        10.6412470000        3.3933790000        4.1321340000
  H        -3.7285870000        2.2987080000        5.6888700000
  H        -1.7039720000       10.9033860000        4.1249230000
  H         1.7334520000       12.3009450000        2.6095370000
  H         8.6679850000       -0.5170630000        3.3558310000
  H         4.6066800000        7.2974510000        2.2978250000
  H         0.2154870000        0.1346200000       10.7192460000
  H         7.4153320000        0.2186850000        9.7283660000
  H         5.9554960000       -0.3025340000       10.4832990000
  H         7.8286560000        4.6709870000        8.6325370000
  H         7.2376510000        5.0115380000        7.0177090000
  H         7.0981770000       -4.7499770000        9.5343200000
  H         5.7840300000       -3.6950290000       10.0001570000
  H         1.4114850000        1.9115480000        9.3560850000
  H         0.8637590000        5.2270400000        6.6485740000
  H         5.7410230000        9.0693330000        3.8453710000
  H        -8.0103750000        8.6099930000        4.7446230000
  C         8.4223250000        4.6591910000        4.7037060000
  C        -3.8533280000        2.3467180000        8.4238990000
  C         3.9615950000       -2.5926300000        8.4765240000
  C         0.5135400000        9.4433570000        4.6213200000
  C         9.3443360000        4.0851920000        5.6931050000
  C        -4.8119260000        2.9400260000        7.4529070000
  C         4.9173150000       -3.1727480000        7.5232700000
  C        -0.3926610000       10.0575610000        5.6268840000
  C         9.1010420000        4.1497630000        7.1009990000
  C        -4.5992560000        2.8293420000        6.0635380000
  C         6.0750720000       -3.8937710000        7.9690880000
  C        -1.5160550000       10.7924690000        5.1890900000
  C        -0.1248110000        9.8942340000        6.9800950000
  C         4.6574050000       -3.0476440000        6.1409150000
  C        10.4989470000        3.4266870000        5.2100540000
  C        -5.9326790000        3.5931240000        7.9586910000
  C         2.8136840000        4.3074110000        6.6395670000
  C         1.8021000000        2.5801680000        8.5909250000
  C         6.1614730000        9.7262760000        4.6051290000
  C        -1.7300840000       -2.9447200000        6.5282340000
  C         8.7151750000        1.5883300000        0.0112620000
  C         1.8390400000       13.1474290000        0.0885870000
  C        10.9967290000        7.4345870000       -0.1203400000
  C        -2.4072200000        8.5110540000       -0.0635070000
  C         3.3505170000        5.2244920000        5.6056060000
  C        -1.1450180000       -2.0335150000        7.5402480000
  C         8.5285440000        3.0375930000       -0.0090850000
  C         1.7960860000       11.7116510000        0.0497010000
  C         9.7214410000        6.7729680000       -0.0672300000
  C        -1.0200150000        8.9738490000       -0.0463320000
  C         1.4829060000        4.4426040000        7.0787380000
  C         3.1252220000        2.4368270000        8.1546130000
  C         5.4241200000       10.8275940000        5.0587470000
  C        -0.9969320000       -4.0572320000        6.0734360000
  C         8.7846520000        0.9195150000        1.2397800000
  C        -2.5081420000        6.6152490000       11.9630650000
  C        11.6489580000        7.7305070000        1.1103030000
  C        -7.3513660000        1.0220250000       11.8219320000
  C         7.4413710000        9.4696440000        5.1127230000
  C        -3.0183170000       -2.6945520000        6.0174810000
  C         3.6326370000        3.2980560000        7.1812080000
  C         0.9806210000        3.5787050000        8.0528890000
  C         7.3617660000        0.4895280000       11.7535480000
  C        -3.0892010000        8.2549460000        1.1524790000
  C         4.4380030000       -6.3885600000       11.9106760000
  C         1.8336000000       13.8971630000        1.3187970000
  N         1.9163670000       13.2991920000        2.5559680000
  N         6.7825160000        0.2881570000       10.5174260000
  N         8.0012830000        4.7573400000        7.6391270000
  N         6.4187750000       -4.0420780000        9.2844230000
  O         7.2346650000        5.0226370000        5.0766040000
  O        -3.0539240000        1.4237030000        8.0201130000
  O         4.3452240000       -2.4564070000        9.6957080000
  O         0.4260540000        9.8718970000        3.4226800000
  O         1.3189610000        8.5130790000        5.0022280000
  O         2.7767760000       -2.2647240000        8.0780870000
  O         8.8243980000        4.7557010000        3.4898050000
  O        -3.9037660000        2.7797510000        9.6244670000
  O         6.1566970000        4.4091270000        2.5052180000
  O        -1.3679750000        1.9936580000       10.1096280000
  O         7.0178010000        6.7271700000        2.9531850000
  O        -3.0562790000        0.2084610000       10.6096570000
  O         1.6596210000       -2.8373120000       10.6743830000
  O         2.9694580000        9.1219370000        2.9092790000
  O         2.5316240000       -0.5433780000       10.2080480000
  O         1.3225750000        7.3069720000        2.3988930000
  O         4.5751670000        5.0876310000        5.2443370000
  O        -1.8361440000       -1.0225280000        7.9235160000
  O         4.0663910000       -3.6100490000       11.9620950000
  O         1.7435140000       11.0064290000        1.1443500000
  O         4.7710260000       -0.7954980000       11.9564180000
  O        -0.4275040000        9.0940250000        1.0940980000
  O         0.0288670000       -2.2880590000        7.9912580000
  O         2.5742950000        6.1196160000        5.1177960000
  O         9.1994190000        6.4527850000        1.0832950000
  O        -4.7481140000        1.9889750000       11.9440290000
  O         8.5002540000        3.6724200000        1.1132920000
  O        -2.5429750000        3.8492400000       12.0152310000
  O         4.2691710000        6.7355740000        3.0196680000
  O        -0.1470930000       -0.4360620000       10.0170300000
  O         6.7480570000        5.6000860000        0.0715300000
  O         2.0742010000        8.5415910000       -0.0654600000
  S         1.0858936521       -2.5046637890        3.3229894330
  S         2.3906808918       -0.1701179442        4.2867284337
  F         2.2415757165       -2.6433990378        0.9211654181
  F         0.1101249706       -3.2316486206        0.9323559700
  F         0.6571514554       -1.1082857024        1.0444977271
  F         4.6505490316        1.2009685725        4.5981759197
  F         4.9926015063       -0.7418587595        3.6143130955
  F         4.1038421933        0.9208458849        2.4964258999
  O        -7.2011062801       12.4264104042        3.7845891794
  O        -2.9359296049      -11.1599133418       16.6273187836
  O         2.4946252372       -0.1616816316        5.7457687832
  O         1.5086461552        0.7979830291        3.6449438203
  N         2.3948530199       -1.6665528151        3.6970312375
  C         1.0201820826       -2.3556303893        1.4542258312
  C         4.1310077358        0.3107029229        3.7053078537
     139
 i =       31, E =     -1553.2115432238
 Ti        -2.8683350000        2.1154420000       11.2652140000
 Ti         7.8027880000        5.3832100000        1.8443910000
 Ti         1.3525720000       -1.6735000000        9.4171130000
 Ti         2.5117920000        7.5426520000        3.6484140000
 Ti         1.4446720000        9.1874180000        1.7519890000
 Ti         3.2594580000       -1.8642570000       11.3595300000
 Ti        -1.8697820000        0.4160240000        9.3661400000
 Ti         5.8159840000        5.6142840000        3.7032810000
  H         3.7468960000        1.6526260000        8.5834390000
  H        -0.0029370000       -4.2340410000        6.4782570000
  H         4.4316300000       11.0106120000        4.6504380000
  H        -2.5036940000        6.0280510000       11.0484600000
  H         8.7487370000        1.5073420000        2.1552500000
  H        -6.8015420000        1.2218930000       10.9036440000
  H        11.1142460000        7.5038380000        2.0290890000
  H         4.3727210000       -5.8620200000       10.9626530000
  H        -2.5891430000        8.4561810000        2.0957030000
  H         4.6569660000        3.2041470000        6.8269530000
  H        -0.0452240000        3.6702680000        8.4060300000
  H        -3.5685920000       -1.8281670000        6.3785400000
  H         1.9853270000        7.5711820000       -0.1261220000
  H         5.9273850000        5.0774030000        0.1545840000
  H         3.7614260000       -2.5066170000        5.8447260000
  H         0.7455600000        9.3142620000        7.2794310000
  H        -6.0599130000        3.6612130000        9.0374900000
  H        10.6412470000        3.3933790000        4.1321340000
  H        -3.7285870000        2.2987080000        5.6888700000
  H        -1.7039720000       10.9033860000        4.1249230000
  H         1.7334520000       12.3009450000        2.6095370000
  H         8.6679850000       -0.5170630000        3.3558310000
  H         4.6066800000        7.2974510000        2.2978250000
  H         0.2154870000        0.1346200000       10.7192460000
  H         7.4153320000        0.2186850000        9.7283660000
  H         5.9554960000       -0.3025340000       10.4832990000
  H         7.8286560000        4.6709870000        8.6325370000
  H         7.2376510000        5.0115380000        7.0177090000
  H         7.0981770000       -4.7499770000        9.5343200000
  H         5.7840300000       -3.6950290000       10.0001570000
  H         1.4114850000        1.9115480000        9.3560850000
  H         0.8637590000        5.2270400000        6.6485740000
  H         5.7410230000        9.0693330000        3.8453710000
  H        -8.0103750000        8.6099930000        4.7446230000
  C         8.4223250000        4.6591910000        4.7037060000
  C        -3.8533280000        2.3467180000        8.4238990000
  C         3.9615950000       -2.5926300000        8.4765240000
  C         0.5135400000        9.4433570000        4.6213200000
  C         9.3443360000        4.0851920000        5.6931050000
  C        -4.8119260000        2.9400260000        7.4529070000
  C         4.9173150000       -3.1727480000        7.5232700000
  C        -0.3926610000       10.0575610000        5.6268840000
  C         9.1010420000        4.1497630000        7.1009990000
  C        -4.5992560000        2.8293420000        6.0635380000
  C         6.0750720000       -3.8937710000        7.9690880000
  C        -1.5160550000       10.7924690000        5.1890900000
  C        -0.1248110000        9.8942340000        6.9800950000
  C         4.6574050000       -3.0476440000        6.1409150000
  C        10.4989470000        3.4266870000        5.2100540000
  C        -5.9326790000        3.5931240000        7.9586910000
  C         2.8136840000        4.3074110000        6.6395670000
  C         1.8021000000        2.5801680000        8.5909250000
  C         6.1614730000        9.7262760000        4.6051290000
  C        -1.7300840000       -2.9447200000        6.5282340000
  C         8.7151750000        1.5883300000        0.0112620000
  C         1.8390400000       13.1474290000        0.0885870000
  C        10.9967290000        7.4345870000       -0.1203400000
  C        -2.4072200000        8.5110540000       -0.0635070000
  C         3.3505170000        5.2244920000        5.6056060000
  C        -1.1450180000       -2.0335150000        7.5402480000
  C         8.5285440000        3.0375930000       -0.0090850000
  C         1.7960860000       11.7116510000        0.0497010000
  C         9.7214410000        6.7729680000       -0.0672300000
  C        -1.0200150000        8.9738490000       -0.0463320000
  C         1.4829060000        4.4426040000        7.0787380000
  C         3.1252220000        2.4368270000        8.1546130000
  C         5.4241200000       10.8275940000        5.0587470000
  C        -0.9969320000       -4.0572320000        6.0734360000
  C         8.7846520000        0.9195150000        1.2397800000
  C        -2.5081420000        6.6152490000       11.9630650000
  C        11.6489580000        7.7305070000        1.1103030000
  C        -7.3513660000        1.0220250000       11.8219320000
  C         7.4413710000        9.4696440000        5.1127230000
  C        -3.0183170000       -2.6945520000        6.0174810000
  C         3.6326370000        3.2980560000        7.1812080000
  C         0.9806210000        3.5787050000        8.0528890000
  C         7.3617660000        0.4895280000       11.7535480000
  C        -3.0892010000        8.2549460000        1.1524790000
  C         4.4380030000       -6.3885600000       11.9106760000
  C         1.8336000000       13.8971630000        1.3187970000
  N         1.9163670000       13.2991920000        2.5559680000
  N         6.7825160000        0.2881570000       10.5174260000
  N         8.0012830000        4.7573400000        7.6391270000
  N         6.4187750000       -4.0420780000        9.2844230000
  O         7.2346650000        5.0226370000        5.0766040000
  O        -3.0539240000        1.4237030000        8.0201130000
  O         4.3452240000       -2.4564070000        9.6957080000
  O         0.4260540000        9.8718970000        3.4226800000
  O         1.3189610000        8.5130790000        5.0022280000
  O         2.7767760000       -2.2647240000        8.0780870000
  O         8.8243980000        4.7557010000        3.4898050000
  O        -3.9037660000        2.7797510000        9.6244670000
  O         6.1566970000        4.4091270000        2.5052180000
  O        -1.3679750000        1.9936580000       10.1096280000
  O         7.0178010000        6.7271700000        2.9531850000
  O        -3.0562790000        0.2084610000       10.6096570000
  O         1.6596210000       -2.8373120000       10.6743830000
  O         2.9694580000        9.1219370000        2.9092790000
  O         2.5316240000       -0.5433780000       10.2080480000
  O         1.3225750000        7.3069720000        2.3988930000
  O         4.5751670000        5.0876310000        5.2443370000
  O        -1.8361440000       -1.0225280000        7.9235160000
  O         4.0663910000       -3.6100490000       11.9620950000
  O         1.7435140000       11.0064290000        1.1443500000
  O         4.7710260000       -0.7954980000       11.9564180000
  O        -0.4275040000        9.0940250000        1.0940980000
  O         0.0288670000       -2.2880590000        7.9912580000
  O         2.5742950000        6.1196160000        5.1177960000
  O         9.1994190000        6.4527850000        1.0832950000
  O        -4.7481140000        1.9889750000       11.9440290000
  O         8.5002540000        3.6724200000        1.1132920000
  O        -2.5429750000        3.8492400000       12.0152310000
  O         4.2691710000        6.7355740000        3.0196680000
  O        -0.1470930000       -0.4360620000       10.0170300000
  O         6.7480570000        5.6000860000        0.0715300000
  O         2.0742010000        8.5415910000       -0.0654600000
  S         1.0829898155       -2.5033451457        3.3216693560
  S         2.3930746265       -0.1719744260        4.2863239755
  F         2.2393705672       -2.6423532459        0.9204692974
  F         0.1085522082       -3.2329366486        0.9338853790
  F         0.6523876080       -1.1102704796        1.0425272508
  F         4.6502232895        1.1995705095        4.5960246906
  F         4.9934412615       -0.7431025150        3.6103423823
  F         4.1038033795        0.9199205602        2.4955505083
  O        -7.2032057494       12.4324269907        3.7792180729
  O        -2.9429822641      -11.1586333792       16.6278338253
  O         2.5031201897       -0.1600233179        5.7447052536
  O         1.5086064392        0.7948617168        3.6467539956
  N         2.3946862876       -1.6694294588        3.6997198734
  C         1.0175562222       -2.3550942206        1.4539170969
  C         4.1319914989        0.3081035886        3.7033601132
     139
 i =       32, E =     -1553.2115476666
 Ti        -2.8683350000        2.1154420000       11.2652140000
 Ti         7.8027880000        5.3832100000        1.8443910000
 Ti         1.3525720000       -1.6735000000        9.4171130000
 Ti         2.5117920000        7.5426520000        3.6484140000
 Ti         1.4446720000        9.1874180000        1.7519890000
 Ti         3.2594580000       -1.8642570000       11.3595300000
 Ti        -1.8697820000        0.4160240000        9.3661400000
 Ti         5.8159840000        5.6142840000        3.7032810000
  H         3.7468960000        1.6526260000        8.5834390000
  H        -0.0029370000       -4.2340410000        6.4782570000
  H         4.4316300000       11.0106120000        4.6504380000
  H        -2.5036940000        6.0280510000       11.0484600000
  H         8.7487370000        1.5073420000        2.1552500000
  H        -6.8015420000        1.2218930000       10.9036440000
  H        11.1142460000        7.5038380000        2.0290890000
  H         4.3727210000       -5.8620200000       10.9626530000
  H        -2.5891430000        8.4561810000        2.0957030000
  H         4.6569660000        3.2041470000        6.8269530000
  H        -0.0452240000        3.6702680000        8.4060300000
  H        -3.5685920000       -1.8281670000        6.3785400000
  H         1.9853270000        7.5711820000       -0.1261220000
  H         5.9273850000        5.0774030000        0.1545840000
  H         3.7614260000       -2.5066170000        5.8447260000
  H         0.7455600000        9.3142620000        7.2794310000
  H        -6.0599130000        3.6612130000        9.0374900000
  H        10.6412470000        3.3933790000        4.1321340000
  H        -3.7285870000        2.2987080000        5.6888700000
  H        -1.7039720000       10.9033860000        4.1249230000
  H         1.7334520000       12.3009450000        2.6095370000
  H         8.6679850000       -0.5170630000        3.3558310000
  H         4.6066800000        7.2974510000        2.2978250000
  H         0.2154870000        0.1346200000       10.7192460000
  H         7.4153320000        0.2186850000        9.7283660000
  H         5.9554960000       -0.3025340000       10.4832990000
  H         7.8286560000        4.6709870000        8.6325370000
  H         7.2376510000        5.0115380000        7.0177090000
  H         7.0981770000       -4.7499770000        9.5343200000
  H         5.7840300000       -3.6950290000       10.0001570000
  H         1.4114850000        1.9115480000        9.3560850000
  H         0.8637590000        5.2270400000        6.6485740000
  H         5.7410230000        9.0693330000        3.8453710000
  H        -8.0103750000        8.6099930000        4.7446230000
  C         8.4223250000        4.6591910000        4.7037060000
  C        -3.8533280000        2.3467180000        8.4238990000
  C         3.9615950000       -2.5926300000        8.4765240000
  C         0.5135400000        9.4433570000        4.6213200000
  C         9.3443360000        4.0851920000        5.6931050000
  C        -4.8119260000        2.9400260000        7.4529070000
  C         4.9173150000       -3.1727480000        7.5232700000
  C        -0.3926610000       10.0575610000        5.6268840000
  C         9.1010420000        4.1497630000        7.1009990000
  C        -4.5992560000        2.8293420000        6.0635380000
  C         6.0750720000       -3.8937710000        7.9690880000
  C        -1.5160550000       10.7924690000        5.1890900000
  C        -0.1248110000        9.8942340000        6.9800950000
  C         4.6574050000       -3.0476440000        6.1409150000
  C        10.4989470000        3.4266870000        5.2100540000
  C        -5.9326790000        3.5931240000        7.9586910000
  C         2.8136840000        4.3074110000        6.6395670000
  C         1.8021000000        2.5801680000        8.5909250000
  C         6.1614730000        9.7262760000        4.6051290000
  C        -1.7300840000       -2.9447200000        6.5282340000
  C         8.7151750000        1.5883300000        0.0112620000
  C         1.8390400000       13.1474290000        0.0885870000
  C        10.9967290000        7.4345870000       -0.1203400000
  C        -2.4072200000        8.5110540000       -0.0635070000
  C         3.3505170000        5.2244920000        5.6056060000
  C        -1.1450180000       -2.0335150000        7.5402480000
  C         8.5285440000        3.0375930000       -0.0090850000
  C         1.7960860000       11.7116510000        0.0497010000
  C         9.7214410000        6.7729680000       -0.0672300000
  C        -1.0200150000        8.9738490000       -0.0463320000
  C         1.4829060000        4.4426040000        7.0787380000
  C         3.1252220000        2.4368270000        8.1546130000
  C         5.4241200000       10.8275940000        5.0587470000
  C        -0.9969320000       -4.0572320000        6.0734360000
  C         8.7846520000        0.9195150000        1.2397800000
  C        -2.5081420000        6.6152490000       11.9630650000
  C        11.6489580000        7.7305070000        1.1103030000
  C        -7.3513660000        1.0220250000       11.8219320000
  C         7.4413710000        9.4696440000        5.1127230000
  C        -3.0183170000       -2.6945520000        6.0174810000
  C         3.6326370000        3.2980560000        7.1812080000
  C         0.9806210000        3.5787050000        8.0528890000
  C         7.3617660000        0.4895280000       11.7535480000
  C        -3.0892010000        8.2549460000        1.1524790000
  C         4.4380030000       -6.3885600000       11.9106760000
  C         1.8336000000       13.8971630000        1.3187970000
  N         1.9163670000       13.2991920000        2.5559680000
  N         6.7825160000        0.2881570000       10.5174260000
  N         8.0012830000        4.7573400000        7.6391270000
  N         6.4187750000       -4.0420780000        9.2844230000
  O         7.2346650000        5.0226370000        5.0766040000
  O        -3.0539240000        1.4237030000        8.0201130000
  O         4.3452240000       -2.4564070000        9.6957080000
  O         0.4260540000        9.8718970000        3.4226800000
  O         1.3189610000        8.5130790000        5.0022280000
  O         2.7767760000       -2.2647240000        8.0780870000
  O         8.8243980000        4.7557010000        3.4898050000
  O        -3.9037660000        2.7797510000        9.6244670000
  O         6.1566970000        4.4091270000        2.5052180000
  O        -1.3679750000        1.9936580000       10.1096280000
  O         7.0178010000        6.7271700000        2.9531850000
  O        -3.0562790000        0.2084610000       10.6096570000
  O         1.6596210000       -2.8373120000       10.6743830000
  O         2.9694580000        9.1219370000        2.9092790000
  O         2.5316240000       -0.5433780000       10.2080480000
  O         1.3225750000        7.3069720000        2.3988930000
  O         4.5751670000        5.0876310000        5.2443370000
  O        -1.8361440000       -1.0225280000        7.9235160000
  O         4.0663910000       -3.6100490000       11.9620950000
  O         1.7435140000       11.0064290000        1.1443500000
  O         4.7710260000       -0.7954980000       11.9564180000
  O        -0.4275040000        9.0940250000        1.0940980000
  O         0.0288670000       -2.2880590000        7.9912580000
  O         2.5742950000        6.1196160000        5.1177960000
  O         9.1994190000        6.4527850000        1.0832950000
  O        -4.7481140000        1.9889750000       11.9440290000
  O         8.5002540000        3.6724200000        1.1132920000
  O        -2.5429750000        3.8492400000       12.0152310000
  O         4.2691710000        6.7355740000        3.0196680000
  O        -0.1470930000       -0.4360620000       10.0170300000
  O         6.7480570000        5.6000860000        0.0715300000
  O         2.0742010000        8.5415910000       -0.0654600000
  S         1.0826977733       -2.5036610821        3.3213528906
  S         2.3932433648       -0.1727000852        4.2866791022
  F         2.2393428336       -2.6424502327        0.9194512239
  F         0.1085604786       -3.2330548471        0.9339782718
  F         0.6523967317       -1.1101816764        1.0428803970
  F         4.6498100713        1.1996525358        4.5958962625
  F         4.9933993844       -0.7433539210        3.6124742292
  F         4.1029992438        0.9193918352        2.4950988776
  O        -7.2034879346       12.4318776878        3.7797350649
  O        -2.9427519413      -11.1589731363       16.6270130862
  O         2.5036945850       -0.1608945260        5.7447469293
  O         1.5086283038        0.7940013137        3.6477612867
  N         2.3943430915       -1.6698360839        3.6992026026
  C         1.0177474120       -2.3551532797        1.4537622233
  C         4.1314941302        0.3079644574        3.7032105038
     139
 i =       33, E =     -1553.2115513313
 Ti        -2.8683350000        2.1154420000       11.2652140000
 Ti         7.8027880000        5.3832100000        1.8443910000
 Ti         1.3525720000       -1.6735000000        9.4171130000
 Ti         2.5117920000        7.5426520000        3.6484140000
 Ti         1.4446720000        9.1874180000        1.7519890000
 Ti         3.2594580000       -1.8642570000       11.3595300000
 Ti        -1.8697820000        0.4160240000        9.3661400000
 Ti         5.8159840000        5.6142840000        3.7032810000
  H         3.7468960000        1.6526260000        8.5834390000
  H        -0.0029370000       -4.2340410000        6.4782570000
  H         4.4316300000       11.0106120000        4.6504380000
  H        -2.5036940000        6.0280510000       11.0484600000
  H         8.7487370000        1.5073420000        2.1552500000
  H        -6.8015420000        1.2218930000       10.9036440000
  H        11.1142460000        7.5038380000        2.0290890000
  H         4.3727210000       -5.8620200000       10.9626530000
  H        -2.5891430000        8.4561810000        2.0957030000
  H         4.6569660000        3.2041470000        6.8269530000
  H        -0.0452240000        3.6702680000        8.4060300000
  H        -3.5685920000       -1.8281670000        6.3785400000
  H         1.9853270000        7.5711820000       -0.1261220000
  H         5.9273850000        5.0774030000        0.1545840000
  H         3.7614260000       -2.5066170000        5.8447260000
  H         0.7455600000        9.3142620000        7.2794310000
  H        -6.0599130000        3.6612130000        9.0374900000
  H        10.6412470000        3.3933790000        4.1321340000
  H        -3.7285870000        2.2987080000        5.6888700000
  H        -1.7039720000       10.9033860000        4.1249230000
  H         1.7334520000       12.3009450000        2.6095370000
  H         8.6679850000       -0.5170630000        3.3558310000
  H         4.6066800000        7.2974510000        2.2978250000
  H         0.2154870000        0.1346200000       10.7192460000
  H         7.4153320000        0.2186850000        9.7283660000
  H         5.9554960000       -0.3025340000       10.4832990000
  H         7.8286560000        4.6709870000        8.6325370000
  H         7.2376510000        5.0115380000        7.0177090000
  H         7.0981770000       -4.7499770000        9.5343200000
  H         5.7840300000       -3.6950290000       10.0001570000
  H         1.4114850000        1.9115480000        9.3560850000
  H         0.8637590000        5.2270400000        6.6485740000
  H         5.7410230000        9.0693330000        3.8453710000
  H        -8.0103750000        8.6099930000        4.7446230000
  C         8.4223250000        4.6591910000        4.7037060000
  C        -3.8533280000        2.3467180000        8.4238990000
  C         3.9615950000       -2.5926300000        8.4765240000
  C         0.5135400000        9.4433570000        4.6213200000
  C         9.3443360000        4.0851920000        5.6931050000
  C        -4.8119260000        2.9400260000        7.4529070000
  C         4.9173150000       -3.1727480000        7.5232700000
  C        -0.3926610000       10.0575610000        5.6268840000
  C         9.1010420000        4.1497630000        7.1009990000
  C        -4.5992560000        2.8293420000        6.0635380000
  C         6.0750720000       -3.8937710000        7.9690880000
  C        -1.5160550000       10.7924690000        5.1890900000
  C        -0.1248110000        9.8942340000        6.9800950000
  C         4.6574050000       -3.0476440000        6.1409150000
  C        10.4989470000        3.4266870000        5.2100540000
  C        -5.9326790000        3.5931240000        7.9586910000
  C         2.8136840000        4.3074110000        6.6395670000
  C         1.8021000000        2.5801680000        8.5909250000
  C         6.1614730000        9.7262760000        4.6051290000
  C        -1.7300840000       -2.9447200000        6.5282340000
  C         8.7151750000        1.5883300000        0.0112620000
  C         1.8390400000       13.1474290000        0.0885870000
  C        10.9967290000        7.4345870000       -0.1203400000
  C        -2.4072200000        8.5110540000       -0.0635070000
  C         3.3505170000        5.2244920000        5.6056060000
  C        -1.1450180000       -2.0335150000        7.5402480000
  C         8.5285440000        3.0375930000       -0.0090850000
  C         1.7960860000       11.7116510000        0.0497010000
  C         9.7214410000        6.7729680000       -0.0672300000
  C        -1.0200150000        8.9738490000       -0.0463320000
  C         1.4829060000        4.4426040000        7.0787380000
  C         3.1252220000        2.4368270000        8.1546130000
  C         5.4241200000       10.8275940000        5.0587470000
  C        -0.9969320000       -4.0572320000        6.0734360000
  C         8.7846520000        0.9195150000        1.2397800000
  C        -2.5081420000        6.6152490000       11.9630650000
  C        11.6489580000        7.7305070000        1.1103030000
  C        -7.3513660000        1.0220250000       11.8219320000
  C         7.4413710000        9.4696440000        5.1127230000
  C        -3.0183170000       -2.6945520000        6.0174810000
  C         3.6326370000        3.2980560000        7.1812080000
  C         0.9806210000        3.5787050000        8.0528890000
  C         7.3617660000        0.4895280000       11.7535480000
  C        -3.0892010000        8.2549460000        1.1524790000
  C         4.4380030000       -6.3885600000       11.9106760000
  C         1.8336000000       13.8971630000        1.3187970000
  N         1.9163670000       13.2991920000        2.5559680000
  N         6.7825160000        0.2881570000       10.5174260000
  N         8.0012830000        4.7573400000        7.6391270000
  N         6.4187750000       -4.0420780000        9.2844230000
  O         7.2346650000        5.0226370000        5.0766040000
  O        -3.0539240000        1.4237030000        8.0201130000
  O         4.3452240000       -2.4564070000        9.6957080000
  O         0.4260540000        9.8718970000        3.4226800000
  O         1.3189610000        8.5130790000        5.0022280000
  O         2.7767760000       -2.2647240000        8.0780870000
  O         8.8243980000        4.7557010000        3.4898050000
  O        -3.9037660000        2.7797510000        9.6244670000
  O         6.1566970000        4.4091270000        2.5052180000
  O        -1.3679750000        1.9936580000       10.1096280000
  O         7.0178010000        6.7271700000        2.9531850000
  O        -3.0562790000        0.2084610000       10.6096570000
  O         1.6596210000       -2.8373120000       10.6743830000
  O         2.9694580000        9.1219370000        2.9092790000
  O         2.5316240000       -0.5433780000       10.2080480000
  O         1.3225750000        7.3069720000        2.3988930000
  O         4.5751670000        5.0876310000        5.2443370000
  O        -1.8361440000       -1.0225280000        7.9235160000
  O         4.0663910000       -3.6100490000       11.9620950000
  O         1.7435140000       11.0064290000        1.1443500000
  O         4.7710260000       -0.7954980000       11.9564180000
  O        -0.4275040000        9.0940250000        1.0940980000
  O         0.0288670000       -2.2880590000        7.9912580000
  O         2.5742950000        6.1196160000        5.1177960000
  O         9.1994190000        6.4527850000        1.0832950000
  O        -4.7481140000        1.9889750000       11.9440290000
  O         8.5002540000        3.6724200000        1.1132920000
  O        -2.5429750000        3.8492400000       12.0152310000
  O         4.2691710000        6.7355740000        3.0196680000
  O        -0.1470930000       -0.4360620000       10.0170300000
  O         6.7480570000        5.6000860000        0.0715300000
  O         2.0742010000        8.5415910000       -0.0654600000
  S         1.0833926807       -2.5049422661        3.3210530484
  S         2.3942465808       -0.1749442149        4.2881257711
  F         2.2401119703       -2.6427403348        0.9196562656
  F         0.1089113958       -3.2331891944        0.9330169261
  F         0.6527357009       -1.1097388145        1.0433110658
  F         4.6493857070        1.1998899845        4.5956292757
  F         4.9938759437       -0.7434161877        3.6122809809
  F         4.1014557893        0.9188404626        2.4944615832
  O        -7.2029189822       12.4306222726        3.7800046127
  O        -2.9427844391      -11.1610654382       16.6239642425
  O         2.5063508133       -0.1643972886        5.7458172632
  O         1.5080780814        0.7910859439        3.6509506623
  N         2.3953270281       -1.6720936063        3.6998186102
  C         1.0182160640       -2.3553851818        1.4533016761
  C         4.1311687979        0.3078806746        3.7030058506
     139
 i =       34, E =     -1553.2115531426
 Ti        -2.8683350000        2.1154420000       11.2652140000
 Ti         7.8027880000        5.3832100000        1.8443910000
 Ti         1.3525720000       -1.6735000000        9.4171130000
 Ti         2.5117920000        7.5426520000        3.6484140000
 Ti         1.4446720000        9.1874180000        1.7519890000
 Ti         3.2594580000       -1.8642570000       11.3595300000
 Ti        -1.8697820000        0.4160240000        9.3661400000
 Ti         5.8159840000        5.6142840000        3.7032810000
  H         3.7468960000        1.6526260000        8.5834390000
  H        -0.0029370000       -4.2340410000        6.4782570000
  H         4.4316300000       11.0106120000        4.6504380000
  H        -2.5036940000        6.0280510000       11.0484600000
  H         8.7487370000        1.5073420000        2.1552500000
  H        -6.8015420000        1.2218930000       10.9036440000
  H        11.1142460000        7.5038380000        2.0290890000
  H         4.3727210000       -5.8620200000       10.9626530000
  H        -2.5891430000        8.4561810000        2.0957030000
  H         4.6569660000        3.2041470000        6.8269530000
  H        -0.0452240000        3.6702680000        8.4060300000
  H        -3.5685920000       -1.8281670000        6.3785400000
  H         1.9853270000        7.5711820000       -0.1261220000
  H         5.9273850000        5.0774030000        0.1545840000
  H         3.7614260000       -2.5066170000        5.8447260000
  H         0.7455600000        9.3142620000        7.2794310000
  H        -6.0599130000        3.6612130000        9.0374900000
  H        10.6412470000        3.3933790000        4.1321340000
  H        -3.7285870000        2.2987080000        5.6888700000
  H        -1.7039720000       10.9033860000        4.1249230000
  H         1.7334520000       12.3009450000        2.6095370000
  H         8.6679850000       -0.5170630000        3.3558310000
  H         4.6066800000        7.2974510000        2.2978250000
  H         0.2154870000        0.1346200000       10.7192460000
  H         7.4153320000        0.2186850000        9.7283660000
  H         5.9554960000       -0.3025340000       10.4832990000
  H         7.8286560000        4.6709870000        8.6325370000
  H         7.2376510000        5.0115380000        7.0177090000
  H         7.0981770000       -4.7499770000        9.5343200000
  H         5.7840300000       -3.6950290000       10.0001570000
  H         1.4114850000        1.9115480000        9.3560850000
  H         0.8637590000        5.2270400000        6.6485740000
  H         5.7410230000        9.0693330000        3.8453710000
  H        -8.0103750000        8.6099930000        4.7446230000
  C         8.4223250000        4.6591910000        4.7037060000
  C        -3.8533280000        2.3467180000        8.4238990000
  C         3.9615950000       -2.5926300000        8.4765240000
  C         0.5135400000        9.4433570000        4.6213200000
  C         9.3443360000        4.0851920000        5.6931050000
  C        -4.8119260000        2.9400260000        7.4529070000
  C         4.9173150000       -3.1727480000        7.5232700000
  C        -0.3926610000       10.0575610000        5.6268840000
  C         9.1010420000        4.1497630000        7.1009990000
  C        -4.5992560000        2.8293420000        6.0635380000
  C         6.0750720000       -3.8937710000        7.9690880000
  C        -1.5160550000       10.7924690000        5.1890900000
  C        -0.1248110000        9.8942340000        6.9800950000
  C         4.6574050000       -3.0476440000        6.1409150000
  C        10.4989470000        3.4266870000        5.2100540000
  C        -5.9326790000        3.5931240000        7.9586910000
  C         2.8136840000        4.3074110000        6.6395670000
  C         1.8021000000        2.5801680000        8.5909250000
  C         6.1614730000        9.7262760000        4.6051290000
  C        -1.7300840000       -2.9447200000        6.5282340000
  C         8.7151750000        1.5883300000        0.0112620000
  C         1.8390400000       13.1474290000        0.0885870000
  C        10.9967290000        7.4345870000       -0.1203400000
  C        -2.4072200000        8.5110540000       -0.0635070000
  C         3.3505170000        5.2244920000        5.6056060000
  C        -1.1450180000       -2.0335150000        7.5402480000
  C         8.5285440000        3.0375930000       -0.0090850000
  C         1.7960860000       11.7116510000        0.0497010000
  C         9.7214410000        6.7729680000       -0.0672300000
  C        -1.0200150000        8.9738490000       -0.0463320000
  C         1.4829060000        4.4426040000        7.0787380000
  C         3.1252220000        2.4368270000        8.1546130000
  C         5.4241200000       10.8275940000        5.0587470000
  C        -0.9969320000       -4.0572320000        6.0734360000
  C         8.7846520000        0.9195150000        1.2397800000
  C        -2.5081420000        6.6152490000       11.9630650000
  C        11.6489580000        7.7305070000        1.1103030000
  C        -7.3513660000        1.0220250000       11.8219320000
  C         7.4413710000        9.4696440000        5.1127230000
  C        -3.0183170000       -2.6945520000        6.0174810000
  C         3.6326370000        3.2980560000        7.1812080000
  C         0.9806210000        3.5787050000        8.0528890000
  C         7.3617660000        0.4895280000       11.7535480000
  C        -3.0892010000        8.2549460000        1.1524790000
  C         4.4380030000       -6.3885600000       11.9106760000
  C         1.8336000000       13.8971630000        1.3187970000
  N         1.9163670000       13.2991920000        2.5559680000
  N         6.7825160000        0.2881570000       10.5174260000
  N         8.0012830000        4.7573400000        7.6391270000
  N         6.4187750000       -4.0420780000        9.2844230000
  O         7.2346650000        5.0226370000        5.0766040000
  O        -3.0539240000        1.4237030000        8.0201130000
  O         4.3452240000       -2.4564070000        9.6957080000
  O         0.4260540000        9.8718970000        3.4226800000
  O         1.3189610000        8.5130790000        5.0022280000
  O         2.7767760000       -2.2647240000        8.0780870000
  O         8.8243980000        4.7557010000        3.4898050000
  O        -3.9037660000        2.7797510000        9.6244670000
  O         6.1566970000        4.4091270000        2.5052180000
  O        -1.3679750000        1.9936580000       10.1096280000
  O         7.0178010000        6.7271700000        2.9531850000
  O        -3.0562790000        0.2084610000       10.6096570000
  O         1.6596210000       -2.8373120000       10.6743830000
  O         2.9694580000        9.1219370000        2.9092790000
  O         2.5316240000       -0.5433780000       10.2080480000
  O         1.3225750000        7.3069720000        2.3988930000
  O         4.5751670000        5.0876310000        5.2443370000
  O        -1.8361440000       -1.0225280000        7.9235160000
  O         4.0663910000       -3.6100490000       11.9620950000
  O         1.7435140000       11.0064290000        1.1443500000
  O         4.7710260000       -0.7954980000       11.9564180000
  O        -0.4275040000        9.0940250000        1.0940980000
  O         0.0288670000       -2.2880590000        7.9912580000
  O         2.5742950000        6.1196160000        5.1177960000
  O         9.1994190000        6.4527850000        1.0832950000
  O        -4.7481140000        1.9889750000       11.9440290000
  O         8.5002540000        3.6724200000        1.1132920000
  O        -2.5429750000        3.8492400000       12.0152310000
  O         4.2691710000        6.7355740000        3.0196680000
  O        -0.1470930000       -0.4360620000       10.0170300000
  O         6.7480570000        5.6000860000        0.0715300000
  O         2.0742010000        8.5415910000       -0.0654600000
  S         1.0813196078       -2.5040563219        3.3203104855
  S         2.3939819732       -0.1758532172        4.2883642952
  F         2.2396698525       -2.6424344265        0.9200602276
  F         0.1081029850       -3.2331519267        0.9321262933
  F         0.6519425722       -1.1095426986        1.0418277213
  F         4.6490332971        1.1993735517        4.5946434810
  F         4.9929276237       -0.7440438993        3.6126593017
  F         4.1002047584        0.9176279757        2.4934670289
  O        -7.2045050905       12.4338727528        3.7779180603
  O        -2.9480831392      -11.1608847504       16.6227346526
  O         2.5075091568       -0.1657338893        5.7457143255
  O         1.5073833698        0.7897491492        3.6518690220
  N         2.3943749549       -1.6733087125        3.7004167798
  C         1.0171946449       -2.3551148312        1.4524934223
  C         4.1299748455        0.3072062675        3.7024912601
     139
 i =       35, E =     -1553.2115551980
 Ti        -2.8683350000        2.1154420000       11.2652140000
 Ti         7.8027880000        5.3832100000        1.8443910000
 Ti         1.3525720000       -1.6735000000        9.4171130000
 Ti         2.5117920000        7.5426520000        3.6484140000
 Ti         1.4446720000        9.1874180000        1.7519890000
 Ti         3.2594580000       -1.8642570000       11.3595300000
 Ti        -1.8697820000        0.4160240000        9.3661400000
 Ti         5.8159840000        5.6142840000        3.7032810000
  H         3.7468960000        1.6526260000        8.5834390000
  H        -0.0029370000       -4.2340410000        6.4782570000
  H         4.4316300000       11.0106120000        4.6504380000
  H        -2.5036940000        6.0280510000       11.0484600000
  H         8.7487370000        1.5073420000        2.1552500000
  H        -6.8015420000        1.2218930000       10.9036440000
  H        11.1142460000        7.5038380000        2.0290890000
  H         4.3727210000       -5.8620200000       10.9626530000
  H        -2.5891430000        8.4561810000        2.0957030000
  H         4.6569660000        3.2041470000        6.8269530000
  H        -0.0452240000        3.6702680000        8.4060300000
  H        -3.5685920000       -1.8281670000        6.3785400000
  H         1.9853270000        7.5711820000       -0.1261220000
  H         5.9273850000        5.0774030000        0.1545840000
  H         3.7614260000       -2.5066170000        5.8447260000
  H         0.7455600000        9.3142620000        7.2794310000
  H        -6.0599130000        3.6612130000        9.0374900000
  H        10.6412470000        3.3933790000        4.1321340000
  H        -3.7285870000        2.2987080000        5.6888700000
  H        -1.7039720000       10.9033860000        4.1249230000
  H         1.7334520000       12.3009450000        2.6095370000
  H         8.6679850000       -0.5170630000        3.3558310000
  H         4.6066800000        7.2974510000        2.2978250000
  H         0.2154870000        0.1346200000       10.7192460000
  H         7.4153320000        0.2186850000        9.7283660000
  H         5.9554960000       -0.3025340000       10.4832990000
  H         7.8286560000        4.6709870000        8.6325370000
  H         7.2376510000        5.0115380000        7.0177090000
  H         7.0981770000       -4.7499770000        9.5343200000
  H         5.7840300000       -3.6950290000       10.0001570000
  H         1.4114850000        1.9115480000        9.3560850000
  H         0.8637590000        5.2270400000        6.6485740000
  H         5.7410230000        9.0693330000        3.8453710000
  H        -8.0103750000        8.6099930000        4.7446230000
  C         8.4223250000        4.6591910000        4.7037060000
  C        -3.8533280000        2.3467180000        8.4238990000
  C         3.9615950000       -2.5926300000        8.4765240000
  C         0.5135400000        9.4433570000        4.6213200000
  C         9.3443360000        4.0851920000        5.6931050000
  C        -4.8119260000        2.9400260000        7.4529070000
  C         4.9173150000       -3.1727480000        7.5232700000
  C        -0.3926610000       10.0575610000        5.6268840000
  C         9.1010420000        4.1497630000        7.1009990000
  C        -4.5992560000        2.8293420000        6.0635380000
  C         6.0750720000       -3.8937710000        7.9690880000
  C        -1.5160550000       10.7924690000        5.1890900000
  C        -0.1248110000        9.8942340000        6.9800950000
  C         4.6574050000       -3.0476440000        6.1409150000
  C        10.4989470000        3.4266870000        5.2100540000
  C        -5.9326790000        3.5931240000        7.9586910000
  C         2.8136840000        4.3074110000        6.6395670000
  C         1.8021000000        2.5801680000        8.5909250000
  C         6.1614730000        9.7262760000        4.6051290000
  C        -1.7300840000       -2.9447200000        6.5282340000
  C         8.7151750000        1.5883300000        0.0112620000
  C         1.8390400000       13.1474290000        0.0885870000
  C        10.9967290000        7.4345870000       -0.1203400000
  C        -2.4072200000        8.5110540000       -0.0635070000
  C         3.3505170000        5.2244920000        5.6056060000
  C        -1.1450180000       -2.0335150000        7.5402480000
  C         8.5285440000        3.0375930000       -0.0090850000
  C         1.7960860000       11.7116510000        0.0497010000
  C         9.7214410000        6.7729680000       -0.0672300000
  C        -1.0200150000        8.9738490000       -0.0463320000
  C         1.4829060000        4.4426040000        7.0787380000
  C         3.1252220000        2.4368270000        8.1546130000
  C         5.4241200000       10.8275940000        5.0587470000
  C        -0.9969320000       -4.0572320000        6.0734360000
  C         8.7846520000        0.9195150000        1.2397800000
  C        -2.5081420000        6.6152490000       11.9630650000
  C        11.6489580000        7.7305070000        1.1103030000
  C        -7.3513660000        1.0220250000       11.8219320000
  C         7.4413710000        9.4696440000        5.1127230000
  C        -3.0183170000       -2.6945520000        6.0174810000
  C         3.6326370000        3.2980560000        7.1812080000
  C         0.9806210000        3.5787050000        8.0528890000
  C         7.3617660000        0.4895280000       11.7535480000
  C        -3.0892010000        8.2549460000        1.1524790000
  C         4.4380030000       -6.3885600000       11.9106760000
  C         1.8336000000       13.8971630000        1.3187970000
  N         1.9163670000       13.2991920000        2.5559680000
  N         6.7825160000        0.2881570000       10.5174260000
  N         8.0012830000        4.7573400000        7.6391270000
  N         6.4187750000       -4.0420780000        9.2844230000
  O         7.2346650000        5.0226370000        5.0766040000
  O        -3.0539240000        1.4237030000        8.0201130000
  O         4.3452240000       -2.4564070000        9.6957080000
  O         0.4260540000        9.8718970000        3.4226800000
  O         1.3189610000        8.5130790000        5.0022280000
  O         2.7767760000       -2.2647240000        8.0780870000
  O         8.8243980000        4.7557010000        3.4898050000
  O        -3.9037660000        2.7797510000        9.6244670000
  O         6.1566970000        4.4091270000        2.5052180000
  O        -1.3679750000        1.9936580000       10.1096280000
  O         7.0178010000        6.7271700000        2.9531850000
  O        -3.0562790000        0.2084610000       10.6096570000
  O         1.6596210000       -2.8373120000       10.6743830000
  O         2.9694580000        9.1219370000        2.9092790000
  O         2.5316240000       -0.5433780000       10.2080480000
  O         1.3225750000        7.3069720000        2.3988930000
  O         4.5751670000        5.0876310000        5.2443370000
  O        -1.8361440000       -1.0225280000        7.9235160000
  O         4.0663910000       -3.6100490000       11.9620950000
  O         1.7435140000       11.0064290000        1.1443500000
  O         4.7710260000       -0.7954980000       11.9564180000
  O        -0.4275040000        9.0940250000        1.0940980000
  O         0.0288670000       -2.2880590000        7.9912580000
  O         2.5742950000        6.1196160000        5.1177960000
  O         9.1994190000        6.4527850000        1.0832950000
  O        -4.7481140000        1.9889750000       11.9440290000
  O         8.5002540000        3.6724200000        1.1132920000
  O        -2.5429750000        3.8492400000       12.0152310000
  O         4.2691710000        6.7355740000        3.0196680000
  O        -0.1470930000       -0.4360620000       10.0170300000
  O         6.7480570000        5.6000860000        0.0715300000
  O         2.0742010000        8.5415910000       -0.0654600000
  S         1.0814449567       -2.5055242891        3.3200047933
  S         2.3943884283       -0.1779220109        4.2891820137
  F         2.2398148706       -2.6421112389        0.9199518895
  F         0.1082127010       -3.2331612027        0.9325708051
  F         0.6518184391       -1.1095777273        1.0426490827
  F         4.6485407533        1.1990113810        4.5942099310
  F         4.9936301316       -0.7439360263        3.6121256003
  F         4.0994475156        0.9165697836        2.4927815985
  O        -7.2041052258       12.4327304638        3.7781291670
  O        -2.9485950847      -11.1626034778       16.6211833276
  O         2.5097035538       -0.1690338656        5.7464054297
  O         1.5068089526        0.7877146096        3.6541792906
  N         2.3947314286       -1.6752485295        3.7007365032
  C         1.0174019185       -2.3551561004        1.4526971461
  C         4.1297323405        0.3065239856        3.7021280212
     139
 i =       36, E =     -1553.2115586769
 Ti        -2.8683350000        2.1154420000       11.2652140000
 Ti         7.8027880000        5.3832100000        1.8443910000
 Ti         1.3525720000       -1.6735000000        9.4171130000
 Ti         2.5117920000        7.5426520000        3.6484140000
 Ti         1.4446720000        9.1874180000        1.7519890000
 Ti         3.2594580000       -1.8642570000       11.3595300000
 Ti        -1.8697820000        0.4160240000        9.3661400000
 Ti         5.8159840000        5.6142840000        3.7032810000
  H         3.7468960000        1.6526260000        8.5834390000
  H        -0.0029370000       -4.2340410000        6.4782570000
  H         4.4316300000       11.0106120000        4.6504380000
  H        -2.5036940000        6.0280510000       11.0484600000
  H         8.7487370000        1.5073420000        2.1552500000
  H        -6.8015420000        1.2218930000       10.9036440000
  H        11.1142460000        7.5038380000        2.0290890000
  H         4.3727210000       -5.8620200000       10.9626530000
  H        -2.5891430000        8.4561810000        2.0957030000
  H         4.6569660000        3.2041470000        6.8269530000
  H        -0.0452240000        3.6702680000        8.4060300000
  H        -3.5685920000       -1.8281670000        6.3785400000
  H         1.9853270000        7.5711820000       -0.1261220000
  H         5.9273850000        5.0774030000        0.1545840000
  H         3.7614260000       -2.5066170000        5.8447260000
  H         0.7455600000        9.3142620000        7.2794310000
  H        -6.0599130000        3.6612130000        9.0374900000
  H        10.6412470000        3.3933790000        4.1321340000
  H        -3.7285870000        2.2987080000        5.6888700000
  H        -1.7039720000       10.9033860000        4.1249230000
  H         1.7334520000       12.3009450000        2.6095370000
  H         8.6679850000       -0.5170630000        3.3558310000
  H         4.6066800000        7.2974510000        2.2978250000
  H         0.2154870000        0.1346200000       10.7192460000
  H         7.4153320000        0.2186850000        9.7283660000
  H         5.9554960000       -0.3025340000       10.4832990000
  H         7.8286560000        4.6709870000        8.6325370000
  H         7.2376510000        5.0115380000        7.0177090000
  H         7.0981770000       -4.7499770000        9.5343200000
  H         5.7840300000       -3.6950290000       10.0001570000
  H         1.4114850000        1.9115480000        9.3560850000
  H         0.8637590000        5.2270400000        6.6485740000
  H         5.7410230000        9.0693330000        3.8453710000
  H        -8.0103750000        8.6099930000        4.7446230000
  C         8.4223250000        4.6591910000        4.7037060000
  C        -3.8533280000        2.3467180000        8.4238990000
  C         3.9615950000       -2.5926300000        8.4765240000
  C         0.5135400000        9.4433570000        4.6213200000
  C         9.3443360000        4.0851920000        5.6931050000
  C        -4.8119260000        2.9400260000        7.4529070000
  C         4.9173150000       -3.1727480000        7.5232700000
  C        -0.3926610000       10.0575610000        5.6268840000
  C         9.1010420000        4.1497630000        7.1009990000
  C        -4.5992560000        2.8293420000        6.0635380000
  C         6.0750720000       -3.8937710000        7.9690880000
  C        -1.5160550000       10.7924690000        5.1890900000
  C        -0.1248110000        9.8942340000        6.9800950000
  C         4.6574050000       -3.0476440000        6.1409150000
  C        10.4989470000        3.4266870000        5.2100540000
  C        -5.9326790000        3.5931240000        7.9586910000
  C         2.8136840000        4.3074110000        6.6395670000
  C         1.8021000000        2.5801680000        8.5909250000
  C         6.1614730000        9.7262760000        4.6051290000
  C        -1.7300840000       -2.9447200000        6.5282340000
  C         8.7151750000        1.5883300000        0.0112620000
  C         1.8390400000       13.1474290000        0.0885870000
  C        10.9967290000        7.4345870000       -0.1203400000
  C        -2.4072200000        8.5110540000       -0.0635070000
  C         3.3505170000        5.2244920000        5.6056060000
  C        -1.1450180000       -2.0335150000        7.5402480000
  C         8.5285440000        3.0375930000       -0.0090850000
  C         1.7960860000       11.7116510000        0.0497010000
  C         9.7214410000        6.7729680000       -0.0672300000
  C        -1.0200150000        8.9738490000       -0.0463320000
  C         1.4829060000        4.4426040000        7.0787380000
  C         3.1252220000        2.4368270000        8.1546130000
  C         5.4241200000       10.8275940000        5.0587470000
  C        -0.9969320000       -4.0572320000        6.0734360000
  C         8.7846520000        0.9195150000        1.2397800000
  C        -2.5081420000        6.6152490000       11.9630650000
  C        11.6489580000        7.7305070000        1.1103030000
  C        -7.3513660000        1.0220250000       11.8219320000
  C         7.4413710000        9.4696440000        5.1127230000
  C        -3.0183170000       -2.6945520000        6.0174810000
  C         3.6326370000        3.2980560000        7.1812080000
  C         0.9806210000        3.5787050000        8.0528890000
  C         7.3617660000        0.4895280000       11.7535480000
  C        -3.0892010000        8.2549460000        1.1524790000
  C         4.4380030000       -6.3885600000       11.9106760000
  C         1.8336000000       13.8971630000        1.3187970000
  N         1.9163670000       13.2991920000        2.5559680000
  N         6.7825160000        0.2881570000       10.5174260000
  N         8.0012830000        4.7573400000        7.6391270000
  N         6.4187750000       -4.0420780000        9.2844230000
  O         7.2346650000        5.0226370000        5.0766040000
  O        -3.0539240000        1.4237030000        8.0201130000
  O         4.3452240000       -2.4564070000        9.6957080000
  O         0.4260540000        9.8718970000        3.4226800000
  O         1.3189610000        8.5130790000        5.0022280000
  O         2.7767760000       -2.2647240000        8.0780870000
  O         8.8243980000        4.7557010000        3.4898050000
  O        -3.9037660000        2.7797510000        9.6244670000
  O         6.1566970000        4.4091270000        2.5052180000
  O        -1.3679750000        1.9936580000       10.1096280000
  O         7.0178010000        6.7271700000        2.9531850000
  O        -3.0562790000        0.2084610000       10.6096570000
  O         1.6596210000       -2.8373120000       10.6743830000
  O         2.9694580000        9.1219370000        2.9092790000
  O         2.5316240000       -0.5433780000       10.2080480000
  O         1.3225750000        7.3069720000        2.3988930000
  O         4.5751670000        5.0876310000        5.2443370000
  O        -1.8361440000       -1.0225280000        7.9235160000
  O         4.0663910000       -3.6100490000       11.9620950000
  O         1.7435140000       11.0064290000        1.1443500000
  O         4.7710260000       -0.7954980000       11.9564180000
  O        -0.4275040000        9.0940250000        1.0940980000
  O         0.0288670000       -2.2880590000        7.9912580000
  O         2.5742950000        6.1196160000        5.1177960000
  O         9.1994190000        6.4527850000        1.0832950000
  O        -4.7481140000        1.9889750000       11.9440290000
  O         8.5002540000        3.6724200000        1.1132920000
  O        -2.5429750000        3.8492400000       12.0152310000
  O         4.2691710000        6.7355740000        3.0196680000
  O        -0.1470930000       -0.4360620000       10.0170300000
  O         6.7480570000        5.6000860000        0.0715300000
  O         2.0742010000        8.5415910000       -0.0654600000
  S         1.0808696426       -2.5078468202        3.3193122171
  S         2.3950705787       -0.1820917003        4.2908876305
  F         2.2398710933       -2.6418700773        0.9197755533
  F         0.1083412799       -3.2332882347        0.9324711882
  F         0.6518853781       -1.1097116975        1.0431360144
  F         4.6475256108        1.1986310677        4.5930160311
  F         4.9939805256       -0.7442560515        3.6111899133
  F         4.0977584440        0.9139425451        2.4909898480
  O        -7.2040429806       12.4310495761        3.7789029872
  O        -2.9503723795      -11.1654316964       16.6183232016
  O         2.5136492146       -0.1753355819        5.7479338626
  O         1.5054475571        0.7837809362        3.6588228615
  N         2.3949701529       -1.6791151721        3.7012973429
  C         1.0174137591       -2.3554208955        1.4526036421
  C         4.1291416097        0.3050610560        3.7013444618
     139
 i =       37, E =     -1553.2089836785
 Ti        -2.8683350000        2.1154420000       11.2652140000
 Ti         7.8027880000        5.3832100000        1.8443910000
 Ti         1.3525720000       -1.6735000000        9.4171130000
 Ti         2.5117920000        7.5426520000        3.6484140000
 Ti         1.4446720000        9.1874180000        1.7519890000
 Ti         3.2594580000       -1.8642570000       11.3595300000
 Ti        -1.8697820000        0.4160240000        9.3661400000
 Ti         5.8159840000        5.6142840000        3.7032810000
  H         3.7468960000        1.6526260000        8.5834390000
  H        -0.0029370000       -4.2340410000        6.4782570000
  H         4.4316300000       11.0106120000        4.6504380000
  H        -2.5036940000        6.0280510000       11.0484600000
  H         8.7487370000        1.5073420000        2.1552500000
  H        -6.8015420000        1.2218930000       10.9036440000
  H        11.1142460000        7.5038380000        2.0290890000
  H         4.3727210000       -5.8620200000       10.9626530000
  H        -2.5891430000        8.4561810000        2.0957030000
  H         4.6569660000        3.2041470000        6.8269530000
  H        -0.0452240000        3.6702680000        8.4060300000
  H        -3.5685920000       -1.8281670000        6.3785400000
  H         1.9853270000        7.5711820000       -0.1261220000
  H         5.9273850000        5.0774030000        0.1545840000
  H         3.7614260000       -2.5066170000        5.8447260000
  H         0.7455600000        9.3142620000        7.2794310000
  H        -6.0599130000        3.6612130000        9.0374900000
  H        10.6412470000        3.3933790000        4.1321340000
  H        -3.7285870000        2.2987080000        5.6888700000
  H        -1.7039720000       10.9033860000        4.1249230000
  H         1.7334520000       12.3009450000        2.6095370000
  H         8.6679850000       -0.5170630000        3.3558310000
  H         4.6066800000        7.2974510000        2.2978250000
  H         0.2154870000        0.1346200000       10.7192460000
  H         7.4153320000        0.2186850000        9.7283660000
  H         5.9554960000       -0.3025340000       10.4832990000
  H         7.8286560000        4.6709870000        8.6325370000
  H         7.2376510000        5.0115380000        7.0177090000
  H         7.0981770000       -4.7499770000        9.5343200000
  H         5.7840300000       -3.6950290000       10.0001570000
  H         1.4114850000        1.9115480000        9.3560850000
  H         0.8637590000        5.2270400000        6.6485740000
  H         5.7410230000        9.0693330000        3.8453710000
  H        -8.0103750000        8.6099930000        4.7446230000
  C         8.4223250000        4.6591910000        4.7037060000
  C        -3.8533280000        2.3467180000        8.4238990000
  C         3.9615950000       -2.5926300000        8.4765240000
  C         0.5135400000        9.4433570000        4.6213200000
  C         9.3443360000        4.0851920000        5.6931050000
  C        -4.8119260000        2.9400260000        7.4529070000
  C         4.9173150000       -3.1727480000        7.5232700000
  C        -0.3926610000       10.0575610000        5.6268840000
  C         9.1010420000        4.1497630000        7.1009990000
  C        -4.5992560000        2.8293420000        6.0635380000
  C         6.0750720000       -3.8937710000        7.9690880000
  C        -1.5160550000       10.7924690000        5.1890900000
  C        -0.1248110000        9.8942340000        6.9800950000
  C         4.6574050000       -3.0476440000        6.1409150000
  C        10.4989470000        3.4266870000        5.2100540000
  C        -5.9326790000        3.5931240000        7.9586910000
  C         2.8136840000        4.3074110000        6.6395670000
  C         1.8021000000        2.5801680000        8.5909250000
  C         6.1614730000        9.7262760000        4.6051290000
  C        -1.7300840000       -2.9447200000        6.5282340000
  C         8.7151750000        1.5883300000        0.0112620000
  C         1.8390400000       13.1474290000        0.0885870000
  C        10.9967290000        7.4345870000       -0.1203400000
  C        -2.4072200000        8.5110540000       -0.0635070000
  C         3.3505170000        5.2244920000        5.6056060000
  C        -1.1450180000       -2.0335150000        7.5402480000
  C         8.5285440000        3.0375930000       -0.0090850000
  C         1.7960860000       11.7116510000        0.0497010000
  C         9.7214410000        6.7729680000       -0.0672300000
  C        -1.0200150000        8.9738490000       -0.0463320000
  C         1.4829060000        4.4426040000        7.0787380000
  C         3.1252220000        2.4368270000        8.1546130000
  C         5.4241200000       10.8275940000        5.0587470000
  C        -0.9969320000       -4.0572320000        6.0734360000
  C         8.7846520000        0.9195150000        1.2397800000
  C        -2.5081420000        6.6152490000       11.9630650000
  C        11.6489580000        7.7305070000        1.1103030000
  C        -7.3513660000        1.0220250000       11.8219320000
  C         7.4413710000        9.4696440000        5.1127230000
  C        -3.0183170000       -2.6945520000        6.0174810000
  C         3.6326370000        3.2980560000        7.1812080000
  C         0.9806210000        3.5787050000        8.0528890000
  C         7.3617660000        0.4895280000       11.7535480000
  C        -3.0892010000        8.2549460000        1.1524790000
  C         4.4380030000       -6.3885600000       11.9106760000
  C         1.8336000000       13.8971630000        1.3187970000
  N         1.9163670000       13.2991920000        2.5559680000
  N         6.7825160000        0.2881570000       10.5174260000
  N         8.0012830000        4.7573400000        7.6391270000
  N         6.4187750000       -4.0420780000        9.2844230000
  O         7.2346650000        5.0226370000        5.0766040000
  O        -3.0539240000        1.4237030000        8.0201130000
  O         4.3452240000       -2.4564070000        9.6957080000
  O         0.4260540000        9.8718970000        3.4226800000
  O         1.3189610000        8.5130790000        5.0022280000
  O         2.7767760000       -2.2647240000        8.0780870000
  O         8.8243980000        4.7557010000        3.4898050000
  O        -3.9037660000        2.7797510000        9.6244670000
  O         6.1566970000        4.4091270000        2.5052180000
  O        -1.3679750000        1.9936580000       10.1096280000
  O         7.0178010000        6.7271700000        2.9531850000
  O        -3.0562790000        0.2084610000       10.6096570000
  O         1.6596210000       -2.8373120000       10.6743830000
  O         2.9694580000        9.1219370000        2.9092790000
  O         2.5316240000       -0.5433780000       10.2080480000
  O         1.3225750000        7.3069720000        2.3988930000
  O         4.5751670000        5.0876310000        5.2443370000
  O        -1.8361440000       -1.0225280000        7.9235160000
  O         4.0663910000       -3.6100490000       11.9620950000
  O         1.7435140000       11.0064290000        1.1443500000
  O         4.7710260000       -0.7954980000       11.9564180000
  O        -0.4275040000        9.0940250000        1.0940980000
  O         0.0288670000       -2.2880590000        7.9912580000
  O         2.5742950000        6.1196160000        5.1177960000
  O         9.1994190000        6.4527850000        1.0832950000
  O        -4.7481140000        1.9889750000       11.9440290000
  O         8.5002540000        3.6724200000        1.1132920000
  O        -2.5429750000        3.8492400000       12.0152310000
  O         4.2691710000        6.7355740000        3.0196680000
  O        -0.1470930000       -0.4360620000       10.0170300000
  O         6.7480570000        5.6000860000        0.0715300000
  O         2.0742010000        8.5415910000       -0.0654600000
  S         1.0566810513       -2.5985149382        3.2922374105
  S         2.4221349033       -0.3470546750        4.3578294503
  F         2.2407553128       -2.6334713485        0.9134013400
  F         0.1111020451       -3.2381062882        0.9283555028
  F         0.6534092828       -1.1144927943        1.0615110683
  F         4.6081837879        1.1817562196        4.5443000859
  F         5.0082403024       -0.7576145182        3.5767911767
  F         4.0280693354        0.8074357567        2.4180996066
  O        -7.2029179932       12.3676979791        3.8061213277
  O        -3.0255320879      -11.2767435438       16.5057046750
  O         2.6711310362       -0.4253355819        5.8075720101
  O         1.4517910514        0.6273022536        3.8416767042
  N         2.4039946200       -1.8318875518        3.7229057711
  C         1.0160684055       -2.3656064806        1.4482782910
  C         4.1048460637        0.2458561914        3.6692528015
     139
 i =       38, E =     -1553.2115666747
 Ti        -2.8683350000        2.1154420000       11.2652140000
 Ti         7.8027880000        5.3832100000        1.8443910000
 Ti         1.3525720000       -1.6735000000        9.4171130000
 Ti         2.5117920000        7.5426520000        3.6484140000
 Ti         1.4446720000        9.1874180000        1.7519890000
 Ti         3.2594580000       -1.8642570000       11.3595300000
 Ti        -1.8697820000        0.4160240000        9.3661400000
 Ti         5.8159840000        5.6142840000        3.7032810000
  H         3.7468960000        1.6526260000        8.5834390000
  H        -0.0029370000       -4.2340410000        6.4782570000
  H         4.4316300000       11.0106120000        4.6504380000
  H        -2.5036940000        6.0280510000       11.0484600000
  H         8.7487370000        1.5073420000        2.1552500000
  H        -6.8015420000        1.2218930000       10.9036440000
  H        11.1142460000        7.5038380000        2.0290890000
  H         4.3727210000       -5.8620200000       10.9626530000
  H        -2.5891430000        8.4561810000        2.0957030000
  H         4.6569660000        3.2041470000        6.8269530000
  H        -0.0452240000        3.6702680000        8.4060300000
  H        -3.5685920000       -1.8281670000        6.3785400000
  H         1.9853270000        7.5711820000       -0.1261220000
  H         5.9273850000        5.0774030000        0.1545840000
  H         3.7614260000       -2.5066170000        5.8447260000
  H         0.7455600000        9.3142620000        7.2794310000
  H        -6.0599130000        3.6612130000        9.0374900000
  H        10.6412470000        3.3933790000        4.1321340000
  H        -3.7285870000        2.2987080000        5.6888700000
  H        -1.7039720000       10.9033860000        4.1249230000
  H         1.7334520000       12.3009450000        2.6095370000
  H         8.6679850000       -0.5170630000        3.3558310000
  H         4.6066800000        7.2974510000        2.2978250000
  H         0.2154870000        0.1346200000       10.7192460000
  H         7.4153320000        0.2186850000        9.7283660000
  H         5.9554960000       -0.3025340000       10.4832990000
  H         7.8286560000        4.6709870000        8.6325370000
  H         7.2376510000        5.0115380000        7.0177090000
  H         7.0981770000       -4.7499770000        9.5343200000
  H         5.7840300000       -3.6950290000       10.0001570000
  H         1.4114850000        1.9115480000        9.3560850000
  H         0.8637590000        5.2270400000        6.6485740000
  H         5.7410230000        9.0693330000        3.8453710000
  H        -8.0103750000        8.6099930000        4.7446230000
  C         8.4223250000        4.6591910000        4.7037060000
  C        -3.8533280000        2.3467180000        8.4238990000
  C         3.9615950000       -2.5926300000        8.4765240000
  C         0.5135400000        9.4433570000        4.6213200000
  C         9.3443360000        4.0851920000        5.6931050000
  C        -4.8119260000        2.9400260000        7.4529070000
  C         4.9173150000       -3.1727480000        7.5232700000
  C        -0.3926610000       10.0575610000        5.6268840000
  C         9.1010420000        4.1497630000        7.1009990000
  C        -4.5992560000        2.8293420000        6.0635380000
  C         6.0750720000       -3.8937710000        7.9690880000
  C        -1.5160550000       10.7924690000        5.1890900000
  C        -0.1248110000        9.8942340000        6.9800950000
  C         4.6574050000       -3.0476440000        6.1409150000
  C        10.4989470000        3.4266870000        5.2100540000
  C        -5.9326790000        3.5931240000        7.9586910000
  C         2.8136840000        4.3074110000        6.6395670000
  C         1.8021000000        2.5801680000        8.5909250000
  C         6.1614730000        9.7262760000        4.6051290000
  C        -1.7300840000       -2.9447200000        6.5282340000
  C         8.7151750000        1.5883300000        0.0112620000
  C         1.8390400000       13.1474290000        0.0885870000
  C        10.9967290000        7.4345870000       -0.1203400000
  C        -2.4072200000        8.5110540000       -0.0635070000
  C         3.3505170000        5.2244920000        5.6056060000
  C        -1.1450180000       -2.0335150000        7.5402480000
  C         8.5285440000        3.0375930000       -0.0090850000
  C         1.7960860000       11.7116510000        0.0497010000
  C         9.7214410000        6.7729680000       -0.0672300000
  C        -1.0200150000        8.9738490000       -0.0463320000
  C         1.4829060000        4.4426040000        7.0787380000
  C         3.1252220000        2.4368270000        8.1546130000
  C         5.4241200000       10.8275940000        5.0587470000
  C        -0.9969320000       -4.0572320000        6.0734360000
  C         8.7846520000        0.9195150000        1.2397800000
  C        -2.5081420000        6.6152490000       11.9630650000
  C        11.6489580000        7.7305070000        1.1103030000
  C        -7.3513660000        1.0220250000       11.8219320000
  C         7.4413710000        9.4696440000        5.1127230000
  C        -3.0183170000       -2.6945520000        6.0174810000
  C         3.6326370000        3.2980560000        7.1812080000
  C         0.9806210000        3.5787050000        8.0528890000
  C         7.3617660000        0.4895280000       11.7535480000
  C        -3.0892010000        8.2549460000        1.1524790000
  C         4.4380030000       -6.3885600000       11.9106760000
  C         1.8336000000       13.8971630000        1.3187970000
  N         1.9163670000       13.2991920000        2.5559680000
  N         6.7825160000        0.2881570000       10.5174260000
  N         8.0012830000        4.7573400000        7.6391270000
  N         6.4187750000       -4.0420780000        9.2844230000
  O         7.2346650000        5.0226370000        5.0766040000
  O        -3.0539240000        1.4237030000        8.0201130000
  O         4.3452240000       -2.4564070000        9.6957080000
  O         0.4260540000        9.8718970000        3.4226800000
  O         1.3189610000        8.5130790000        5.0022280000
  O         2.7767760000       -2.2647240000        8.0780870000
  O         8.8243980000        4.7557010000        3.4898050000
  O        -3.9037660000        2.7797510000        9.6244670000
  O         6.1566970000        4.4091270000        2.5052180000
  O        -1.3679750000        1.9936580000       10.1096280000
  O         7.0178010000        6.7271700000        2.9531850000
  O        -3.0562790000        0.2084610000       10.6096570000
  O         1.6596210000       -2.8373120000       10.6743830000
  O         2.9694580000        9.1219370000        2.9092790000
  O         2.5316240000       -0.5433780000       10.2080480000
  O         1.3225750000        7.3069720000        2.3988930000
  O         4.5751670000        5.0876310000        5.2443370000
  O        -1.8361440000       -1.0225280000        7.9235160000
  O         4.0663910000       -3.6100490000       11.9620950000
  O         1.7435140000       11.0064290000        1.1443500000
  O         4.7710260000       -0.7954980000       11.9564180000
  O        -0.4275040000        9.0940250000        1.0940980000
  O         0.0288670000       -2.2880590000        7.9912580000
  O         2.5742950000        6.1196160000        5.1177960000
  O         9.1994190000        6.4527850000        1.0832950000
  O        -4.7481140000        1.9889750000       11.9440290000
  O         8.5002540000        3.6724200000        1.1132920000
  O        -2.5429750000        3.8492400000       12.0152310000
  O         4.2691710000        6.7355740000        3.0196680000
  O        -0.1470930000       -0.4360620000       10.0170300000
  O         6.7480570000        5.6000860000        0.0715300000
  O         2.0742010000        8.5415910000       -0.0654600000
  S         1.0793433149       -2.5105819500        3.3186926377
  S         2.3956326398       -0.1875486563        4.2928059279
  F         2.2394632282       -2.6418858066        0.9196173883
  F         0.1082059030       -3.2336001300        0.9321872132
  F         0.6519480639       -1.1099239072        1.0440007165
  F         4.6461843659        1.1980056049        4.5907092547
  F         4.9945842822       -0.7447989179        3.6100063265
  F         4.0952281936        0.9094042578        2.4883637333
  O        -7.2046373466       12.4291546312        3.7799211466
  O        -2.9534441083      -11.1685985870       16.6157994645
  O         2.5176483707       -0.1829458855        5.7496238853
  O         1.5037873317        0.7789579180        3.6642389486
  N         2.3947746128       -1.6838567291        3.7014503843
  C         1.0169174412       -2.3559532437        1.4525122572
  C         4.1283130871        0.3023839700        3.7001994805
     139
 i =       39, E =     -1553.2115974486
 Ti        -2.8683350000        2.1154420000       11.2652140000
 Ti         7.8027880000        5.3832100000        1.8443910000
 Ti         1.3525720000       -1.6735000000        9.4171130000
 Ti         2.5117920000        7.5426520000        3.6484140000
 Ti         1.4446720000        9.1874180000        1.7519890000
 Ti         3.2594580000       -1.8642570000       11.3595300000
 Ti        -1.8697820000        0.4160240000        9.3661400000
 Ti         5.8159840000        5.6142840000        3.7032810000
  H         3.7468960000        1.6526260000        8.5834390000
  H        -0.0029370000       -4.2340410000        6.4782570000
  H         4.4316300000       11.0106120000        4.6504380000
  H        -2.5036940000        6.0280510000       11.0484600000
  H         8.7487370000        1.5073420000        2.1552500000
  H        -6.8015420000        1.2218930000       10.9036440000
  H        11.1142460000        7.5038380000        2.0290890000
  H         4.3727210000       -5.8620200000       10.9626530000
  H        -2.5891430000        8.4561810000        2.0957030000
  H         4.6569660000        3.2041470000        6.8269530000
  H        -0.0452240000        3.6702680000        8.4060300000
  H        -3.5685920000       -1.8281670000        6.3785400000
  H         1.9853270000        7.5711820000       -0.1261220000
  H         5.9273850000        5.0774030000        0.1545840000
  H         3.7614260000       -2.5066170000        5.8447260000
  H         0.7455600000        9.3142620000        7.2794310000
  H        -6.0599130000        3.6612130000        9.0374900000
  H        10.6412470000        3.3933790000        4.1321340000
  H        -3.7285870000        2.2987080000        5.6888700000
  H        -1.7039720000       10.9033860000        4.1249230000
  H         1.7334520000       12.3009450000        2.6095370000
  H         8.6679850000       -0.5170630000        3.3558310000
  H         4.6066800000        7.2974510000        2.2978250000
  H         0.2154870000        0.1346200000       10.7192460000
  H         7.4153320000        0.2186850000        9.7283660000
  H         5.9554960000       -0.3025340000       10.4832990000
  H         7.8286560000        4.6709870000        8.6325370000
  H         7.2376510000        5.0115380000        7.0177090000
  H         7.0981770000       -4.7499770000        9.5343200000
  H         5.7840300000       -3.6950290000       10.0001570000
  H         1.4114850000        1.9115480000        9.3560850000
  H         0.8637590000        5.2270400000        6.6485740000
  H         5.7410230000        9.0693330000        3.8453710000
  H        -8.0103750000        8.6099930000        4.7446230000
  C         8.4223250000        4.6591910000        4.7037060000
  C        -3.8533280000        2.3467180000        8.4238990000
  C         3.9615950000       -2.5926300000        8.4765240000
  C         0.5135400000        9.4433570000        4.6213200000
  C         9.3443360000        4.0851920000        5.6931050000
  C        -4.8119260000        2.9400260000        7.4529070000
  C         4.9173150000       -3.1727480000        7.5232700000
  C        -0.3926610000       10.0575610000        5.6268840000
  C         9.1010420000        4.1497630000        7.1009990000
  C        -4.5992560000        2.8293420000        6.0635380000
  C         6.0750720000       -3.8937710000        7.9690880000
  C        -1.5160550000       10.7924690000        5.1890900000
  C        -0.1248110000        9.8942340000        6.9800950000
  C         4.6574050000       -3.0476440000        6.1409150000
  C        10.4989470000        3.4266870000        5.2100540000
  C        -5.9326790000        3.5931240000        7.9586910000
  C         2.8136840000        4.3074110000        6.6395670000
  C         1.8021000000        2.5801680000        8.5909250000
  C         6.1614730000        9.7262760000        4.6051290000
  C        -1.7300840000       -2.9447200000        6.5282340000
  C         8.7151750000        1.5883300000        0.0112620000
  C         1.8390400000       13.1474290000        0.0885870000
  C        10.9967290000        7.4345870000       -0.1203400000
  C        -2.4072200000        8.5110540000       -0.0635070000
  C         3.3505170000        5.2244920000        5.6056060000
  C        -1.1450180000       -2.0335150000        7.5402480000
  C         8.5285440000        3.0375930000       -0.0090850000
  C         1.7960860000       11.7116510000        0.0497010000
  C         9.7214410000        6.7729680000       -0.0672300000
  C        -1.0200150000        8.9738490000       -0.0463320000
  C         1.4829060000        4.4426040000        7.0787380000
  C         3.1252220000        2.4368270000        8.1546130000
  C         5.4241200000       10.8275940000        5.0587470000
  C        -0.9969320000       -4.0572320000        6.0734360000
  C         8.7846520000        0.9195150000        1.2397800000
  C        -2.5081420000        6.6152490000       11.9630650000
  C        11.6489580000        7.7305070000        1.1103030000
  C        -7.3513660000        1.0220250000       11.8219320000
  C         7.4413710000        9.4696440000        5.1127230000
  C        -3.0183170000       -2.6945520000        6.0174810000
  C         3.6326370000        3.2980560000        7.1812080000
  C         0.9806210000        3.5787050000        8.0528890000
  C         7.3617660000        0.4895280000       11.7535480000
  C        -3.0892010000        8.2549460000        1.1524790000
  C         4.4380030000       -6.3885600000       11.9106760000
  C         1.8336000000       13.8971630000        1.3187970000
  N         1.9163670000       13.2991920000        2.5559680000
  N         6.7825160000        0.2881570000       10.5174260000
  N         8.0012830000        4.7573400000        7.6391270000
  N         6.4187750000       -4.0420780000        9.2844230000
  O         7.2346650000        5.0226370000        5.0766040000
  O        -3.0539240000        1.4237030000        8.0201130000
  O         4.3452240000       -2.4564070000        9.6957080000
  O         0.4260540000        9.8718970000        3.4226800000
  O         1.3189610000        8.5130790000        5.0022280000
  O         2.7767760000       -2.2647240000        8.0780870000
  O         8.8243980000        4.7557010000        3.4898050000
  O        -3.9037660000        2.7797510000        9.6244670000
  O         6.1566970000        4.4091270000        2.5052180000
  O        -1.3679750000        1.9936580000       10.1096280000
  O         7.0178010000        6.7271700000        2.9531850000
  O        -3.0562790000        0.2084610000       10.6096570000
  O         1.6596210000       -2.8373120000       10.6743830000
  O         2.9694580000        9.1219370000        2.9092790000
  O         2.5316240000       -0.5433780000       10.2080480000
  O         1.3225750000        7.3069720000        2.3988930000
  O         4.5751670000        5.0876310000        5.2443370000
  O        -1.8361440000       -1.0225280000        7.9235160000
  O         4.0663910000       -3.6100490000       11.9620950000
  O         1.7435140000       11.0064290000        1.1443500000
  O         4.7710260000       -0.7954980000       11.9564180000
  O        -0.4275040000        9.0940250000        1.0940980000
  O         0.0288670000       -2.2880590000        7.9912580000
  O         2.5742950000        6.1196160000        5.1177960000
  O         9.1994190000        6.4527850000        1.0832950000
  O        -4.7481140000        1.9889750000       11.9440290000
  O         8.5002540000        3.6724200000        1.1132920000
  O        -2.5429750000        3.8492400000       12.0152310000
  O         4.2691710000        6.7355740000        3.0196680000
  O        -0.1470930000       -0.4360620000       10.0170300000
  O         6.7480570000        5.6000860000        0.0715300000
  O         2.0742010000        8.5415910000       -0.0654600000
  S         1.0773880984       -2.5154800250        3.3172123080
  S         2.3964891843       -0.1963510440        4.2961587571
  F         2.2393072516       -2.6413329104        0.9191669033
  F         0.1082350097       -3.2340304463        0.9318963638
  F         0.6518676663       -1.1102251735        1.0451847622
  F         4.6434627545        1.1971264567        4.5871767840
  F         4.9951374736       -0.7457871320        3.6080784758
  F         4.0905051371        0.9014134975        2.4833877620
  O        -7.2053080159       12.4253268675        3.7814839579
  O        -2.9575783408      -11.1743550737       16.6102747740
  O         2.5251493648       -0.1960609227        5.7524116793
  O         1.5006210266        0.7710345934        3.6741886037
  N         2.3944183248       -1.6916068564        3.7019452533
  C         1.0165611310       -2.3566144022        1.4521807383
  C         4.1265169514        0.2983762420        3.6981661797
     139
 i =       40, E =     -1553.2028492294
 Ti        -2.8683350000        2.1154420000       11.2652140000
 Ti         7.8027880000        5.3832100000        1.8443910000
 Ti         1.3525720000       -1.6735000000        9.4171130000
 Ti         2.5117920000        7.5426520000        3.6484140000
 Ti         1.4446720000        9.1874180000        1.7519890000
 Ti         3.2594580000       -1.8642570000       11.3595300000
 Ti        -1.8697820000        0.4160240000        9.3661400000
 Ti         5.8159840000        5.6142840000        3.7032810000
  H         3.7468960000        1.6526260000        8.5834390000
  H        -0.0029370000       -4.2340410000        6.4782570000
  H         4.4316300000       11.0106120000        4.6504380000
  H        -2.5036940000        6.0280510000       11.0484600000
  H         8.7487370000        1.5073420000        2.1552500000
  H        -6.8015420000        1.2218930000       10.9036440000
  H        11.1142460000        7.5038380000        2.0290890000
  H         4.3727210000       -5.8620200000       10.9626530000
  H        -2.5891430000        8.4561810000        2.0957030000
  H         4.6569660000        3.2041470000        6.8269530000
  H        -0.0452240000        3.6702680000        8.4060300000
  H        -3.5685920000       -1.8281670000        6.3785400000
  H         1.9853270000        7.5711820000       -0.1261220000
  H         5.9273850000        5.0774030000        0.1545840000
  H         3.7614260000       -2.5066170000        5.8447260000
  H         0.7455600000        9.3142620000        7.2794310000
  H        -6.0599130000        3.6612130000        9.0374900000
  H        10.6412470000        3.3933790000        4.1321340000
  H        -3.7285870000        2.2987080000        5.6888700000
  H        -1.7039720000       10.9033860000        4.1249230000
  H         1.7334520000       12.3009450000        2.6095370000
  H         8.6679850000       -0.5170630000        3.3558310000
  H         4.6066800000        7.2974510000        2.2978250000
  H         0.2154870000        0.1346200000       10.7192460000
  H         7.4153320000        0.2186850000        9.7283660000
  H         5.9554960000       -0.3025340000       10.4832990000
  H         7.8286560000        4.6709870000        8.6325370000
  H         7.2376510000        5.0115380000        7.0177090000
  H         7.0981770000       -4.7499770000        9.5343200000
  H         5.7840300000       -3.6950290000       10.0001570000
  H         1.4114850000        1.9115480000        9.3560850000
  H         0.8637590000        5.2270400000        6.6485740000
  H         5.7410230000        9.0693330000        3.8453710000
  H        -8.0103750000        8.6099930000        4.7446230000
  C         8.4223250000        4.6591910000        4.7037060000
  C        -3.8533280000        2.3467180000        8.4238990000
  C         3.9615950000       -2.5926300000        8.4765240000
  C         0.5135400000        9.4433570000        4.6213200000
  C         9.3443360000        4.0851920000        5.6931050000
  C        -4.8119260000        2.9400260000        7.4529070000
  C         4.9173150000       -3.1727480000        7.5232700000
  C        -0.3926610000       10.0575610000        5.6268840000
  C         9.1010420000        4.1497630000        7.1009990000
  C        -4.5992560000        2.8293420000        6.0635380000
  C         6.0750720000       -3.8937710000        7.9690880000
  C        -1.5160550000       10.7924690000        5.1890900000
  C        -0.1248110000        9.8942340000        6.9800950000
  C         4.6574050000       -3.0476440000        6.1409150000
  C        10.4989470000        3.4266870000        5.2100540000
  C        -5.9326790000        3.5931240000        7.9586910000
  C         2.8136840000        4.3074110000        6.6395670000
  C         1.8021000000        2.5801680000        8.5909250000
  C         6.1614730000        9.7262760000        4.6051290000
  C        -1.7300840000       -2.9447200000        6.5282340000
  C         8.7151750000        1.5883300000        0.0112620000
  C         1.8390400000       13.1474290000        0.0885870000
  C        10.9967290000        7.4345870000       -0.1203400000
  C        -2.4072200000        8.5110540000       -0.0635070000
  C         3.3505170000        5.2244920000        5.6056060000
  C        -1.1450180000       -2.0335150000        7.5402480000
  C         8.5285440000        3.0375930000       -0.0090850000
  C         1.7960860000       11.7116510000        0.0497010000
  C         9.7214410000        6.7729680000       -0.0672300000
  C        -1.0200150000        8.9738490000       -0.0463320000
  C         1.4829060000        4.4426040000        7.0787380000
  C         3.1252220000        2.4368270000        8.1546130000
  C         5.4241200000       10.8275940000        5.0587470000
  C        -0.9969320000       -4.0572320000        6.0734360000
  C         8.7846520000        0.9195150000        1.2397800000
  C        -2.5081420000        6.6152490000       11.9630650000
  C        11.6489580000        7.7305070000        1.1103030000
  C        -7.3513660000        1.0220250000       11.8219320000
  C         7.4413710000        9.4696440000        5.1127230000
  C        -3.0183170000       -2.6945520000        6.0174810000
  C         3.6326370000        3.2980560000        7.1812080000
  C         0.9806210000        3.5787050000        8.0528890000
  C         7.3617660000        0.4895280000       11.7535480000
  C        -3.0892010000        8.2549460000        1.1524790000
  C         4.4380030000       -6.3885600000       11.9106760000
  C         1.8336000000       13.8971630000        1.3187970000
  N         1.9163670000       13.2991920000        2.5559680000
  N         6.7825160000        0.2881570000       10.5174260000
  N         8.0012830000        4.7573400000        7.6391270000
  N         6.4187750000       -4.0420780000        9.2844230000
  O         7.2346650000        5.0226370000        5.0766040000
  O        -3.0539240000        1.4237030000        8.0201130000
  O         4.3452240000       -2.4564070000        9.6957080000
  O         0.4260540000        9.8718970000        3.4226800000
  O         1.3189610000        8.5130790000        5.0022280000
  O         2.7767760000       -2.2647240000        8.0780870000
  O         8.8243980000        4.7557010000        3.4898050000
  O        -3.9037660000        2.7797510000        9.6244670000
  O         6.1566970000        4.4091270000        2.5052180000
  O        -1.3679750000        1.9936580000       10.1096280000
  O         7.0178010000        6.7271700000        2.9531850000
  O        -3.0562790000        0.2084610000       10.6096570000
  O         1.6596210000       -2.8373120000       10.6743830000
  O         2.9694580000        9.1219370000        2.9092790000
  O         2.5316240000       -0.5433780000       10.2080480000
  O         1.3225750000        7.3069720000        2.3988930000
  O         4.5751670000        5.0876310000        5.2443370000
  O        -1.8361440000       -1.0225280000        7.9235160000
  O         4.0663910000       -3.6100490000       11.9620950000
  O         1.7435140000       11.0064290000        1.1443500000
  O         4.7710260000       -0.7954980000       11.9564180000
  O        -0.4275040000        9.0940250000        1.0940980000
  O         0.0288670000       -2.2880590000        7.9912580000
  O         2.5742950000        6.1196160000        5.1177960000
  O         9.1994190000        6.4527850000        1.0832950000
  O        -4.7481140000        1.9889750000       11.9440290000
  O         8.5002540000        3.6724200000        1.1132920000
  O        -2.5429750000        3.8492400000       12.0152310000
  O         4.2691710000        6.7355740000        3.0196680000
  O        -0.1470930000       -0.4360620000       10.0170300000
  O         6.7480570000        5.6000860000        0.0715300000
  O         2.0742010000        8.5415910000       -0.0654600000
  S         1.0105276375       -2.5620722907        3.2856424748
  S         2.3704828551       -0.2743596626        4.3149314896
  F         2.2354147539       -2.6251086314        0.9110230051
  F         0.1167552965       -3.2572587432        0.9314286389
  F         0.6325884115       -1.1235869454        1.0487478883
  F         4.6057891261        1.2030283898        4.5329538775
  F         4.9974726802       -0.7420844576        3.5939810206
  F         3.9895079810        0.6514134975        2.3114225395
  O        -7.2556732534       12.3848842890        3.8180998511
  O        -3.0268454965      -11.2239019720       16.5586697585
  O         2.5663089759       -0.3479472310        5.7675091110
  O         1.4276395578        0.7285356022        3.7848375512
  N         2.3364176344       -1.7464997984        3.6827006035
  C         1.0015887764       -2.3686926695        1.4354632350
  C         4.0906898376        0.2397062879        3.6582516948
     139
 i =       41, E =     -1553.2116005042
 Ti        -2.8683350000        2.1154420000       11.2652140000
 Ti         7.8027880000        5.3832100000        1.8443910000
 Ti         1.3525720000       -1.6735000000        9.4171130000
 Ti         2.5117920000        7.5426520000        3.6484140000
 Ti         1.4446720000        9.1874180000        1.7519890000
 Ti         3.2594580000       -1.8642570000       11.3595300000
 Ti        -1.8697820000        0.4160240000        9.3661400000
 Ti         5.8159840000        5.6142840000        3.7032810000
  H         3.7468960000        1.6526260000        8.5834390000
  H        -0.0029370000       -4.2340410000        6.4782570000
  H         4.4316300000       11.0106120000        4.6504380000
  H        -2.5036940000        6.0280510000       11.0484600000
  H         8.7487370000        1.5073420000        2.1552500000
  H        -6.8015420000        1.2218930000       10.9036440000
  H        11.1142460000        7.5038380000        2.0290890000
  H         4.3727210000       -5.8620200000       10.9626530000
  H        -2.5891430000        8.4561810000        2.0957030000
  H         4.6569660000        3.2041470000        6.8269530000
  H        -0.0452240000        3.6702680000        8.4060300000
  H        -3.5685920000       -1.8281670000        6.3785400000
  H         1.9853270000        7.5711820000       -0.1261220000
  H         5.9273850000        5.0774030000        0.1545840000
  H         3.7614260000       -2.5066170000        5.8447260000
  H         0.7455600000        9.3142620000        7.2794310000
  H        -6.0599130000        3.6612130000        9.0374900000
  H        10.6412470000        3.3933790000        4.1321340000
  H        -3.7285870000        2.2987080000        5.6888700000
  H        -1.7039720000       10.9033860000        4.1249230000
  H         1.7334520000       12.3009450000        2.6095370000
  H         8.6679850000       -0.5170630000        3.3558310000
  H         4.6066800000        7.2974510000        2.2978250000
  H         0.2154870000        0.1346200000       10.7192460000
  H         7.4153320000        0.2186850000        9.7283660000
  H         5.9554960000       -0.3025340000       10.4832990000
  H         7.8286560000        4.6709870000        8.6325370000
  H         7.2376510000        5.0115380000        7.0177090000
  H         7.0981770000       -4.7499770000        9.5343200000
  H         5.7840300000       -3.6950290000       10.0001570000
  H         1.4114850000        1.9115480000        9.3560850000
  H         0.8637590000        5.2270400000        6.6485740000
  H         5.7410230000        9.0693330000        3.8453710000
  H        -8.0103750000        8.6099930000        4.7446230000
  C         8.4223250000        4.6591910000        4.7037060000
  C        -3.8533280000        2.3467180000        8.4238990000
  C         3.9615950000       -2.5926300000        8.4765240000
  C         0.5135400000        9.4433570000        4.6213200000
  C         9.3443360000        4.0851920000        5.6931050000
  C        -4.8119260000        2.9400260000        7.4529070000
  C         4.9173150000       -3.1727480000        7.5232700000
  C        -0.3926610000       10.0575610000        5.6268840000
  C         9.1010420000        4.1497630000        7.1009990000
  C        -4.5992560000        2.8293420000        6.0635380000
  C         6.0750720000       -3.8937710000        7.9690880000
  C        -1.5160550000       10.7924690000        5.1890900000
  C        -0.1248110000        9.8942340000        6.9800950000
  C         4.6574050000       -3.0476440000        6.1409150000
  C        10.4989470000        3.4266870000        5.2100540000
  C        -5.9326790000        3.5931240000        7.9586910000
  C         2.8136840000        4.3074110000        6.6395670000
  C         1.8021000000        2.5801680000        8.5909250000
  C         6.1614730000        9.7262760000        4.6051290000
  C        -1.7300840000       -2.9447200000        6.5282340000
  C         8.7151750000        1.5883300000        0.0112620000
  C         1.8390400000       13.1474290000        0.0885870000
  C        10.9967290000        7.4345870000       -0.1203400000
  C        -2.4072200000        8.5110540000       -0.0635070000
  C         3.3505170000        5.2244920000        5.6056060000
  C        -1.1450180000       -2.0335150000        7.5402480000
  C         8.5285440000        3.0375930000       -0.0090850000
  C         1.7960860000       11.7116510000        0.0497010000
  C         9.7214410000        6.7729680000       -0.0672300000
  C        -1.0200150000        8.9738490000       -0.0463320000
  C         1.4829060000        4.4426040000        7.0787380000
  C         3.1252220000        2.4368270000        8.1546130000
  C         5.4241200000       10.8275940000        5.0587470000
  C        -0.9969320000       -4.0572320000        6.0734360000
  C         8.7846520000        0.9195150000        1.2397800000
  C        -2.5081420000        6.6152490000       11.9630650000
  C        11.6489580000        7.7305070000        1.1103030000
  C        -7.3513660000        1.0220250000       11.8219320000
  C         7.4413710000        9.4696440000        5.1127230000
  C        -3.0183170000       -2.6945520000        6.0174810000
  C         3.6326370000        3.2980560000        7.1812080000
  C         0.9806210000        3.5787050000        8.0528890000
  C         7.3617660000        0.4895280000       11.7535480000
  C        -3.0892010000        8.2549460000        1.1524790000
  C         4.4380030000       -6.3885600000       11.9106760000
  C         1.8336000000       13.8971630000        1.3187970000
  N         1.9163670000       13.2991920000        2.5559680000
  N         6.7825160000        0.2881570000       10.5174260000
  N         8.0012830000        4.7573400000        7.6391270000
  N         6.4187750000       -4.0420780000        9.2844230000
  O         7.2346650000        5.0226370000        5.0766040000
  O        -3.0539240000        1.4237030000        8.0201130000
  O         4.3452240000       -2.4564070000        9.6957080000
  O         0.4260540000        9.8718970000        3.4226800000
  O         1.3189610000        8.5130790000        5.0022280000
  O         2.7767760000       -2.2647240000        8.0780870000
  O         8.8243980000        4.7557010000        3.4898050000
  O        -3.9037660000        2.7797510000        9.6244670000
  O         6.1566970000        4.4091270000        2.5052180000
  O        -1.3679750000        1.9936580000       10.1096280000
  O         7.0178010000        6.7271700000        2.9531850000
  O        -3.0562790000        0.2084610000       10.6096570000
  O         1.6596210000       -2.8373120000       10.6743830000
  O         2.9694580000        9.1219370000        2.9092790000
  O         2.5316240000       -0.5433780000       10.2080480000
  O         1.3225750000        7.3069720000        2.3988930000
  O         4.5751670000        5.0876310000        5.2443370000
  O        -1.8361440000       -1.0225280000        7.9235160000
  O         4.0663910000       -3.6100490000       11.9620950000
  O         1.7435140000       11.0064290000        1.1443500000
  O         4.7710260000       -0.7954980000       11.9564180000
  O        -0.4275040000        9.0940250000        1.0940980000
  O         0.0288670000       -2.2880590000        7.9912580000
  O         2.5742950000        6.1196160000        5.1177960000
  O         9.1994190000        6.4527850000        1.0832950000
  O        -4.7481140000        1.9889750000       11.9440290000
  O         8.5002540000        3.6724200000        1.1132920000
  O        -2.5429750000        3.8492400000       12.0152310000
  O         4.2691710000        6.7355740000        3.0196680000
  O        -0.1470930000       -0.4360620000       10.0170300000
  O         6.7480570000        5.6000860000        0.0715300000
  O         2.0742010000        8.5415910000       -0.0654600000
  S         1.0720052620       -2.5214127712        3.3154049795
  S         2.3946655412       -0.2071512941        4.3000654182
  F         2.2390085142       -2.6391880719        0.9185702069
  F         0.1092933506       -3.2355612821        0.9319270255
  F         0.6519531809       -1.1108475374        1.0465392313
  F         4.6382927740        1.1977017151        4.5787019207
  F         4.9962978722       -0.7477079999        3.6075749829
  F         4.0804921541        0.8750953832        2.4669514712
  O        -7.2081173259       12.4225671759        3.7843546129
  O        -2.9665479849      -11.1815446243       16.6049153912
  O         2.5312223992       -0.2122941657        5.7558393258
  O         1.4946087501        0.7627777524        3.6862201988
  N         2.3911885420       -1.7007688338        3.7021101685
  C         1.0157465245       -2.3576549140        1.4517997571
  C         4.1224247709        0.2902188708        3.6933703354
     139
 i =       42, E =     -1553.2113164647
 Ti        -2.8683350000        2.1154420000       11.2652140000
 Ti         7.8027880000        5.3832100000        1.8443910000
 Ti         1.3525720000       -1.6735000000        9.4171130000
 Ti         2.5117920000        7.5426520000        3.6484140000
 Ti         1.4446720000        9.1874180000        1.7519890000
 Ti         3.2594580000       -1.8642570000       11.3595300000
 Ti        -1.8697820000        0.4160240000        9.3661400000
 Ti         5.8159840000        5.6142840000        3.7032810000
  H         3.7468960000        1.6526260000        8.5834390000
  H        -0.0029370000       -4.2340410000        6.4782570000
  H         4.4316300000       11.0106120000        4.6504380000
  H        -2.5036940000        6.0280510000       11.0484600000
  H         8.7487370000        1.5073420000        2.1552500000
  H        -6.8015420000        1.2218930000       10.9036440000
  H        11.1142460000        7.5038380000        2.0290890000
  H         4.3727210000       -5.8620200000       10.9626530000
  H        -2.5891430000        8.4561810000        2.0957030000
  H         4.6569660000        3.2041470000        6.8269530000
  H        -0.0452240000        3.6702680000        8.4060300000
  H        -3.5685920000       -1.8281670000        6.3785400000
  H         1.9853270000        7.5711820000       -0.1261220000
  H         5.9273850000        5.0774030000        0.1545840000
  H         3.7614260000       -2.5066170000        5.8447260000
  H         0.7455600000        9.3142620000        7.2794310000
  H        -6.0599130000        3.6612130000        9.0374900000
  H        10.6412470000        3.3933790000        4.1321340000
  H        -3.7285870000        2.2987080000        5.6888700000
  H        -1.7039720000       10.9033860000        4.1249230000
  H         1.7334520000       12.3009450000        2.6095370000
  H         8.6679850000       -0.5170630000        3.3558310000
  H         4.6066800000        7.2974510000        2.2978250000
  H         0.2154870000        0.1346200000       10.7192460000
  H         7.4153320000        0.2186850000        9.7283660000
  H         5.9554960000       -0.3025340000       10.4832990000
  H         7.8286560000        4.6709870000        8.6325370000
  H         7.2376510000        5.0115380000        7.0177090000
  H         7.0981770000       -4.7499770000        9.5343200000
  H         5.7840300000       -3.6950290000       10.0001570000
  H         1.4114850000        1.9115480000        9.3560850000
  H         0.8637590000        5.2270400000        6.6485740000
  H         5.7410230000        9.0693330000        3.8453710000
  H        -8.0103750000        8.6099930000        4.7446230000
  C         8.4223250000        4.6591910000        4.7037060000
  C        -3.8533280000        2.3467180000        8.4238990000
  C         3.9615950000       -2.5926300000        8.4765240000
  C         0.5135400000        9.4433570000        4.6213200000
  C         9.3443360000        4.0851920000        5.6931050000
  C        -4.8119260000        2.9400260000        7.4529070000
  C         4.9173150000       -3.1727480000        7.5232700000
  C        -0.3926610000       10.0575610000        5.6268840000
  C         9.1010420000        4.1497630000        7.1009990000
  C        -4.5992560000        2.8293420000        6.0635380000
  C         6.0750720000       -3.8937710000        7.9690880000
  C        -1.5160550000       10.7924690000        5.1890900000
  C        -0.1248110000        9.8942340000        6.9800950000
  C         4.6574050000       -3.0476440000        6.1409150000
  C        10.4989470000        3.4266870000        5.2100540000
  C        -5.9326790000        3.5931240000        7.9586910000
  C         2.8136840000        4.3074110000        6.6395670000
  C         1.8021000000        2.5801680000        8.5909250000
  C         6.1614730000        9.7262760000        4.6051290000
  C        -1.7300840000       -2.9447200000        6.5282340000
  C         8.7151750000        1.5883300000        0.0112620000
  C         1.8390400000       13.1474290000        0.0885870000
  C        10.9967290000        7.4345870000       -0.1203400000
  C        -2.4072200000        8.5110540000       -0.0635070000
  C         3.3505170000        5.2244920000        5.6056060000
  C        -1.1450180000       -2.0335150000        7.5402480000
  C         8.5285440000        3.0375930000       -0.0090850000
  C         1.7960860000       11.7116510000        0.0497010000
  C         9.7214410000        6.7729680000       -0.0672300000
  C        -1.0200150000        8.9738490000       -0.0463320000
  C         1.4829060000        4.4426040000        7.0787380000
  C         3.1252220000        2.4368270000        8.1546130000
  C         5.4241200000       10.8275940000        5.0587470000
  C        -0.9969320000       -4.0572320000        6.0734360000
  C         8.7846520000        0.9195150000        1.2397800000
  C        -2.5081420000        6.6152490000       11.9630650000
  C        11.6489580000        7.7305070000        1.1103030000
  C        -7.3513660000        1.0220250000       11.8219320000
  C         7.4413710000        9.4696440000        5.1127230000
  C        -3.0183170000       -2.6945520000        6.0174810000
  C         3.6326370000        3.2980560000        7.1812080000
  C         0.9806210000        3.5787050000        8.0528890000
  C         7.3617660000        0.4895280000       11.7535480000
  C        -3.0892010000        8.2549460000        1.1524790000
  C         4.4380030000       -6.3885600000       11.9106760000
  C         1.8336000000       13.8971630000        1.3187970000
  N         1.9163670000       13.2991920000        2.5559680000
  N         6.7825160000        0.2881570000       10.5174260000
  N         8.0012830000        4.7573400000        7.6391270000
  N         6.4187750000       -4.0420780000        9.2844230000
  O         7.2346650000        5.0226370000        5.0766040000
  O        -3.0539240000        1.4237030000        8.0201130000
  O         4.3452240000       -2.4564070000        9.6957080000
  O         0.4260540000        9.8718970000        3.4226800000
  O         1.3189610000        8.5130790000        5.0022280000
  O         2.7767760000       -2.2647240000        8.0780870000
  O         8.8243980000        4.7557010000        3.4898050000
  O        -3.9037660000        2.7797510000        9.6244670000
  O         6.1566970000        4.4091270000        2.5052180000
  O        -1.3679750000        1.9936580000       10.1096280000
  O         7.0178010000        6.7271700000        2.9531850000
  O        -3.0562790000        0.2084610000       10.6096570000
  O         1.6596210000       -2.8373120000       10.6743830000
  O         2.9694580000        9.1219370000        2.9092790000
  O         2.5316240000       -0.5433780000       10.2080480000
  O         1.3225750000        7.3069720000        2.3988930000
  O         4.5751670000        5.0876310000        5.2443370000
  O        -1.8361440000       -1.0225280000        7.9235160000
  O         4.0663910000       -3.6100490000       11.9620950000
  O         1.7435140000       11.0064290000        1.1443500000
  O         4.7710260000       -0.7954980000       11.9564180000
  O        -0.4275040000        9.0940250000        1.0940980000
  O         0.0288670000       -2.2880590000        7.9912580000
  O         2.5742950000        6.1196160000        5.1177960000
  O         9.1994190000        6.4527850000        1.0832950000
  O        -4.7481140000        1.9889750000       11.9440290000
  O         8.5002540000        3.6724200000        1.1132920000
  O        -2.5429750000        3.8492400000       12.0152310000
  O         4.2691710000        6.7355740000        3.0196680000
  O        -0.1470930000       -0.4360620000       10.0170300000
  O         6.7480570000        5.6000860000        0.0715300000
  O         2.0742010000        8.5415910000       -0.0654600000
  S         1.0910723144       -2.5082385420        3.3208701722
  S         2.3990700477       -0.1760337249        4.2910074351
  F         2.2409146427       -2.6472501795        0.9201939157
  F         0.1062703653       -3.2290617852        0.9323319344
  F         0.6537799911       -1.1092931689        1.0415164325
  F         4.6557876596        1.1941814251        4.6027861769
  F         4.9921057212       -0.7425426142        3.6111893166
  F         4.1059386642        0.9434660002        2.5064077337
  O        -7.1980817250       12.4221708410        3.7779142427
  O        -2.9319101105      -11.1643256581       16.6183057611
  O         2.5166525927       -0.1686345505        5.7483910192
  O         1.5059449612        0.7873181360        3.6605618733
  N         2.4006161544       -1.6742335802        3.7027599617
  C         1.0202630101       -2.3547093522        1.4534103307
  C         4.1334401825        0.3142535498        3.7044982352
     139
 i =       43, E =     -1553.2115983134
 Ti        -2.8683350000        2.1154420000       11.2652140000
 Ti         7.8027880000        5.3832100000        1.8443910000
 Ti         1.3525720000       -1.6735000000        9.4171130000
 Ti         2.5117920000        7.5426520000        3.6484140000
 Ti         1.4446720000        9.1874180000        1.7519890000
 Ti         3.2594580000       -1.8642570000       11.3595300000
 Ti        -1.8697820000        0.4160240000        9.3661400000
 Ti         5.8159840000        5.6142840000        3.7032810000
  H         3.7468960000        1.6526260000        8.5834390000
  H        -0.0029370000       -4.2340410000        6.4782570000
  H         4.4316300000       11.0106120000        4.6504380000
  H        -2.5036940000        6.0280510000       11.0484600000
  H         8.7487370000        1.5073420000        2.1552500000
  H        -6.8015420000        1.2218930000       10.9036440000
  H        11.1142460000        7.5038380000        2.0290890000
  H         4.3727210000       -5.8620200000       10.9626530000
  H        -2.5891430000        8.4561810000        2.0957030000
  H         4.6569660000        3.2041470000        6.8269530000
  H        -0.0452240000        3.6702680000        8.4060300000
  H        -3.5685920000       -1.8281670000        6.3785400000
  H         1.9853270000        7.5711820000       -0.1261220000
  H         5.9273850000        5.0774030000        0.1545840000
  H         3.7614260000       -2.5066170000        5.8447260000
  H         0.7455600000        9.3142620000        7.2794310000
  H        -6.0599130000        3.6612130000        9.0374900000
  H        10.6412470000        3.3933790000        4.1321340000
  H        -3.7285870000        2.2987080000        5.6888700000
  H        -1.7039720000       10.9033860000        4.1249230000
  H         1.7334520000       12.3009450000        2.6095370000
  H         8.6679850000       -0.5170630000        3.3558310000
  H         4.6066800000        7.2974510000        2.2978250000
  H         0.2154870000        0.1346200000       10.7192460000
  H         7.4153320000        0.2186850000        9.7283660000
  H         5.9554960000       -0.3025340000       10.4832990000
  H         7.8286560000        4.6709870000        8.6325370000
  H         7.2376510000        5.0115380000        7.0177090000
  H         7.0981770000       -4.7499770000        9.5343200000
  H         5.7840300000       -3.6950290000       10.0001570000
  H         1.4114850000        1.9115480000        9.3560850000
  H         0.8637590000        5.2270400000        6.6485740000
  H         5.7410230000        9.0693330000        3.8453710000
  H        -8.0103750000        8.6099930000        4.7446230000
  C         8.4223250000        4.6591910000        4.7037060000
  C        -3.8533280000        2.3467180000        8.4238990000
  C         3.9615950000       -2.5926300000        8.4765240000
  C         0.5135400000        9.4433570000        4.6213200000
  C         9.3443360000        4.0851920000        5.6931050000
  C        -4.8119260000        2.9400260000        7.4529070000
  C         4.9173150000       -3.1727480000        7.5232700000
  C        -0.3926610000       10.0575610000        5.6268840000
  C         9.1010420000        4.1497630000        7.1009990000
  C        -4.5992560000        2.8293420000        6.0635380000
  C         6.0750720000       -3.8937710000        7.9690880000
  C        -1.5160550000       10.7924690000        5.1890900000
  C        -0.1248110000        9.8942340000        6.9800950000
  C         4.6574050000       -3.0476440000        6.1409150000
  C        10.4989470000        3.4266870000        5.2100540000
  C        -5.9326790000        3.5931240000        7.9586910000
  C         2.8136840000        4.3074110000        6.6395670000
  C         1.8021000000        2.5801680000        8.5909250000
  C         6.1614730000        9.7262760000        4.6051290000
  C        -1.7300840000       -2.9447200000        6.5282340000
  C         8.7151750000        1.5883300000        0.0112620000
  C         1.8390400000       13.1474290000        0.0885870000
  C        10.9967290000        7.4345870000       -0.1203400000
  C        -2.4072200000        8.5110540000       -0.0635070000
  C         3.3505170000        5.2244920000        5.6056060000
  C        -1.1450180000       -2.0335150000        7.5402480000
  C         8.5285440000        3.0375930000       -0.0090850000
  C         1.7960860000       11.7116510000        0.0497010000
  C         9.7214410000        6.7729680000       -0.0672300000
  C        -1.0200150000        8.9738490000       -0.0463320000
  C         1.4829060000        4.4426040000        7.0787380000
  C         3.1252220000        2.4368270000        8.1546130000
  C         5.4241200000       10.8275940000        5.0587470000
  C        -0.9969320000       -4.0572320000        6.0734360000
  C         8.7846520000        0.9195150000        1.2397800000
  C        -2.5081420000        6.6152490000       11.9630650000
  C        11.6489580000        7.7305070000        1.1103030000
  C        -7.3513660000        1.0220250000       11.8219320000
  C         7.4413710000        9.4696440000        5.1127230000
  C        -3.0183170000       -2.6945520000        6.0174810000
  C         3.6326370000        3.2980560000        7.1812080000
  C         0.9806210000        3.5787050000        8.0528890000
  C         7.3617660000        0.4895280000       11.7535480000
  C        -3.0892010000        8.2549460000        1.1524790000
  C         4.4380030000       -6.3885600000       11.9106760000
  C         1.8336000000       13.8971630000        1.3187970000
  N         1.9163670000       13.2991920000        2.5559680000
  N         6.7825160000        0.2881570000       10.5174260000
  N         8.0012830000        4.7573400000        7.6391270000
  N         6.4187750000       -4.0420780000        9.2844230000
  O         7.2346650000        5.0226370000        5.0766040000
  O        -3.0539240000        1.4237030000        8.0201130000
  O         4.3452240000       -2.4564070000        9.6957080000
  O         0.4260540000        9.8718970000        3.4226800000
  O         1.3189610000        8.5130790000        5.0022280000
  O         2.7767760000       -2.2647240000        8.0780870000
  O         8.8243980000        4.7557010000        3.4898050000
  O        -3.9037660000        2.7797510000        9.6244670000
  O         6.1566970000        4.4091270000        2.5052180000
  O        -1.3679750000        1.9936580000       10.1096280000
  O         7.0178010000        6.7271700000        2.9531850000
  O        -3.0562790000        0.2084610000       10.6096570000
  O         1.6596210000       -2.8373120000       10.6743830000
  O         2.9694580000        9.1219370000        2.9092790000
  O         2.5316240000       -0.5433780000       10.2080480000
  O         1.3225750000        7.3069720000        2.3988930000
  O         4.5751670000        5.0876310000        5.2443370000
  O        -1.8361440000       -1.0225280000        7.9235160000
  O         4.0663910000       -3.6100490000       11.9620950000
  O         1.7435140000       11.0064290000        1.1443500000
  O         4.7710260000       -0.7954980000       11.9564180000
  O        -0.4275040000        9.0940250000        1.0940980000
  O         0.0288670000       -2.2880590000        7.9912580000
  O         2.5742950000        6.1196160000        5.1177960000
  O         9.1994190000        6.4527850000        1.0832950000
  O        -4.7481140000        1.9889750000       11.9440290000
  O         8.5002540000        3.6724200000        1.1132920000
  O        -2.5429750000        3.8492400000       12.0152310000
  O         4.2691710000        6.7355740000        3.0196680000
  O        -0.1470930000       -0.4360620000       10.0170300000
  O         6.7480570000        5.6000860000        0.0715300000
  O         2.0742010000        8.5415910000       -0.0654600000
  S         1.0793948131       -2.5140578223        3.3176934506
  S         2.3952502927       -0.1907110942        4.2949852814
  F         2.2394161761       -2.6414882337        0.9189550038
  F         0.1084531518       -3.2344579408        0.9319280057
  F         0.6518532104       -1.1103517828        1.0444897328
  F         4.6464339564        1.1986781953        4.5885756580
  F         4.9937244325       -0.7445859668        3.6103417490
  F         4.0906445389        0.9029205890        2.4828478957
  O        -7.2054383033       12.4227375499        3.7806648311
  O        -2.9501342423      -11.1716853433       16.6127908291
  O         2.5222315250       -0.1901703802        5.7515532027
  O         1.4991377570        0.7765797929        3.6729179847
  N         2.3935852960       -1.6856048157        3.7005947046
  C         1.0167728579       -2.3567262953        1.4521520836
  C         4.1269819250        0.3015253150        3.6987148753
     139
 i =       44, E =     -1553.2115992026
 Ti        -2.8683350000        2.1154420000       11.2652140000
 Ti         7.8027880000        5.3832100000        1.8443910000
 Ti         1.3525720000       -1.6735000000        9.4171130000
 Ti         2.5117920000        7.5426520000        3.6484140000
 Ti         1.4446720000        9.1874180000        1.7519890000
 Ti         3.2594580000       -1.8642570000       11.3595300000
 Ti        -1.8697820000        0.4160240000        9.3661400000
 Ti         5.8159840000        5.6142840000        3.7032810000
  H         3.7468960000        1.6526260000        8.5834390000
  H        -0.0029370000       -4.2340410000        6.4782570000
  H         4.4316300000       11.0106120000        4.6504380000
  H        -2.5036940000        6.0280510000       11.0484600000
  H         8.7487370000        1.5073420000        2.1552500000
  H        -6.8015420000        1.2218930000       10.9036440000
  H        11.1142460000        7.5038380000        2.0290890000
  H         4.3727210000       -5.8620200000       10.9626530000
  H        -2.5891430000        8.4561810000        2.0957030000
  H         4.6569660000        3.2041470000        6.8269530000
  H        -0.0452240000        3.6702680000        8.4060300000
  H        -3.5685920000       -1.8281670000        6.3785400000
  H         1.9853270000        7.5711820000       -0.1261220000
  H         5.9273850000        5.0774030000        0.1545840000
  H         3.7614260000       -2.5066170000        5.8447260000
  H         0.7455600000        9.3142620000        7.2794310000
  H        -6.0599130000        3.6612130000        9.0374900000
  H        10.6412470000        3.3933790000        4.1321340000
  H        -3.7285870000        2.2987080000        5.6888700000
  H        -1.7039720000       10.9033860000        4.1249230000
  H         1.7334520000       12.3009450000        2.6095370000
  H         8.6679850000       -0.5170630000        3.3558310000
  H         4.6066800000        7.2974510000        2.2978250000
  H         0.2154870000        0.1346200000       10.7192460000
  H         7.4153320000        0.2186850000        9.7283660000
  H         5.9554960000       -0.3025340000       10.4832990000
  H         7.8286560000        4.6709870000        8.6325370000
  H         7.2376510000        5.0115380000        7.0177090000
  H         7.0981770000       -4.7499770000        9.5343200000
  H         5.7840300000       -3.6950290000       10.0001570000
  H         1.4114850000        1.9115480000        9.3560850000
  H         0.8637590000        5.2270400000        6.6485740000
  H         5.7410230000        9.0693330000        3.8453710000
  H        -8.0103750000        8.6099930000        4.7446230000
  C         8.4223250000        4.6591910000        4.7037060000
  C        -3.8533280000        2.3467180000        8.4238990000
  C         3.9615950000       -2.5926300000        8.4765240000
  C         0.5135400000        9.4433570000        4.6213200000
  C         9.3443360000        4.0851920000        5.6931050000
  C        -4.8119260000        2.9400260000        7.4529070000
  C         4.9173150000       -3.1727480000        7.5232700000
  C        -0.3926610000       10.0575610000        5.6268840000
  C         9.1010420000        4.1497630000        7.1009990000
  C        -4.5992560000        2.8293420000        6.0635380000
  C         6.0750720000       -3.8937710000        7.9690880000
  C        -1.5160550000       10.7924690000        5.1890900000
  C        -0.1248110000        9.8942340000        6.9800950000
  C         4.6574050000       -3.0476440000        6.1409150000
  C        10.4989470000        3.4266870000        5.2100540000
  C        -5.9326790000        3.5931240000        7.9586910000
  C         2.8136840000        4.3074110000        6.6395670000
  C         1.8021000000        2.5801680000        8.5909250000
  C         6.1614730000        9.7262760000        4.6051290000
  C        -1.7300840000       -2.9447200000        6.5282340000
  C         8.7151750000        1.5883300000        0.0112620000
  C         1.8390400000       13.1474290000        0.0885870000
  C        10.9967290000        7.4345870000       -0.1203400000
  C        -2.4072200000        8.5110540000       -0.0635070000
  C         3.3505170000        5.2244920000        5.6056060000
  C        -1.1450180000       -2.0335150000        7.5402480000
  C         8.5285440000        3.0375930000       -0.0090850000
  C         1.7960860000       11.7116510000        0.0497010000
  C         9.7214410000        6.7729680000       -0.0672300000
  C        -1.0200150000        8.9738490000       -0.0463320000
  C         1.4829060000        4.4426040000        7.0787380000
  C         3.1252220000        2.4368270000        8.1546130000
  C         5.4241200000       10.8275940000        5.0587470000
  C        -0.9969320000       -4.0572320000        6.0734360000
  C         8.7846520000        0.9195150000        1.2397800000
  C        -2.5081420000        6.6152490000       11.9630650000
  C        11.6489580000        7.7305070000        1.1103030000
  C        -7.3513660000        1.0220250000       11.8219320000
  C         7.4413710000        9.4696440000        5.1127230000
  C        -3.0183170000       -2.6945520000        6.0174810000
  C         3.6326370000        3.2980560000        7.1812080000
  C         0.9806210000        3.5787050000        8.0528890000
  C         7.3617660000        0.4895280000       11.7535480000
  C        -3.0892010000        8.2549460000        1.1524790000
  C         4.4380030000       -6.3885600000       11.9106760000
  C         1.8336000000       13.8971630000        1.3187970000
  N         1.9163670000       13.2991920000        2.5559680000
  N         6.7825160000        0.2881570000       10.5174260000
  N         8.0012830000        4.7573400000        7.6391270000
  N         6.4187750000       -4.0420780000        9.2844230000
  O         7.2346650000        5.0226370000        5.0766040000
  O        -3.0539240000        1.4237030000        8.0201130000
  O         4.3452240000       -2.4564070000        9.6957080000
  O         0.4260540000        9.8718970000        3.4226800000
  O         1.3189610000        8.5130790000        5.0022280000
  O         2.7767760000       -2.2647240000        8.0780870000
  O         8.8243980000        4.7557010000        3.4898050000
  O        -3.9037660000        2.7797510000        9.6244670000
  O         6.1566970000        4.4091270000        2.5052180000
  O        -1.3679750000        1.9936580000       10.1096280000
  O         7.0178010000        6.7271700000        2.9531850000
  O        -3.0562790000        0.2084610000       10.6096570000
  O         1.6596210000       -2.8373120000       10.6743830000
  O         2.9694580000        9.1219370000        2.9092790000
  O         2.5316240000       -0.5433780000       10.2080480000
  O         1.3225750000        7.3069720000        2.3988930000
  O         4.5751670000        5.0876310000        5.2443370000
  O        -1.8361440000       -1.0225280000        7.9235160000
  O         4.0663910000       -3.6100490000       11.9620950000
  O         1.7435140000       11.0064290000        1.1443500000
  O         4.7710260000       -0.7954980000       11.9564180000
  O        -0.4275040000        9.0940250000        1.0940980000
  O         0.0288670000       -2.2880590000        7.9912580000
  O         2.5742950000        6.1196160000        5.1177960000
  O         9.1994190000        6.4527850000        1.0832950000
  O        -4.7481140000        1.9889750000       11.9440290000
  O         8.5002540000        3.6724200000        1.1132920000
  O        -2.5429750000        3.8492400000       12.0152310000
  O         4.2691710000        6.7355740000        3.0196680000
  O        -0.1470930000       -0.4360620000       10.0170300000
  O         6.7480570000        5.6000860000        0.0715300000
  O         2.0742010000        8.5415910000       -0.0654600000
  S         1.0706333107       -2.5197047833        3.3154275472
  S         2.3949469911       -0.2074123100        4.3008074632
  F         2.2390508817       -2.6412812386        0.9188802209
  F         0.1082762597       -3.2334562248        0.9317696850
  F         0.6523794734       -1.1106739858        1.0446537349
  F         4.6374490499        1.1944010791        4.5782812792
  F         4.9973715848       -0.7485207539        3.6057507553
  F         4.0797672004        0.8751639547        2.4646542489
  O        -7.2090428411       12.4270188423        3.7821427649
  O        -2.9711033016      -11.1801220795       16.6065773121
  O         2.5328923492       -0.2112517466        5.7566738686
  O         1.4946478555        0.7618181798        3.6863868883
  N         2.3912061414       -1.7020304459        3.7045491157
  C         1.0163417811       -2.3569597177        1.4516822667
  C         4.1222037988        0.2890442163        3.6905779647
     139
 i =       45, E =     -1553.2116659210
 Ti        -2.8683350000        2.1154420000       11.2652140000
 Ti         7.8027880000        5.3832100000        1.8443910000
 Ti         1.3525720000       -1.6735000000        9.4171130000
 Ti         2.5117920000        7.5426520000        3.6484140000
 Ti         1.4446720000        9.1874180000        1.7519890000
 Ti         3.2594580000       -1.8642570000       11.3595300000
 Ti        -1.8697820000        0.4160240000        9.3661400000
 Ti         5.8159840000        5.6142840000        3.7032810000
  H         3.7468960000        1.6526260000        8.5834390000
  H        -0.0029370000       -4.2340410000        6.4782570000
  H         4.4316300000       11.0106120000        4.6504380000
  H        -2.5036940000        6.0280510000       11.0484600000
  H         8.7487370000        1.5073420000        2.1552500000
  H        -6.8015420000        1.2218930000       10.9036440000
  H        11.1142460000        7.5038380000        2.0290890000
  H         4.3727210000       -5.8620200000       10.9626530000
  H        -2.5891430000        8.4561810000        2.0957030000
  H         4.6569660000        3.2041470000        6.8269530000
  H        -0.0452240000        3.6702680000        8.4060300000
  H        -3.5685920000       -1.8281670000        6.3785400000
  H         1.9853270000        7.5711820000       -0.1261220000
  H         5.9273850000        5.0774030000        0.1545840000
  H         3.7614260000       -2.5066170000        5.8447260000
  H         0.7455600000        9.3142620000        7.2794310000
  H        -6.0599130000        3.6612130000        9.0374900000
  H        10.6412470000        3.3933790000        4.1321340000
  H        -3.7285870000        2.2987080000        5.6888700000
  H        -1.7039720000       10.9033860000        4.1249230000
  H         1.7334520000       12.3009450000        2.6095370000
  H         8.6679850000       -0.5170630000        3.3558310000
  H         4.6066800000        7.2974510000        2.2978250000
  H         0.2154870000        0.1346200000       10.7192460000
  H         7.4153320000        0.2186850000        9.7283660000
  H         5.9554960000       -0.3025340000       10.4832990000
  H         7.8286560000        4.6709870000        8.6325370000
  H         7.2376510000        5.0115380000        7.0177090000
  H         7.0981770000       -4.7499770000        9.5343200000
  H         5.7840300000       -3.6950290000       10.0001570000
  H         1.4114850000        1.9115480000        9.3560850000
  H         0.8637590000        5.2270400000        6.6485740000
  H         5.7410230000        9.0693330000        3.8453710000
  H        -8.0103750000        8.6099930000        4.7446230000
  C         8.4223250000        4.6591910000        4.7037060000
  C        -3.8533280000        2.3467180000        8.4238990000
  C         3.9615950000       -2.5926300000        8.4765240000
  C         0.5135400000        9.4433570000        4.6213200000
  C         9.3443360000        4.0851920000        5.6931050000
  C        -4.8119260000        2.9400260000        7.4529070000
  C         4.9173150000       -3.1727480000        7.5232700000
  C        -0.3926610000       10.0575610000        5.6268840000
  C         9.1010420000        4.1497630000        7.1009990000
  C        -4.5992560000        2.8293420000        6.0635380000
  C         6.0750720000       -3.8937710000        7.9690880000
  C        -1.5160550000       10.7924690000        5.1890900000
  C        -0.1248110000        9.8942340000        6.9800950000
  C         4.6574050000       -3.0476440000        6.1409150000
  C        10.4989470000        3.4266870000        5.2100540000
  C        -5.9326790000        3.5931240000        7.9586910000
  C         2.8136840000        4.3074110000        6.6395670000
  C         1.8021000000        2.5801680000        8.5909250000
  C         6.1614730000        9.7262760000        4.6051290000
  C        -1.7300840000       -2.9447200000        6.5282340000
  C         8.7151750000        1.5883300000        0.0112620000
  C         1.8390400000       13.1474290000        0.0885870000
  C        10.9967290000        7.4345870000       -0.1203400000
  C        -2.4072200000        8.5110540000       -0.0635070000
  C         3.3505170000        5.2244920000        5.6056060000
  C        -1.1450180000       -2.0335150000        7.5402480000
  C         8.5285440000        3.0375930000       -0.0090850000
  C         1.7960860000       11.7116510000        0.0497010000
  C         9.7214410000        6.7729680000       -0.0672300000
  C        -1.0200150000        8.9738490000       -0.0463320000
  C         1.4829060000        4.4426040000        7.0787380000
  C         3.1252220000        2.4368270000        8.1546130000
  C         5.4241200000       10.8275940000        5.0587470000
  C        -0.9969320000       -4.0572320000        6.0734360000
  C         8.7846520000        0.9195150000        1.2397800000
  C        -2.5081420000        6.6152490000       11.9630650000
  C        11.6489580000        7.7305070000        1.1103030000
  C        -7.3513660000        1.0220250000       11.8219320000
  C         7.4413710000        9.4696440000        5.1127230000
  C        -3.0183170000       -2.6945520000        6.0174810000
  C         3.6326370000        3.2980560000        7.1812080000
  C         0.9806210000        3.5787050000        8.0528890000
  C         7.3617660000        0.4895280000       11.7535480000
  C        -3.0892010000        8.2549460000        1.1524790000
  C         4.4380030000       -6.3885600000       11.9106760000
  C         1.8336000000       13.8971630000        1.3187970000
  N         1.9163670000       13.2991920000        2.5559680000
  N         6.7825160000        0.2881570000       10.5174260000
  N         8.0012830000        4.7573400000        7.6391270000
  N         6.4187750000       -4.0420780000        9.2844230000
  O         7.2346650000        5.0226370000        5.0766040000
  O        -3.0539240000        1.4237030000        8.0201130000
  O         4.3452240000       -2.4564070000        9.6957080000
  O         0.4260540000        9.8718970000        3.4226800000
  O         1.3189610000        8.5130790000        5.0022280000
  O         2.7767760000       -2.2647240000        8.0780870000
  O         8.8243980000        4.7557010000        3.4898050000
  O        -3.9037660000        2.7797510000        9.6244670000
  O         6.1566970000        4.4091270000        2.5052180000
  O        -1.3679750000        1.9936580000       10.1096280000
  O         7.0178010000        6.7271700000        2.9531850000
  O        -3.0562790000        0.2084610000       10.6096570000
  O         1.6596210000       -2.8373120000       10.6743830000
  O         2.9694580000        9.1219370000        2.9092790000
  O         2.5316240000       -0.5433780000       10.2080480000
  O         1.3225750000        7.3069720000        2.3988930000
  O         4.5751670000        5.0876310000        5.2443370000
  O        -1.8361440000       -1.0225280000        7.9235160000
  O         4.0663910000       -3.6100490000       11.9620950000
  O         1.7435140000       11.0064290000        1.1443500000
  O         4.7710260000       -0.7954980000       11.9564180000
  O        -0.4275040000        9.0940250000        1.0940980000
  O         0.0288670000       -2.2880590000        7.9912580000
  O         2.5742950000        6.1196160000        5.1177960000
  O         9.1994190000        6.4527850000        1.0832950000
  O        -4.7481140000        1.9889750000       11.9440290000
  O         8.5002540000        3.6724200000        1.1132920000
  O        -2.5429750000        3.8492400000       12.0152310000
  O         4.2691710000        6.7355740000        3.0196680000
  O        -0.1470930000       -0.4360620000       10.0170300000
  O         6.7480570000        5.6000860000        0.0715300000
  O         2.0742010000        8.5415910000       -0.0654600000
  S         1.0772371861       -2.5165652667        3.3170967278
  S         2.3952372493       -0.1963974848        4.2972226467
  F         2.2393400850       -2.6414426863        0.9191672636
  F         0.1082333051       -3.2338471190        0.9319088752
  F         0.6522453535       -1.1103515398        1.0448804801
  F         4.6433125362        1.1973672372        4.5845167566
  F         4.9944675608       -0.7462499845        3.6090895524
  F         4.0865218415        0.8927037203        2.4759040950
  O        -7.2061458910       12.4228141243        3.7812389317
  O        -2.9555890363      -11.1750773290       16.6104179300
  O         2.5269502291       -0.1977510660        5.7535234465
  O         1.4972526357        0.7716556292        3.6785692474
  N         2.3930386436       -1.6910757645        3.7020300436
  C         1.0167053257       -2.3568213702        1.4521837511
  C         4.1251591635        0.2972449044        3.6956683713
     139
 i =       46, E =     -1553.2116859189
 Ti        -2.8683350000        2.1154420000       11.2652140000
 Ti         7.8027880000        5.3832100000        1.8443910000
 Ti         1.3525720000       -1.6735000000        9.4171130000
 Ti         2.5117920000        7.5426520000        3.6484140000
 Ti         1.4446720000        9.1874180000        1.7519890000
 Ti         3.2594580000       -1.8642570000       11.3595300000
 Ti        -1.8697820000        0.4160240000        9.3661400000
 Ti         5.8159840000        5.6142840000        3.7032810000
  H         3.7468960000        1.6526260000        8.5834390000
  H        -0.0029370000       -4.2340410000        6.4782570000
  H         4.4316300000       11.0106120000        4.6504380000
  H        -2.5036940000        6.0280510000       11.0484600000
  H         8.7487370000        1.5073420000        2.1552500000
  H        -6.8015420000        1.2218930000       10.9036440000
  H        11.1142460000        7.5038380000        2.0290890000
  H         4.3727210000       -5.8620200000       10.9626530000
  H        -2.5891430000        8.4561810000        2.0957030000
  H         4.6569660000        3.2041470000        6.8269530000
  H        -0.0452240000        3.6702680000        8.4060300000
  H        -3.5685920000       -1.8281670000        6.3785400000
  H         1.9853270000        7.5711820000       -0.1261220000
  H         5.9273850000        5.0774030000        0.1545840000
  H         3.7614260000       -2.5066170000        5.8447260000
  H         0.7455600000        9.3142620000        7.2794310000
  H        -6.0599130000        3.6612130000        9.0374900000
  H        10.6412470000        3.3933790000        4.1321340000
  H        -3.7285870000        2.2987080000        5.6888700000
  H        -1.7039720000       10.9033860000        4.1249230000
  H         1.7334520000       12.3009450000        2.6095370000
  H         8.6679850000       -0.5170630000        3.3558310000
  H         4.6066800000        7.2974510000        2.2978250000
  H         0.2154870000        0.1346200000       10.7192460000
  H         7.4153320000        0.2186850000        9.7283660000
  H         5.9554960000       -0.3025340000       10.4832990000
  H         7.8286560000        4.6709870000        8.6325370000
  H         7.2376510000        5.0115380000        7.0177090000
  H         7.0981770000       -4.7499770000        9.5343200000
  H         5.7840300000       -3.6950290000       10.0001570000
  H         1.4114850000        1.9115480000        9.3560850000
  H         0.8637590000        5.2270400000        6.6485740000
  H         5.7410230000        9.0693330000        3.8453710000
  H        -8.0103750000        8.6099930000        4.7446230000
  C         8.4223250000        4.6591910000        4.7037060000
  C        -3.8533280000        2.3467180000        8.4238990000
  C         3.9615950000       -2.5926300000        8.4765240000
  C         0.5135400000        9.4433570000        4.6213200000
  C         9.3443360000        4.0851920000        5.6931050000
  C        -4.8119260000        2.9400260000        7.4529070000
  C         4.9173150000       -3.1727480000        7.5232700000
  C        -0.3926610000       10.0575610000        5.6268840000
  C         9.1010420000        4.1497630000        7.1009990000
  C        -4.5992560000        2.8293420000        6.0635380000
  C         6.0750720000       -3.8937710000        7.9690880000
  C        -1.5160550000       10.7924690000        5.1890900000
  C        -0.1248110000        9.8942340000        6.9800950000
  C         4.6574050000       -3.0476440000        6.1409150000
  C        10.4989470000        3.4266870000        5.2100540000
  C        -5.9326790000        3.5931240000        7.9586910000
  C         2.8136840000        4.3074110000        6.6395670000
  C         1.8021000000        2.5801680000        8.5909250000
  C         6.1614730000        9.7262760000        4.6051290000
  C        -1.7300840000       -2.9447200000        6.5282340000
  C         8.7151750000        1.5883300000        0.0112620000
  C         1.8390400000       13.1474290000        0.0885870000
  C        10.9967290000        7.4345870000       -0.1203400000
  C        -2.4072200000        8.5110540000       -0.0635070000
  C         3.3505170000        5.2244920000        5.6056060000
  C        -1.1450180000       -2.0335150000        7.5402480000
  C         8.5285440000        3.0375930000       -0.0090850000
  C         1.7960860000       11.7116510000        0.0497010000
  C         9.7214410000        6.7729680000       -0.0672300000
  C        -1.0200150000        8.9738490000       -0.0463320000
  C         1.4829060000        4.4426040000        7.0787380000
  C         3.1252220000        2.4368270000        8.1546130000
  C         5.4241200000       10.8275940000        5.0587470000
  C        -0.9969320000       -4.0572320000        6.0734360000
  C         8.7846520000        0.9195150000        1.2397800000
  C        -2.5081420000        6.6152490000       11.9630650000
  C        11.6489580000        7.7305070000        1.1103030000
  C        -7.3513660000        1.0220250000       11.8219320000
  C         7.4413710000        9.4696440000        5.1127230000
  C        -3.0183170000       -2.6945520000        6.0174810000
  C         3.6326370000        3.2980560000        7.1812080000
  C         0.9806210000        3.5787050000        8.0528890000
  C         7.3617660000        0.4895280000       11.7535480000
  C        -3.0892010000        8.2549460000        1.1524790000
  C         4.4380030000       -6.3885600000       11.9106760000
  C         1.8336000000       13.8971630000        1.3187970000
  N         1.9163670000       13.2991920000        2.5559680000
  N         6.7825160000        0.2881570000       10.5174260000
  N         8.0012830000        4.7573400000        7.6391270000
  N         6.4187750000       -4.0420780000        9.2844230000
  O         7.2346650000        5.0226370000        5.0766040000
  O        -3.0539240000        1.4237030000        8.0201130000
  O         4.3452240000       -2.4564070000        9.6957080000
  O         0.4260540000        9.8718970000        3.4226800000
  O         1.3189610000        8.5130790000        5.0022280000
  O         2.7767760000       -2.2647240000        8.0780870000
  O         8.8243980000        4.7557010000        3.4898050000
  O        -3.9037660000        2.7797510000        9.6244670000
  O         6.1566970000        4.4091270000        2.5052180000
  O        -1.3679750000        1.9936580000       10.1096280000
  O         7.0178010000        6.7271700000        2.9531850000
  O        -3.0562790000        0.2084610000       10.6096570000
  O         1.6596210000       -2.8373120000       10.6743830000
  O         2.9694580000        9.1219370000        2.9092790000
  O         2.5316240000       -0.5433780000       10.2080480000
  O         1.3225750000        7.3069720000        2.3988930000
  O         4.5751670000        5.0876310000        5.2443370000
  O        -1.8361440000       -1.0225280000        7.9235160000
  O         4.0663910000       -3.6100490000       11.9620950000
  O         1.7435140000       11.0064290000        1.1443500000
  O         4.7710260000       -0.7954980000       11.9564180000
  O        -0.4275040000        9.0940250000        1.0940980000
  O         0.0288670000       -2.2880590000        7.9912580000
  O         2.5742950000        6.1196160000        5.1177960000
  O         9.1994190000        6.4527850000        1.0832950000
  O        -4.7481140000        1.9889750000       11.9440290000
  O         8.5002540000        3.6724200000        1.1132920000
  O        -2.5429750000        3.8492400000       12.0152310000
  O         4.2691710000        6.7355740000        3.0196680000
  O        -0.1470930000       -0.4360620000       10.0170300000
  O         6.7480570000        5.6000860000        0.0715300000
  O         2.0742010000        8.5415910000       -0.0654600000
  S         1.0758865703       -2.5175712444        3.3166004230
  S         2.3954256885       -0.1986466311        4.2979605649
  F         2.2392481167       -2.6412840604        0.9191159455
  F         0.1083357067       -3.2341630986        0.9317372708
  F         0.6521936106       -1.1104516872        1.0451068600
  F         4.6426484810        1.1971987095        4.5819705845
  F         4.9947777064       -0.7467139838        3.6087110497
  F         4.0846135991        0.8874010439        2.4713412451
  O        -7.2072109568       12.4226715332        3.7808593411
  O        -2.9582185685      -11.1765062086       16.6089069061
  O         2.5293742211       -0.2008312062        5.7540020350
  O         1.4957669445        0.7696754200        3.6818631447
  N         2.3922260033       -1.6932035574        3.7025193213
  C         1.0164655122       -2.3569969536        1.4520396830
  C         4.1244944242        0.2957303826        3.6936844452
     139
 i =       47, E =     -1553.2116788505
 Ti        -2.8683350000        2.1154420000       11.2652140000
 Ti         7.8027880000        5.3832100000        1.8443910000
 Ti         1.3525720000       -1.6735000000        9.4171130000
 Ti         2.5117920000        7.5426520000        3.6484140000
 Ti         1.4446720000        9.1874180000        1.7519890000
 Ti         3.2594580000       -1.8642570000       11.3595300000
 Ti        -1.8697820000        0.4160240000        9.3661400000
 Ti         5.8159840000        5.6142840000        3.7032810000
  H         3.7468960000        1.6526260000        8.5834390000
  H        -0.0029370000       -4.2340410000        6.4782570000
  H         4.4316300000       11.0106120000        4.6504380000
  H        -2.5036940000        6.0280510000       11.0484600000
  H         8.7487370000        1.5073420000        2.1552500000
  H        -6.8015420000        1.2218930000       10.9036440000
  H        11.1142460000        7.5038380000        2.0290890000
  H         4.3727210000       -5.8620200000       10.9626530000
  H        -2.5891430000        8.4561810000        2.0957030000
  H         4.6569660000        3.2041470000        6.8269530000
  H        -0.0452240000        3.6702680000        8.4060300000
  H        -3.5685920000       -1.8281670000        6.3785400000
  H         1.9853270000        7.5711820000       -0.1261220000
  H         5.9273850000        5.0774030000        0.1545840000
  H         3.7614260000       -2.5066170000        5.8447260000
  H         0.7455600000        9.3142620000        7.2794310000
  H        -6.0599130000        3.6612130000        9.0374900000
  H        10.6412470000        3.3933790000        4.1321340000
  H        -3.7285870000        2.2987080000        5.6888700000
  H        -1.7039720000       10.9033860000        4.1249230000
  H         1.7334520000       12.3009450000        2.6095370000
  H         8.6679850000       -0.5170630000        3.3558310000
  H         4.6066800000        7.2974510000        2.2978250000
  H         0.2154870000        0.1346200000       10.7192460000
  H         7.4153320000        0.2186850000        9.7283660000
  H         5.9554960000       -0.3025340000       10.4832990000
  H         7.8286560000        4.6709870000        8.6325370000
  H         7.2376510000        5.0115380000        7.0177090000
  H         7.0981770000       -4.7499770000        9.5343200000
  H         5.7840300000       -3.6950290000       10.0001570000
  H         1.4114850000        1.9115480000        9.3560850000
  H         0.8637590000        5.2270400000        6.6485740000
  H         5.7410230000        9.0693330000        3.8453710000
  H        -8.0103750000        8.6099930000        4.7446230000
  C         8.4223250000        4.6591910000        4.7037060000
  C        -3.8533280000        2.3467180000        8.4238990000
  C         3.9615950000       -2.5926300000        8.4765240000
  C         0.5135400000        9.4433570000        4.6213200000
  C         9.3443360000        4.0851920000        5.6931050000
  C        -4.8119260000        2.9400260000        7.4529070000
  C         4.9173150000       -3.1727480000        7.5232700000
  C        -0.3926610000       10.0575610000        5.6268840000
  C         9.1010420000        4.1497630000        7.1009990000
  C        -4.5992560000        2.8293420000        6.0635380000
  C         6.0750720000       -3.8937710000        7.9690880000
  C        -1.5160550000       10.7924690000        5.1890900000
  C        -0.1248110000        9.8942340000        6.9800950000
  C         4.6574050000       -3.0476440000        6.1409150000
  C        10.4989470000        3.4266870000        5.2100540000
  C        -5.9326790000        3.5931240000        7.9586910000
  C         2.8136840000        4.3074110000        6.6395670000
  C         1.8021000000        2.5801680000        8.5909250000
  C         6.1614730000        9.7262760000        4.6051290000
  C        -1.7300840000       -2.9447200000        6.5282340000
  C         8.7151750000        1.5883300000        0.0112620000
  C         1.8390400000       13.1474290000        0.0885870000
  C        10.9967290000        7.4345870000       -0.1203400000
  C        -2.4072200000        8.5110540000       -0.0635070000
  C         3.3505170000        5.2244920000        5.6056060000
  C        -1.1450180000       -2.0335150000        7.5402480000
  C         8.5285440000        3.0375930000       -0.0090850000
  C         1.7960860000       11.7116510000        0.0497010000
  C         9.7214410000        6.7729680000       -0.0672300000
  C        -1.0200150000        8.9738490000       -0.0463320000
  C         1.4829060000        4.4426040000        7.0787380000
  C         3.1252220000        2.4368270000        8.1546130000
  C         5.4241200000       10.8275940000        5.0587470000
  C        -0.9969320000       -4.0572320000        6.0734360000
  C         8.7846520000        0.9195150000        1.2397800000
  C        -2.5081420000        6.6152490000       11.9630650000
  C        11.6489580000        7.7305070000        1.1103030000
  C        -7.3513660000        1.0220250000       11.8219320000
  C         7.4413710000        9.4696440000        5.1127230000
  C        -3.0183170000       -2.6945520000        6.0174810000
  C         3.6326370000        3.2980560000        7.1812080000
  C         0.9806210000        3.5787050000        8.0528890000
  C         7.3617660000        0.4895280000       11.7535480000
  C        -3.0892010000        8.2549460000        1.1524790000
  C         4.4380030000       -6.3885600000       11.9106760000
  C         1.8336000000       13.8971630000        1.3187970000
  N         1.9163670000       13.2991920000        2.5559680000
  N         6.7825160000        0.2881570000       10.5174260000
  N         8.0012830000        4.7573400000        7.6391270000
  N         6.4187750000       -4.0420780000        9.2844230000
  O         7.2346650000        5.0226370000        5.0766040000
  O        -3.0539240000        1.4237030000        8.0201130000
  O         4.3452240000       -2.4564070000        9.6957080000
  O         0.4260540000        9.8718970000        3.4226800000
  O         1.3189610000        8.5130790000        5.0022280000
  O         2.7767760000       -2.2647240000        8.0780870000
  O         8.8243980000        4.7557010000        3.4898050000
  O        -3.9037660000        2.7797510000        9.6244670000
  O         6.1566970000        4.4091270000        2.5052180000
  O        -1.3679750000        1.9936580000       10.1096280000
  O         7.0178010000        6.7271700000        2.9531850000
  O        -3.0562790000        0.2084610000       10.6096570000
  O         1.6596210000       -2.8373120000       10.6743830000
  O         2.9694580000        9.1219370000        2.9092790000
  O         2.5316240000       -0.5433780000       10.2080480000
  O         1.3225750000        7.3069720000        2.3988930000
  O         4.5751670000        5.0876310000        5.2443370000
  O        -1.8361440000       -1.0225280000        7.9235160000
  O         4.0663910000       -3.6100490000       11.9620950000
  O         1.7435140000       11.0064290000        1.1443500000
  O         4.7710260000       -0.7954980000       11.9564180000
  O        -0.4275040000        9.0940250000        1.0940980000
  O         0.0288670000       -2.2880590000        7.9912580000
  O         2.5742950000        6.1196160000        5.1177960000
  O         9.1994190000        6.4527850000        1.0832950000
  O        -4.7481140000        1.9889750000       11.9440290000
  O         8.5002540000        3.6724200000        1.1132920000
  O        -2.5429750000        3.8492400000       12.0152310000
  O         4.2691710000        6.7355740000        3.0196680000
  O        -0.1470930000       -0.4360620000       10.0170300000
  O         6.7480570000        5.6000860000        0.0715300000
  O         2.0742010000        8.5415910000       -0.0654600000
  S         1.0771889789       -2.5169318538        3.3177049539
  S         2.3969420383       -0.1978839958        4.2974904247
  F         2.2384465550       -2.6434386464        0.9202934305
  F         0.1071004350       -3.2325147049        0.9295267474
  F         0.6522241833       -1.1106908904        1.0426792547
  F         4.6445788908        1.1939223629        4.5815380111
  F         4.9943271206       -0.7480299751        3.6144308000
  F         4.0806835449        0.8874894457        2.4679807288
  O        -7.2071733059       12.4223224078        3.7786413576
  O        -2.9586899768      -11.1762838090       16.6098629575
  O         2.5314553821       -0.2009157325        5.7534268668
  O         1.4969023675        0.7694495688        3.6811093941
  N         2.3936512211       -1.6922678577        3.7021546330
  C         1.0157191632       -2.3568764988        1.4524626162
  C         4.1248918983        0.2961810292        3.6905543635
     139
 i =       48, E =     -1553.2116144412
 Ti        -2.8683350000        2.1154420000       11.2652140000
 Ti         7.8027880000        5.3832100000        1.8443910000
 Ti         1.3525720000       -1.6735000000        9.4171130000
 Ti         2.5117920000        7.5426520000        3.6484140000
 Ti         1.4446720000        9.1874180000        1.7519890000
 Ti         3.2594580000       -1.8642570000       11.3595300000
 Ti        -1.8697820000        0.4160240000        9.3661400000
 Ti         5.8159840000        5.6142840000        3.7032810000
  H         3.7468960000        1.6526260000        8.5834390000
  H        -0.0029370000       -4.2340410000        6.4782570000
  H         4.4316300000       11.0106120000        4.6504380000
  H        -2.5036940000        6.0280510000       11.0484600000
  H         8.7487370000        1.5073420000        2.1552500000
  H        -6.8015420000        1.2218930000       10.9036440000
  H        11.1142460000        7.5038380000        2.0290890000
  H         4.3727210000       -5.8620200000       10.9626530000
  H        -2.5891430000        8.4561810000        2.0957030000
  H         4.6569660000        3.2041470000        6.8269530000
  H        -0.0452240000        3.6702680000        8.4060300000
  H        -3.5685920000       -1.8281670000        6.3785400000
  H         1.9853270000        7.5711820000       -0.1261220000
  H         5.9273850000        5.0774030000        0.1545840000
  H         3.7614260000       -2.5066170000        5.8447260000
  H         0.7455600000        9.3142620000        7.2794310000
  H        -6.0599130000        3.6612130000        9.0374900000
  H        10.6412470000        3.3933790000        4.1321340000
  H        -3.7285870000        2.2987080000        5.6888700000
  H        -1.7039720000       10.9033860000        4.1249230000
  H         1.7334520000       12.3009450000        2.6095370000
  H         8.6679850000       -0.5170630000        3.3558310000
  H         4.6066800000        7.2974510000        2.2978250000
  H         0.2154870000        0.1346200000       10.7192460000
  H         7.4153320000        0.2186850000        9.7283660000
  H         5.9554960000       -0.3025340000       10.4832990000
  H         7.8286560000        4.6709870000        8.6325370000
  H         7.2376510000        5.0115380000        7.0177090000
  H         7.0981770000       -4.7499770000        9.5343200000
  H         5.7840300000       -3.6950290000       10.0001570000
  H         1.4114850000        1.9115480000        9.3560850000
  H         0.8637590000        5.2270400000        6.6485740000
  H         5.7410230000        9.0693330000        3.8453710000
  H        -8.0103750000        8.6099930000        4.7446230000
  C         8.4223250000        4.6591910000        4.7037060000
  C        -3.8533280000        2.3467180000        8.4238990000
  C         3.9615950000       -2.5926300000        8.4765240000
  C         0.5135400000        9.4433570000        4.6213200000
  C         9.3443360000        4.0851920000        5.6931050000
  C        -4.8119260000        2.9400260000        7.4529070000
  C         4.9173150000       -3.1727480000        7.5232700000
  C        -0.3926610000       10.0575610000        5.6268840000
  C         9.1010420000        4.1497630000        7.1009990000
  C        -4.5992560000        2.8293420000        6.0635380000
  C         6.0750720000       -3.8937710000        7.9690880000
  C        -1.5160550000       10.7924690000        5.1890900000
  C        -0.1248110000        9.8942340000        6.9800950000
  C         4.6574050000       -3.0476440000        6.1409150000
  C        10.4989470000        3.4266870000        5.2100540000
  C        -5.9326790000        3.5931240000        7.9586910000
  C         2.8136840000        4.3074110000        6.6395670000
  C         1.8021000000        2.5801680000        8.5909250000
  C         6.1614730000        9.7262760000        4.6051290000
  C        -1.7300840000       -2.9447200000        6.5282340000
  C         8.7151750000        1.5883300000        0.0112620000
  C         1.8390400000       13.1474290000        0.0885870000
  C        10.9967290000        7.4345870000       -0.1203400000
  C        -2.4072200000        8.5110540000       -0.0635070000
  C         3.3505170000        5.2244920000        5.6056060000
  C        -1.1450180000       -2.0335150000        7.5402480000
  C         8.5285440000        3.0375930000       -0.0090850000
  C         1.7960860000       11.7116510000        0.0497010000
  C         9.7214410000        6.7729680000       -0.0672300000
  C        -1.0200150000        8.9738490000       -0.0463320000
  C         1.4829060000        4.4426040000        7.0787380000
  C         3.1252220000        2.4368270000        8.1546130000
  C         5.4241200000       10.8275940000        5.0587470000
  C        -0.9969320000       -4.0572320000        6.0734360000
  C         8.7846520000        0.9195150000        1.2397800000
  C        -2.5081420000        6.6152490000       11.9630650000
  C        11.6489580000        7.7305070000        1.1103030000
  C        -7.3513660000        1.0220250000       11.8219320000
  C         7.4413710000        9.4696440000        5.1127230000
  C        -3.0183170000       -2.6945520000        6.0174810000
  C         3.6326370000        3.2980560000        7.1812080000
  C         0.9806210000        3.5787050000        8.0528890000
  C         7.3617660000        0.4895280000       11.7535480000
  C        -3.0892010000        8.2549460000        1.1524790000
  C         4.4380030000       -6.3885600000       11.9106760000
  C         1.8336000000       13.8971630000        1.3187970000
  N         1.9163670000       13.2991920000        2.5559680000
  N         6.7825160000        0.2881570000       10.5174260000
  N         8.0012830000        4.7573400000        7.6391270000
  N         6.4187750000       -4.0420780000        9.2844230000
  O         7.2346650000        5.0226370000        5.0766040000
  O        -3.0539240000        1.4237030000        8.0201130000
  O         4.3452240000       -2.4564070000        9.6957080000
  O         0.4260540000        9.8718970000        3.4226800000
  O         1.3189610000        8.5130790000        5.0022280000
  O         2.7767760000       -2.2647240000        8.0780870000
  O         8.8243980000        4.7557010000        3.4898050000
  O        -3.9037660000        2.7797510000        9.6244670000
  O         6.1566970000        4.4091270000        2.5052180000
  O        -1.3679750000        1.9936580000       10.1096280000
  O         7.0178010000        6.7271700000        2.9531850000
  O        -3.0562790000        0.2084610000       10.6096570000
  O         1.6596210000       -2.8373120000       10.6743830000
  O         2.9694580000        9.1219370000        2.9092790000
  O         2.5316240000       -0.5433780000       10.2080480000
  O         1.3225750000        7.3069720000        2.3988930000
  O         4.5751670000        5.0876310000        5.2443370000
  O        -1.8361440000       -1.0225280000        7.9235160000
  O         4.0663910000       -3.6100490000       11.9620950000
  O         1.7435140000       11.0064290000        1.1443500000
  O         4.7710260000       -0.7954980000       11.9564180000
  O        -0.4275040000        9.0940250000        1.0940980000
  O         0.0288670000       -2.2880590000        7.9912580000
  O         2.5742950000        6.1196160000        5.1177960000
  O         9.1994190000        6.4527850000        1.0832950000
  O        -4.7481140000        1.9889750000       11.9440290000
  O         8.5002540000        3.6724200000        1.1132920000
  O        -2.5429750000        3.8492400000       12.0152310000
  O         4.2691710000        6.7355740000        3.0196680000
  O        -0.1470930000       -0.4360620000       10.0170300000
  O         6.7480570000        5.6000860000        0.0715300000
  O         2.0742010000        8.5415910000       -0.0654600000
  S         1.0765499497       -2.5166980256        3.3157376949
  S         2.3956369052       -0.1985444528        4.2971924717
  F         2.2394811244       -2.6422170275        0.9192988559
  F         0.1067802786       -3.2358490373        0.9329792982
  F         0.6527673482       -1.1093269261        1.0448455455
  F         4.6412121938        1.2019036946        4.5786557262
  F         4.9956006783       -0.7469348407        3.6033997244
  F         4.0886990746        0.8845501273        2.4711130456
  O        -7.2066626489       12.4227968437        3.7788589232
  O        -2.9583200054      -11.1754835810       16.6111107891
  O         2.5333680404       -0.2002044409        5.7528055031
  O         1.4971313320        0.7697726399        3.6805470397
  N         2.3928118773       -1.6927129946        3.7013172562
  C         1.0158461318       -2.3571724971        1.4502213653
  C         4.1246158834        0.2950646705        3.6948906119
     139
 i =       49, E =     -1553.2117037426
 Ti        -2.8683350000        2.1154420000       11.2652140000
 Ti         7.8027880000        5.3832100000        1.8443910000
 Ti         1.3525720000       -1.6735000000        9.4171130000
 Ti         2.5117920000        7.5426520000        3.6484140000
 Ti         1.4446720000        9.1874180000        1.7519890000
 Ti         3.2594580000       -1.8642570000       11.3595300000
 Ti        -1.8697820000        0.4160240000        9.3661400000
 Ti         5.8159840000        5.6142840000        3.7032810000
  H         3.7468960000        1.6526260000        8.5834390000
  H        -0.0029370000       -4.2340410000        6.4782570000
  H         4.4316300000       11.0106120000        4.6504380000
  H        -2.5036940000        6.0280510000       11.0484600000
  H         8.7487370000        1.5073420000        2.1552500000
  H        -6.8015420000        1.2218930000       10.9036440000
  H        11.1142460000        7.5038380000        2.0290890000
  H         4.3727210000       -5.8620200000       10.9626530000
  H        -2.5891430000        8.4561810000        2.0957030000
  H         4.6569660000        3.2041470000        6.8269530000
  H        -0.0452240000        3.6702680000        8.4060300000
  H        -3.5685920000       -1.8281670000        6.3785400000
  H         1.9853270000        7.5711820000       -0.1261220000
  H         5.9273850000        5.0774030000        0.1545840000
  H         3.7614260000       -2.5066170000        5.8447260000
  H         0.7455600000        9.3142620000        7.2794310000
  H        -6.0599130000        3.6612130000        9.0374900000
  H        10.6412470000        3.3933790000        4.1321340000
  H        -3.7285870000        2.2987080000        5.6888700000
  H        -1.7039720000       10.9033860000        4.1249230000
  H         1.7334520000       12.3009450000        2.6095370000
  H         8.6679850000       -0.5170630000        3.3558310000
  H         4.6066800000        7.2974510000        2.2978250000
  H         0.2154870000        0.1346200000       10.7192460000
  H         7.4153320000        0.2186850000        9.7283660000
  H         5.9554960000       -0.3025340000       10.4832990000
  H         7.8286560000        4.6709870000        8.6325370000
  H         7.2376510000        5.0115380000        7.0177090000
  H         7.0981770000       -4.7499770000        9.5343200000
  H         5.7840300000       -3.6950290000       10.0001570000
  H         1.4114850000        1.9115480000        9.3560850000
  H         0.8637590000        5.2270400000        6.6485740000
  H         5.7410230000        9.0693330000        3.8453710000
  H        -8.0103750000        8.6099930000        4.7446230000
  C         8.4223250000        4.6591910000        4.7037060000
  C        -3.8533280000        2.3467180000        8.4238990000
  C         3.9615950000       -2.5926300000        8.4765240000
  C         0.5135400000        9.4433570000        4.6213200000
  C         9.3443360000        4.0851920000        5.6931050000
  C        -4.8119260000        2.9400260000        7.4529070000
  C         4.9173150000       -3.1727480000        7.5232700000
  C        -0.3926610000       10.0575610000        5.6268840000
  C         9.1010420000        4.1497630000        7.1009990000
  C        -4.5992560000        2.8293420000        6.0635380000
  C         6.0750720000       -3.8937710000        7.9690880000
  C        -1.5160550000       10.7924690000        5.1890900000
  C        -0.1248110000        9.8942340000        6.9800950000
  C         4.6574050000       -3.0476440000        6.1409150000
  C        10.4989470000        3.4266870000        5.2100540000
  C        -5.9326790000        3.5931240000        7.9586910000
  C         2.8136840000        4.3074110000        6.6395670000
  C         1.8021000000        2.5801680000        8.5909250000
  C         6.1614730000        9.7262760000        4.6051290000
  C        -1.7300840000       -2.9447200000        6.5282340000
  C         8.7151750000        1.5883300000        0.0112620000
  C         1.8390400000       13.1474290000        0.0885870000
  C        10.9967290000        7.4345870000       -0.1203400000
  C        -2.4072200000        8.5110540000       -0.0635070000
  C         3.3505170000        5.2244920000        5.6056060000
  C        -1.1450180000       -2.0335150000        7.5402480000
  C         8.5285440000        3.0375930000       -0.0090850000
  C         1.7960860000       11.7116510000        0.0497010000
  C         9.7214410000        6.7729680000       -0.0672300000
  C        -1.0200150000        8.9738490000       -0.0463320000
  C         1.4829060000        4.4426040000        7.0787380000
  C         3.1252220000        2.4368270000        8.1546130000
  C         5.4241200000       10.8275940000        5.0587470000
  C        -0.9969320000       -4.0572320000        6.0734360000
  C         8.7846520000        0.9195150000        1.2397800000
  C        -2.5081420000        6.6152490000       11.9630650000
  C        11.6489580000        7.7305070000        1.1103030000
  C        -7.3513660000        1.0220250000       11.8219320000
  C         7.4413710000        9.4696440000        5.1127230000
  C        -3.0183170000       -2.6945520000        6.0174810000
  C         3.6326370000        3.2980560000        7.1812080000
  C         0.9806210000        3.5787050000        8.0528890000
  C         7.3617660000        0.4895280000       11.7535480000
  C        -3.0892010000        8.2549460000        1.1524790000
  C         4.4380030000       -6.3885600000       11.9106760000
  C         1.8336000000       13.8971630000        1.3187970000
  N         1.9163670000       13.2991920000        2.5559680000
  N         6.7825160000        0.2881570000       10.5174260000
  N         8.0012830000        4.7573400000        7.6391270000
  N         6.4187750000       -4.0420780000        9.2844230000
  O         7.2346650000        5.0226370000        5.0766040000
  O        -3.0539240000        1.4237030000        8.0201130000
  O         4.3452240000       -2.4564070000        9.6957080000
  O         0.4260540000        9.8718970000        3.4226800000
  O         1.3189610000        8.5130790000        5.0022280000
  O         2.7767760000       -2.2647240000        8.0780870000
  O         8.8243980000        4.7557010000        3.4898050000
  O        -3.9037660000        2.7797510000        9.6244670000
  O         6.1566970000        4.4091270000        2.5052180000
  O        -1.3679750000        1.9936580000       10.1096280000
  O         7.0178010000        6.7271700000        2.9531850000
  O        -3.0562790000        0.2084610000       10.6096570000
  O         1.6596210000       -2.8373120000       10.6743830000
  O         2.9694580000        9.1219370000        2.9092790000
  O         2.5316240000       -0.5433780000       10.2080480000
  O         1.3225750000        7.3069720000        2.3988930000
  O         4.5751670000        5.0876310000        5.2443370000
  O        -1.8361440000       -1.0225280000        7.9235160000
  O         4.0663910000       -3.6100490000       11.9620950000
  O         1.7435140000       11.0064290000        1.1443500000
  O         4.7710260000       -0.7954980000       11.9564180000
  O        -0.4275040000        9.0940250000        1.0940980000
  O         0.0288670000       -2.2880590000        7.9912580000
  O         2.5742950000        6.1196160000        5.1177960000
  O         9.1994190000        6.4527850000        1.0832950000
  O        -4.7481140000        1.9889750000       11.9440290000
  O         8.5002540000        3.6724200000        1.1132920000
  O        -2.5429750000        3.8492400000       12.0152310000
  O         4.2691710000        6.7355740000        3.0196680000
  O        -0.1470930000       -0.4360620000       10.0170300000
  O         6.7480570000        5.6000860000        0.0715300000
  O         2.0742010000        8.5415910000       -0.0654600000
  S         1.0768568463       -2.5165054961        3.3170038821
  S         2.3972628347       -0.1979141238        4.2968041911
  F         2.2390287746       -2.6425879296        0.9188473259
  F         0.1071985516       -3.2339291149        0.9308493577
  F         0.6522130206       -1.1104001566        1.0436169272
  F         4.6432820753        1.1974061556        4.5796863212
  F         4.9953154964       -0.7473910939        3.6114329126
  F         4.0837084451        0.8872704264        2.4687947332
  O        -7.2069988674       12.4228529512        3.7784133758
  O        -2.9583997633      -11.1755458328       16.6110445361
  O         2.5333290919       -0.2005339171        5.7525514565
  O         1.4976038370        0.7694973496        3.6805424831
  N         2.3932916160       -1.6922534999        3.7015259795
  C         1.0162166049       -2.3571903898        1.4514963424
  C         4.1250583249        0.2960088190        3.6915525408
     139
 i =       50, E =     -1553.2117042057
 Ti        -2.8683350000        2.1154420000       11.2652140000
 Ti         7.8027880000        5.3832100000        1.8443910000
 Ti         1.3525720000       -1.6735000000        9.4171130000
 Ti         2.5117920000        7.5426520000        3.6484140000
 Ti         1.4446720000        9.1874180000        1.7519890000
 Ti         3.2594580000       -1.8642570000       11.3595300000
 Ti        -1.8697820000        0.4160240000        9.3661400000
 Ti         5.8159840000        5.6142840000        3.7032810000
  H         3.7468960000        1.6526260000        8.5834390000
  H        -0.0029370000       -4.2340410000        6.4782570000
  H         4.4316300000       11.0106120000        4.6504380000
  H        -2.5036940000        6.0280510000       11.0484600000
  H         8.7487370000        1.5073420000        2.1552500000
  H        -6.8015420000        1.2218930000       10.9036440000
  H        11.1142460000        7.5038380000        2.0290890000
  H         4.3727210000       -5.8620200000       10.9626530000
  H        -2.5891430000        8.4561810000        2.0957030000
  H         4.6569660000        3.2041470000        6.8269530000
  H        -0.0452240000        3.6702680000        8.4060300000
  H        -3.5685920000       -1.8281670000        6.3785400000
  H         1.9853270000        7.5711820000       -0.1261220000
  H         5.9273850000        5.0774030000        0.1545840000
  H         3.7614260000       -2.5066170000        5.8447260000
  H         0.7455600000        9.3142620000        7.2794310000
  H        -6.0599130000        3.6612130000        9.0374900000
  H        10.6412470000        3.3933790000        4.1321340000
  H        -3.7285870000        2.2987080000        5.6888700000
  H        -1.7039720000       10.9033860000        4.1249230000
  H         1.7334520000       12.3009450000        2.6095370000
  H         8.6679850000       -0.5170630000        3.3558310000
  H         4.6066800000        7.2974510000        2.2978250000
  H         0.2154870000        0.1346200000       10.7192460000
  H         7.4153320000        0.2186850000        9.7283660000
  H         5.9554960000       -0.3025340000       10.4832990000
  H         7.8286560000        4.6709870000        8.6325370000
  H         7.2376510000        5.0115380000        7.0177090000
  H         7.0981770000       -4.7499770000        9.5343200000
  H         5.7840300000       -3.6950290000       10.0001570000
  H         1.4114850000        1.9115480000        9.3560850000
  H         0.8637590000        5.2270400000        6.6485740000
  H         5.7410230000        9.0693330000        3.8453710000
  H        -8.0103750000        8.6099930000        4.7446230000
  C         8.4223250000        4.6591910000        4.7037060000
  C        -3.8533280000        2.3467180000        8.4238990000
  C         3.9615950000       -2.5926300000        8.4765240000
  C         0.5135400000        9.4433570000        4.6213200000
  C         9.3443360000        4.0851920000        5.6931050000
  C        -4.8119260000        2.9400260000        7.4529070000
  C         4.9173150000       -3.1727480000        7.5232700000
  C        -0.3926610000       10.0575610000        5.6268840000
  C         9.1010420000        4.1497630000        7.1009990000
  C        -4.5992560000        2.8293420000        6.0635380000
  C         6.0750720000       -3.8937710000        7.9690880000
  C        -1.5160550000       10.7924690000        5.1890900000
  C        -0.1248110000        9.8942340000        6.9800950000
  C         4.6574050000       -3.0476440000        6.1409150000
  C        10.4989470000        3.4266870000        5.2100540000
  C        -5.9326790000        3.5931240000        7.9586910000
  C         2.8136840000        4.3074110000        6.6395670000
  C         1.8021000000        2.5801680000        8.5909250000
  C         6.1614730000        9.7262760000        4.6051290000
  C        -1.7300840000       -2.9447200000        6.5282340000
  C         8.7151750000        1.5883300000        0.0112620000
  C         1.8390400000       13.1474290000        0.0885870000
  C        10.9967290000        7.4345870000       -0.1203400000
  C        -2.4072200000        8.5110540000       -0.0635070000
  C         3.3505170000        5.2244920000        5.6056060000
  C        -1.1450180000       -2.0335150000        7.5402480000
  C         8.5285440000        3.0375930000       -0.0090850000
  C         1.7960860000       11.7116510000        0.0497010000
  C         9.7214410000        6.7729680000       -0.0672300000
  C        -1.0200150000        8.9738490000       -0.0463320000
  C         1.4829060000        4.4426040000        7.0787380000
  C         3.1252220000        2.4368270000        8.1546130000
  C         5.4241200000       10.8275940000        5.0587470000
  C        -0.9969320000       -4.0572320000        6.0734360000
  C         8.7846520000        0.9195150000        1.2397800000
  C        -2.5081420000        6.6152490000       11.9630650000
  C        11.6489580000        7.7305070000        1.1103030000
  C        -7.3513660000        1.0220250000       11.8219320000
  C         7.4413710000        9.4696440000        5.1127230000
  C        -3.0183170000       -2.6945520000        6.0174810000
  C         3.6326370000        3.2980560000        7.1812080000
  C         0.9806210000        3.5787050000        8.0528890000
  C         7.3617660000        0.4895280000       11.7535480000
  C        -3.0892010000        8.2549460000        1.1524790000
  C         4.4380030000       -6.3885600000       11.9106760000
  C         1.8336000000       13.8971630000        1.3187970000
  N         1.9163670000       13.2991920000        2.5559680000
  N         6.7825160000        0.2881570000       10.5174260000
  N         8.0012830000        4.7573400000        7.6391270000
  N         6.4187750000       -4.0420780000        9.2844230000
  O         7.2346650000        5.0226370000        5.0766040000
  O        -3.0539240000        1.4237030000        8.0201130000
  O         4.3452240000       -2.4564070000        9.6957080000
  O         0.4260540000        9.8718970000        3.4226800000
  O         1.3189610000        8.5130790000        5.0022280000
  O         2.7767760000       -2.2647240000        8.0780870000
  O         8.8243980000        4.7557010000        3.4898050000
  O        -3.9037660000        2.7797510000        9.6244670000
  O         6.1566970000        4.4091270000        2.5052180000
  O        -1.3679750000        1.9936580000       10.1096280000
  O         7.0178010000        6.7271700000        2.9531850000
  O        -3.0562790000        0.2084610000       10.6096570000
  O         1.6596210000       -2.8373120000       10.6743830000
  O         2.9694580000        9.1219370000        2.9092790000
  O         2.5316240000       -0.5433780000       10.2080480000
  O         1.3225750000        7.3069720000        2.3988930000
  O         4.5751670000        5.0876310000        5.2443370000
  O        -1.8361440000       -1.0225280000        7.9235160000
  O         4.0663910000       -3.6100490000       11.9620950000
  O         1.7435140000       11.0064290000        1.1443500000
  O         4.7710260000       -0.7954980000       11.9564180000
  O        -0.4275040000        9.0940250000        1.0940980000
  O         0.0288670000       -2.2880590000        7.9912580000
  O         2.5742950000        6.1196160000        5.1177960000
  O         9.1994190000        6.4527850000        1.0832950000
  O        -4.7481140000        1.9889750000       11.9440290000
  O         8.5002540000        3.6724200000        1.1132920000
  O        -2.5429750000        3.8492400000       12.0152310000
  O         4.2691710000        6.7355740000        3.0196680000
  O        -0.1470930000       -0.4360620000       10.0170300000
  O         6.7480570000        5.6000860000        0.0715300000
  O         2.0742010000        8.5415910000       -0.0654600000
  S         1.0772388468       -2.5163639541        3.3172059703
  S         2.3978968070       -0.1976453856        4.2963333957
  F         2.2387317507       -2.6431199774        0.9192625398
  F         0.1071968071       -3.2335433440        0.9301649836
  F         0.6522165799       -1.1103446968        1.0430852559
  F         4.6441957252        1.1957548209        4.5809832460
  F         4.9946804239       -0.7471787576        3.6094796674
  F         4.0838914252        0.8864984190        2.4673679120
  O        -7.2067278880       12.4231561059        3.7778022126
  O        -2.9584187100      -11.1754739117       16.6114684818
  O         2.5342583363       -0.2003247348        5.7520282008
  O         1.4982134089        0.7696793182        3.6802097669
  N         2.3936577341       -1.6919714634        3.7011803901
  C         1.0160092149       -2.3570364052        1.4516527443
  C         4.1251882579        0.2967963227        3.6909290578
     139
 i =       51, E =     -1553.2117071167
 Ti        -2.8683350000        2.1154420000       11.2652140000
 Ti         7.8027880000        5.3832100000        1.8443910000
 Ti         1.3525720000       -1.6735000000        9.4171130000
 Ti         2.5117920000        7.5426520000        3.6484140000
 Ti         1.4446720000        9.1874180000        1.7519890000
 Ti         3.2594580000       -1.8642570000       11.3595300000
 Ti        -1.8697820000        0.4160240000        9.3661400000
 Ti         5.8159840000        5.6142840000        3.7032810000
  H         3.7468960000        1.6526260000        8.5834390000
  H        -0.0029370000       -4.2340410000        6.4782570000
  H         4.4316300000       11.0106120000        4.6504380000
  H        -2.5036940000        6.0280510000       11.0484600000
  H         8.7487370000        1.5073420000        2.1552500000
  H        -6.8015420000        1.2218930000       10.9036440000
  H        11.1142460000        7.5038380000        2.0290890000
  H         4.3727210000       -5.8620200000       10.9626530000
  H        -2.5891430000        8.4561810000        2.0957030000
  H         4.6569660000        3.2041470000        6.8269530000
  H        -0.0452240000        3.6702680000        8.4060300000
  H        -3.5685920000       -1.8281670000        6.3785400000
  H         1.9853270000        7.5711820000       -0.1261220000
  H         5.9273850000        5.0774030000        0.1545840000
  H         3.7614260000       -2.5066170000        5.8447260000
  H         0.7455600000        9.3142620000        7.2794310000
  H        -6.0599130000        3.6612130000        9.0374900000
  H        10.6412470000        3.3933790000        4.1321340000
  H        -3.7285870000        2.2987080000        5.6888700000
  H        -1.7039720000       10.9033860000        4.1249230000
  H         1.7334520000       12.3009450000        2.6095370000
  H         8.6679850000       -0.5170630000        3.3558310000
  H         4.6066800000        7.2974510000        2.2978250000
  H         0.2154870000        0.1346200000       10.7192460000
  H         7.4153320000        0.2186850000        9.7283660000
  H         5.9554960000       -0.3025340000       10.4832990000
  H         7.8286560000        4.6709870000        8.6325370000
  H         7.2376510000        5.0115380000        7.0177090000
  H         7.0981770000       -4.7499770000        9.5343200000
  H         5.7840300000       -3.6950290000       10.0001570000
  H         1.4114850000        1.9115480000        9.3560850000
  H         0.8637590000        5.2270400000        6.6485740000
  H         5.7410230000        9.0693330000        3.8453710000
  H        -8.0103750000        8.6099930000        4.7446230000
  C         8.4223250000        4.6591910000        4.7037060000
  C        -3.8533280000        2.3467180000        8.4238990000
  C         3.9615950000       -2.5926300000        8.4765240000
  C         0.5135400000        9.4433570000        4.6213200000
  C         9.3443360000        4.0851920000        5.6931050000
  C        -4.8119260000        2.9400260000        7.4529070000
  C         4.9173150000       -3.1727480000        7.5232700000
  C        -0.3926610000       10.0575610000        5.6268840000
  C         9.1010420000        4.1497630000        7.1009990000
  C        -4.5992560000        2.8293420000        6.0635380000
  C         6.0750720000       -3.8937710000        7.9690880000
  C        -1.5160550000       10.7924690000        5.1890900000
  C        -0.1248110000        9.8942340000        6.9800950000
  C         4.6574050000       -3.0476440000        6.1409150000
  C        10.4989470000        3.4266870000        5.2100540000
  C        -5.9326790000        3.5931240000        7.9586910000
  C         2.8136840000        4.3074110000        6.6395670000
  C         1.8021000000        2.5801680000        8.5909250000
  C         6.1614730000        9.7262760000        4.6051290000
  C        -1.7300840000       -2.9447200000        6.5282340000
  C         8.7151750000        1.5883300000        0.0112620000
  C         1.8390400000       13.1474290000        0.0885870000
  C        10.9967290000        7.4345870000       -0.1203400000
  C        -2.4072200000        8.5110540000       -0.0635070000
  C         3.3505170000        5.2244920000        5.6056060000
  C        -1.1450180000       -2.0335150000        7.5402480000
  C         8.5285440000        3.0375930000       -0.0090850000
  C         1.7960860000       11.7116510000        0.0497010000
  C         9.7214410000        6.7729680000       -0.0672300000
  C        -1.0200150000        8.9738490000       -0.0463320000
  C         1.4829060000        4.4426040000        7.0787380000
  C         3.1252220000        2.4368270000        8.1546130000
  C         5.4241200000       10.8275940000        5.0587470000
  C        -0.9969320000       -4.0572320000        6.0734360000
  C         8.7846520000        0.9195150000        1.2397800000
  C        -2.5081420000        6.6152490000       11.9630650000
  C        11.6489580000        7.7305070000        1.1103030000
  C        -7.3513660000        1.0220250000       11.8219320000
  C         7.4413710000        9.4696440000        5.1127230000
  C        -3.0183170000       -2.6945520000        6.0174810000
  C         3.6326370000        3.2980560000        7.1812080000
  C         0.9806210000        3.5787050000        8.0528890000
  C         7.3617660000        0.4895280000       11.7535480000
  C        -3.0892010000        8.2549460000        1.1524790000
  C         4.4380030000       -6.3885600000       11.9106760000
  C         1.8336000000       13.8971630000        1.3187970000
  N         1.9163670000       13.2991920000        2.5559680000
  N         6.7825160000        0.2881570000       10.5174260000
  N         8.0012830000        4.7573400000        7.6391270000
  N         6.4187750000       -4.0420780000        9.2844230000
  O         7.2346650000        5.0226370000        5.0766040000
  O        -3.0539240000        1.4237030000        8.0201130000
  O         4.3452240000       -2.4564070000        9.6957080000
  O         0.4260540000        9.8718970000        3.4226800000
  O         1.3189610000        8.5130790000        5.0022280000
  O         2.7767760000       -2.2647240000        8.0780870000
  O         8.8243980000        4.7557010000        3.4898050000
  O        -3.9037660000        2.7797510000        9.6244670000
  O         6.1566970000        4.4091270000        2.5052180000
  O        -1.3679750000        1.9936580000       10.1096280000
  O         7.0178010000        6.7271700000        2.9531850000
  O        -3.0562790000        0.2084610000       10.6096570000
  O         1.6596210000       -2.8373120000       10.6743830000
  O         2.9694580000        9.1219370000        2.9092790000
  O         2.5316240000       -0.5433780000       10.2080480000
  O         1.3225750000        7.3069720000        2.3988930000
  O         4.5751670000        5.0876310000        5.2443370000
  O        -1.8361440000       -1.0225280000        7.9235160000
  O         4.0663910000       -3.6100490000       11.9620950000
  O         1.7435140000       11.0064290000        1.1443500000
  O         4.7710260000       -0.7954980000       11.9564180000
  O        -0.4275040000        9.0940250000        1.0940980000
  O         0.0288670000       -2.2880590000        7.9912580000
  O         2.5742950000        6.1196160000        5.1177960000
  O         9.1994190000        6.4527850000        1.0832950000
  O        -4.7481140000        1.9889750000       11.9440290000
  O         8.5002540000        3.6724200000        1.1132920000
  O        -2.5429750000        3.8492400000       12.0152310000
  O         4.2691710000        6.7355740000        3.0196680000
  O        -0.1470930000       -0.4360620000       10.0170300000
  O         6.7480570000        5.6000860000        0.0715300000
  O         2.0742010000        8.5415910000       -0.0654600000
  S         1.0773507476       -2.5160987592        3.3169973295
  S         2.3982026262       -0.1974739252        4.2959226295
  F         2.2388646241       -2.6430320077        0.9192528574
  F         0.1069392951       -3.2337785884        0.9305493278
  F         0.6522936001       -1.1102509437        1.0432485194
  F         4.6435999021        1.1961412556        4.5800833195
  F         4.9950523102       -0.7477113166        3.6094853903
  F         4.0842207819        0.8878346672        2.4678158465
  O        -7.2065030962       12.4234833762        3.7776037379
  O        -2.9582975985      -11.1751482220       16.6118196748
  O         2.5350241300       -0.2001156212        5.7515548652
  O         1.4986332773        0.7698971508        3.6798753286
  N         2.3937628872       -1.6917997760        3.7008877149
  C         1.0160194732       -2.3571353714        1.4513858372
  C         4.1254330518        0.2962439417        3.6905050337
     139
 i =       52, E =     -1553.2117080969
 Ti        -2.8683350000        2.1154420000       11.2652140000
 Ti         7.8027880000        5.3832100000        1.8443910000
 Ti         1.3525720000       -1.6735000000        9.4171130000
 Ti         2.5117920000        7.5426520000        3.6484140000
 Ti         1.4446720000        9.1874180000        1.7519890000
 Ti         3.2594580000       -1.8642570000       11.3595300000
 Ti        -1.8697820000        0.4160240000        9.3661400000
 Ti         5.8159840000        5.6142840000        3.7032810000
  H         3.7468960000        1.6526260000        8.5834390000
  H        -0.0029370000       -4.2340410000        6.4782570000
  H         4.4316300000       11.0106120000        4.6504380000
  H        -2.5036940000        6.0280510000       11.0484600000
  H         8.7487370000        1.5073420000        2.1552500000
  H        -6.8015420000        1.2218930000       10.9036440000
  H        11.1142460000        7.5038380000        2.0290890000
  H         4.3727210000       -5.8620200000       10.9626530000
  H        -2.5891430000        8.4561810000        2.0957030000
  H         4.6569660000        3.2041470000        6.8269530000
  H        -0.0452240000        3.6702680000        8.4060300000
  H        -3.5685920000       -1.8281670000        6.3785400000
  H         1.9853270000        7.5711820000       -0.1261220000
  H         5.9273850000        5.0774030000        0.1545840000
  H         3.7614260000       -2.5066170000        5.8447260000
  H         0.7455600000        9.3142620000        7.2794310000
  H        -6.0599130000        3.6612130000        9.0374900000
  H        10.6412470000        3.3933790000        4.1321340000
  H        -3.7285870000        2.2987080000        5.6888700000
  H        -1.7039720000       10.9033860000        4.1249230000
  H         1.7334520000       12.3009450000        2.6095370000
  H         8.6679850000       -0.5170630000        3.3558310000
  H         4.6066800000        7.2974510000        2.2978250000
  H         0.2154870000        0.1346200000       10.7192460000
  H         7.4153320000        0.2186850000        9.7283660000
  H         5.9554960000       -0.3025340000       10.4832990000
  H         7.8286560000        4.6709870000        8.6325370000
  H         7.2376510000        5.0115380000        7.0177090000
  H         7.0981770000       -4.7499770000        9.5343200000
  H         5.7840300000       -3.6950290000       10.0001570000
  H         1.4114850000        1.9115480000        9.3560850000
  H         0.8637590000        5.2270400000        6.6485740000
  H         5.7410230000        9.0693330000        3.8453710000
  H        -8.0103750000        8.6099930000        4.7446230000
  C         8.4223250000        4.6591910000        4.7037060000
  C        -3.8533280000        2.3467180000        8.4238990000
  C         3.9615950000       -2.5926300000        8.4765240000
  C         0.5135400000        9.4433570000        4.6213200000
  C         9.3443360000        4.0851920000        5.6931050000
  C        -4.8119260000        2.9400260000        7.4529070000
  C         4.9173150000       -3.1727480000        7.5232700000
  C        -0.3926610000       10.0575610000        5.6268840000
  C         9.1010420000        4.1497630000        7.1009990000
  C        -4.5992560000        2.8293420000        6.0635380000
  C         6.0750720000       -3.8937710000        7.9690880000
  C        -1.5160550000       10.7924690000        5.1890900000
  C        -0.1248110000        9.8942340000        6.9800950000
  C         4.6574050000       -3.0476440000        6.1409150000
  C        10.4989470000        3.4266870000        5.2100540000
  C        -5.9326790000        3.5931240000        7.9586910000
  C         2.8136840000        4.3074110000        6.6395670000
  C         1.8021000000        2.5801680000        8.5909250000
  C         6.1614730000        9.7262760000        4.6051290000
  C        -1.7300840000       -2.9447200000        6.5282340000
  C         8.7151750000        1.5883300000        0.0112620000
  C         1.8390400000       13.1474290000        0.0885870000
  C        10.9967290000        7.4345870000       -0.1203400000
  C        -2.4072200000        8.5110540000       -0.0635070000
  C         3.3505170000        5.2244920000        5.6056060000
  C        -1.1450180000       -2.0335150000        7.5402480000
  C         8.5285440000        3.0375930000       -0.0090850000
  C         1.7960860000       11.7116510000        0.0497010000
  C         9.7214410000        6.7729680000       -0.0672300000
  C        -1.0200150000        8.9738490000       -0.0463320000
  C         1.4829060000        4.4426040000        7.0787380000
  C         3.1252220000        2.4368270000        8.1546130000
  C         5.4241200000       10.8275940000        5.0587470000
  C        -0.9969320000       -4.0572320000        6.0734360000
  C         8.7846520000        0.9195150000        1.2397800000
  C        -2.5081420000        6.6152490000       11.9630650000
  C        11.6489580000        7.7305070000        1.1103030000
  C        -7.3513660000        1.0220250000       11.8219320000
  C         7.4413710000        9.4696440000        5.1127230000
  C        -3.0183170000       -2.6945520000        6.0174810000
  C         3.6326370000        3.2980560000        7.1812080000
  C         0.9806210000        3.5787050000        8.0528890000
  C         7.3617660000        0.4895280000       11.7535480000
  C        -3.0892010000        8.2549460000        1.1524790000
  C         4.4380030000       -6.3885600000       11.9106760000
  C         1.8336000000       13.8971630000        1.3187970000
  N         1.9163670000       13.2991920000        2.5559680000
  N         6.7825160000        0.2881570000       10.5174260000
  N         8.0012830000        4.7573400000        7.6391270000
  N         6.4187750000       -4.0420780000        9.2844230000
  O         7.2346650000        5.0226370000        5.0766040000
  O        -3.0539240000        1.4237030000        8.0201130000
  O         4.3452240000       -2.4564070000        9.6957080000
  O         0.4260540000        9.8718970000        3.4226800000
  O         1.3189610000        8.5130790000        5.0022280000
  O         2.7767760000       -2.2647240000        8.0780870000
  O         8.8243980000        4.7557010000        3.4898050000
  O        -3.9037660000        2.7797510000        9.6244670000
  O         6.1566970000        4.4091270000        2.5052180000
  O        -1.3679750000        1.9936580000       10.1096280000
  O         7.0178010000        6.7271700000        2.9531850000
  O        -3.0562790000        0.2084610000       10.6096570000
  O         1.6596210000       -2.8373120000       10.6743830000
  O         2.9694580000        9.1219370000        2.9092790000
  O         2.5316240000       -0.5433780000       10.2080480000
  O         1.3225750000        7.3069720000        2.3988930000
  O         4.5751670000        5.0876310000        5.2443370000
  O        -1.8361440000       -1.0225280000        7.9235160000
  O         4.0663910000       -3.6100490000       11.9620950000
  O         1.7435140000       11.0064290000        1.1443500000
  O         4.7710260000       -0.7954980000       11.9564180000
  O        -0.4275040000        9.0940250000        1.0940980000
  O         0.0288670000       -2.2880590000        7.9912580000
  O         2.5742950000        6.1196160000        5.1177960000
  O         9.1994190000        6.4527850000        1.0832950000
  O        -4.7481140000        1.9889750000       11.9440290000
  O         8.5002540000        3.6724200000        1.1132920000
  O        -2.5429750000        3.8492400000       12.0152310000
  O         4.2691710000        6.7355740000        3.0196680000
  O        -0.1470930000       -0.4360620000       10.0170300000
  O         6.7480570000        5.6000860000        0.0715300000
  O         2.0742010000        8.5415910000       -0.0654600000
  S         1.0773593169       -2.5157825494        3.3169290619
  S         2.3985660711       -0.1973227640        4.2953056247
  F         2.2389878719       -2.6428066821        0.9187245947
  F         0.1070785357       -3.2339219483        0.9307347289
  F         0.6522365774       -1.1103747558        1.0433502666
  F         4.6436570145        1.1968052559        4.5794571070
  F         4.9954208482       -0.7474006179        3.6100377622
  F         4.0847706035        0.8876042113        2.4674272447
  O        -7.2063237391       12.4239936185        3.7775795998
  O        -2.9581542211      -11.1747607457       16.6122012167
  O         2.5359085806       -0.1998123393        5.7508684611
  O         1.4992749153        0.7702421222        3.6793231659
  N         2.3938757177       -1.6916203033        3.7003473160
  C         1.0162886462       -2.3572492682        1.4513180534
  C         4.1255389916        0.2963905741        3.6903468019
     139
 i =       53, E =     -1553.2117088849
 Ti        -2.8683350000        2.1154420000       11.2652140000
 Ti         7.8027880000        5.3832100000        1.8443910000
 Ti         1.3525720000       -1.6735000000        9.4171130000
 Ti         2.5117920000        7.5426520000        3.6484140000
 Ti         1.4446720000        9.1874180000        1.7519890000
 Ti         3.2594580000       -1.8642570000       11.3595300000
 Ti        -1.8697820000        0.4160240000        9.3661400000
 Ti         5.8159840000        5.6142840000        3.7032810000
  H         3.7468960000        1.6526260000        8.5834390000
  H        -0.0029370000       -4.2340410000        6.4782570000
  H         4.4316300000       11.0106120000        4.6504380000
  H        -2.5036940000        6.0280510000       11.0484600000
  H         8.7487370000        1.5073420000        2.1552500000
  H        -6.8015420000        1.2218930000       10.9036440000
  H        11.1142460000        7.5038380000        2.0290890000
  H         4.3727210000       -5.8620200000       10.9626530000
  H        -2.5891430000        8.4561810000        2.0957030000
  H         4.6569660000        3.2041470000        6.8269530000
  H        -0.0452240000        3.6702680000        8.4060300000
  H        -3.5685920000       -1.8281670000        6.3785400000
  H         1.9853270000        7.5711820000       -0.1261220000
  H         5.9273850000        5.0774030000        0.1545840000
  H         3.7614260000       -2.5066170000        5.8447260000
  H         0.7455600000        9.3142620000        7.2794310000
  H        -6.0599130000        3.6612130000        9.0374900000
  H        10.6412470000        3.3933790000        4.1321340000
  H        -3.7285870000        2.2987080000        5.6888700000
  H        -1.7039720000       10.9033860000        4.1249230000
  H         1.7334520000       12.3009450000        2.6095370000
  H         8.6679850000       -0.5170630000        3.3558310000
  H         4.6066800000        7.2974510000        2.2978250000
  H         0.2154870000        0.1346200000       10.7192460000
  H         7.4153320000        0.2186850000        9.7283660000
  H         5.9554960000       -0.3025340000       10.4832990000
  H         7.8286560000        4.6709870000        8.6325370000
  H         7.2376510000        5.0115380000        7.0177090000
  H         7.0981770000       -4.7499770000        9.5343200000
  H         5.7840300000       -3.6950290000       10.0001570000
  H         1.4114850000        1.9115480000        9.3560850000
  H         0.8637590000        5.2270400000        6.6485740000
  H         5.7410230000        9.0693330000        3.8453710000
  H        -8.0103750000        8.6099930000        4.7446230000
  C         8.4223250000        4.6591910000        4.7037060000
  C        -3.8533280000        2.3467180000        8.4238990000
  C         3.9615950000       -2.5926300000        8.4765240000
  C         0.5135400000        9.4433570000        4.6213200000
  C         9.3443360000        4.0851920000        5.6931050000
  C        -4.8119260000        2.9400260000        7.4529070000
  C         4.9173150000       -3.1727480000        7.5232700000
  C        -0.3926610000       10.0575610000        5.6268840000
  C         9.1010420000        4.1497630000        7.1009990000
  C        -4.5992560000        2.8293420000        6.0635380000
  C         6.0750720000       -3.8937710000        7.9690880000
  C        -1.5160550000       10.7924690000        5.1890900000
  C        -0.1248110000        9.8942340000        6.9800950000
  C         4.6574050000       -3.0476440000        6.1409150000
  C        10.4989470000        3.4266870000        5.2100540000
  C        -5.9326790000        3.5931240000        7.9586910000
  C         2.8136840000        4.3074110000        6.6395670000
  C         1.8021000000        2.5801680000        8.5909250000
  C         6.1614730000        9.7262760000        4.6051290000
  C        -1.7300840000       -2.9447200000        6.5282340000
  C         8.7151750000        1.5883300000        0.0112620000
  C         1.8390400000       13.1474290000        0.0885870000
  C        10.9967290000        7.4345870000       -0.1203400000
  C        -2.4072200000        8.5110540000       -0.0635070000
  C         3.3505170000        5.2244920000        5.6056060000
  C        -1.1450180000       -2.0335150000        7.5402480000
  C         8.5285440000        3.0375930000       -0.0090850000
  C         1.7960860000       11.7116510000        0.0497010000
  C         9.7214410000        6.7729680000       -0.0672300000
  C        -1.0200150000        8.9738490000       -0.0463320000
  C         1.4829060000        4.4426040000        7.0787380000
  C         3.1252220000        2.4368270000        8.1546130000
  C         5.4241200000       10.8275940000        5.0587470000
  C        -0.9969320000       -4.0572320000        6.0734360000
  C         8.7846520000        0.9195150000        1.2397800000
  C        -2.5081420000        6.6152490000       11.9630650000
  C        11.6489580000        7.7305070000        1.1103030000
  C        -7.3513660000        1.0220250000       11.8219320000
  C         7.4413710000        9.4696440000        5.1127230000
  C        -3.0183170000       -2.6945520000        6.0174810000
  C         3.6326370000        3.2980560000        7.1812080000
  C         0.9806210000        3.5787050000        8.0528890000
  C         7.3617660000        0.4895280000       11.7535480000
  C        -3.0892010000        8.2549460000        1.1524790000
  C         4.4380030000       -6.3885600000       11.9106760000
  C         1.8336000000       13.8971630000        1.3187970000
  N         1.9163670000       13.2991920000        2.5559680000
  N         6.7825160000        0.2881570000       10.5174260000
  N         8.0012830000        4.7573400000        7.6391270000
  N         6.4187750000       -4.0420780000        9.2844230000
  O         7.2346650000        5.0226370000        5.0766040000
  O        -3.0539240000        1.4237030000        8.0201130000
  O         4.3452240000       -2.4564070000        9.6957080000
  O         0.4260540000        9.8718970000        3.4226800000
  O         1.3189610000        8.5130790000        5.0022280000
  O         2.7767760000       -2.2647240000        8.0780870000
  O         8.8243980000        4.7557010000        3.4898050000
  O        -3.9037660000        2.7797510000        9.6244670000
  O         6.1566970000        4.4091270000        2.5052180000
  O        -1.3679750000        1.9936580000       10.1096280000
  O         7.0178010000        6.7271700000        2.9531850000
  O        -3.0562790000        0.2084610000       10.6096570000
  O         1.6596210000       -2.8373120000       10.6743830000
  O         2.9694580000        9.1219370000        2.9092790000
  O         2.5316240000       -0.5433780000       10.2080480000
  O         1.3225750000        7.3069720000        2.3988930000
  O         4.5751670000        5.0876310000        5.2443370000
  O        -1.8361440000       -1.0225280000        7.9235160000
  O         4.0663910000       -3.6100490000       11.9620950000
  O         1.7435140000       11.0064290000        1.1443500000
  O         4.7710260000       -0.7954980000       11.9564180000
  O        -0.4275040000        9.0940250000        1.0940980000
  O         0.0288670000       -2.2880590000        7.9912580000
  O         2.5742950000        6.1196160000        5.1177960000
  O         9.1994190000        6.4527850000        1.0832950000
  O        -4.7481140000        1.9889750000       11.9440290000
  O         8.5002540000        3.6724200000        1.1132920000
  O        -2.5429750000        3.8492400000       12.0152310000
  O         4.2691710000        6.7355740000        3.0196680000
  O        -0.1470930000       -0.4360620000       10.0170300000
  O         6.7480570000        5.6000860000        0.0715300000
  O         2.0742010000        8.5415910000       -0.0654600000
  S         1.0776639372       -2.5152803509        3.3168515984
  S         2.3994872901       -0.1967902434        4.2943163966
  F         2.2389125279       -2.6429277871        0.9186089822
  F         0.1072092733       -3.2340075662        0.9306669730
  F         0.6522747578       -1.1103075380        1.0432776946
  F         4.6436314250        1.1971957302        4.5791069916
  F         4.9953940867       -0.7475753817        3.6097892649
  F         4.0848470480        0.8877444880        2.4667935969
  O        -7.2058627223       12.4247858695        3.7773383307
  O        -2.9579893320      -11.1742185870       16.6127736620
  O         2.5369955994       -0.1993605329        5.7498321306
  O         1.5003026553        0.7707810368        3.6784028553
  N         2.3942338564       -1.6910723539        3.6995284880
  C         1.0163281039       -2.3572256755        1.4512536114
  C         4.1260537480        0.2966772423        3.6898028012
     139
 i =       54, E =     -1553.2117092264
 Ti        -2.8683350000        2.1154420000       11.2652140000
 Ti         7.8027880000        5.3832100000        1.8443910000
 Ti         1.3525720000       -1.6735000000        9.4171130000
 Ti         2.5117920000        7.5426520000        3.6484140000
 Ti         1.4446720000        9.1874180000        1.7519890000
 Ti         3.2594580000       -1.8642570000       11.3595300000
 Ti        -1.8697820000        0.4160240000        9.3661400000
 Ti         5.8159840000        5.6142840000        3.7032810000
  H         3.7468960000        1.6526260000        8.5834390000
  H        -0.0029370000       -4.2340410000        6.4782570000
  H         4.4316300000       11.0106120000        4.6504380000
  H        -2.5036940000        6.0280510000       11.0484600000
  H         8.7487370000        1.5073420000        2.1552500000
  H        -6.8015420000        1.2218930000       10.9036440000
  H        11.1142460000        7.5038380000        2.0290890000
  H         4.3727210000       -5.8620200000       10.9626530000
  H        -2.5891430000        8.4561810000        2.0957030000
  H         4.6569660000        3.2041470000        6.8269530000
  H        -0.0452240000        3.6702680000        8.4060300000
  H        -3.5685920000       -1.8281670000        6.3785400000
  H         1.9853270000        7.5711820000       -0.1261220000
  H         5.9273850000        5.0774030000        0.1545840000
  H         3.7614260000       -2.5066170000        5.8447260000
  H         0.7455600000        9.3142620000        7.2794310000
  H        -6.0599130000        3.6612130000        9.0374900000
  H        10.6412470000        3.3933790000        4.1321340000
  H        -3.7285870000        2.2987080000        5.6888700000
  H        -1.7039720000       10.9033860000        4.1249230000
  H         1.7334520000       12.3009450000        2.6095370000
  H         8.6679850000       -0.5170630000        3.3558310000
  H         4.6066800000        7.2974510000        2.2978250000
  H         0.2154870000        0.1346200000       10.7192460000
  H         7.4153320000        0.2186850000        9.7283660000
  H         5.9554960000       -0.3025340000       10.4832990000
  H         7.8286560000        4.6709870000        8.6325370000
  H         7.2376510000        5.0115380000        7.0177090000
  H         7.0981770000       -4.7499770000        9.5343200000
  H         5.7840300000       -3.6950290000       10.0001570000
  H         1.4114850000        1.9115480000        9.3560850000
  H         0.8637590000        5.2270400000        6.6485740000
  H         5.7410230000        9.0693330000        3.8453710000
  H        -8.0103750000        8.6099930000        4.7446230000
  C         8.4223250000        4.6591910000        4.7037060000
  C        -3.8533280000        2.3467180000        8.4238990000
  C         3.9615950000       -2.5926300000        8.4765240000
  C         0.5135400000        9.4433570000        4.6213200000
  C         9.3443360000        4.0851920000        5.6931050000
  C        -4.8119260000        2.9400260000        7.4529070000
  C         4.9173150000       -3.1727480000        7.5232700000
  C        -0.3926610000       10.0575610000        5.6268840000
  C         9.1010420000        4.1497630000        7.1009990000
  C        -4.5992560000        2.8293420000        6.0635380000
  C         6.0750720000       -3.8937710000        7.9690880000
  C        -1.5160550000       10.7924690000        5.1890900000
  C        -0.1248110000        9.8942340000        6.9800950000
  C         4.6574050000       -3.0476440000        6.1409150000
  C        10.4989470000        3.4266870000        5.2100540000
  C        -5.9326790000        3.5931240000        7.9586910000
  C         2.8136840000        4.3074110000        6.6395670000
  C         1.8021000000        2.5801680000        8.5909250000
  C         6.1614730000        9.7262760000        4.6051290000
  C        -1.7300840000       -2.9447200000        6.5282340000
  C         8.7151750000        1.5883300000        0.0112620000
  C         1.8390400000       13.1474290000        0.0885870000
  C        10.9967290000        7.4345870000       -0.1203400000
  C        -2.4072200000        8.5110540000       -0.0635070000
  C         3.3505170000        5.2244920000        5.6056060000
  C        -1.1450180000       -2.0335150000        7.5402480000
  C         8.5285440000        3.0375930000       -0.0090850000
  C         1.7960860000       11.7116510000        0.0497010000
  C         9.7214410000        6.7729680000       -0.0672300000
  C        -1.0200150000        8.9738490000       -0.0463320000
  C         1.4829060000        4.4426040000        7.0787380000
  C         3.1252220000        2.4368270000        8.1546130000
  C         5.4241200000       10.8275940000        5.0587470000
  C        -0.9969320000       -4.0572320000        6.0734360000
  C         8.7846520000        0.9195150000        1.2397800000
  C        -2.5081420000        6.6152490000       11.9630650000
  C        11.6489580000        7.7305070000        1.1103030000
  C        -7.3513660000        1.0220250000       11.8219320000
  C         7.4413710000        9.4696440000        5.1127230000
  C        -3.0183170000       -2.6945520000        6.0174810000
  C         3.6326370000        3.2980560000        7.1812080000
  C         0.9806210000        3.5787050000        8.0528890000
  C         7.3617660000        0.4895280000       11.7535480000
  C        -3.0892010000        8.2549460000        1.1524790000
  C         4.4380030000       -6.3885600000       11.9106760000
  C         1.8336000000       13.8971630000        1.3187970000
  N         1.9163670000       13.2991920000        2.5559680000
  N         6.7825160000        0.2881570000       10.5174260000
  N         8.0012830000        4.7573400000        7.6391270000
  N         6.4187750000       -4.0420780000        9.2844230000
  O         7.2346650000        5.0226370000        5.0766040000
  O        -3.0539240000        1.4237030000        8.0201130000
  O         4.3452240000       -2.4564070000        9.6957080000
  O         0.4260540000        9.8718970000        3.4226800000
  O         1.3189610000        8.5130790000        5.0022280000
  O         2.7767760000       -2.2647240000        8.0780870000
  O         8.8243980000        4.7557010000        3.4898050000
  O        -3.9037660000        2.7797510000        9.6244670000
  O         6.1566970000        4.4091270000        2.5052180000
  O        -1.3679750000        1.9936580000       10.1096280000
  O         7.0178010000        6.7271700000        2.9531850000
  O        -3.0562790000        0.2084610000       10.6096570000
  O         1.6596210000       -2.8373120000       10.6743830000
  O         2.9694580000        9.1219370000        2.9092790000
  O         2.5316240000       -0.5433780000       10.2080480000
  O         1.3225750000        7.3069720000        2.3988930000
  O         4.5751670000        5.0876310000        5.2443370000
  O        -1.8361440000       -1.0225280000        7.9235160000
  O         4.0663910000       -3.6100490000       11.9620950000
  O         1.7435140000       11.0064290000        1.1443500000
  O         4.7710260000       -0.7954980000       11.9564180000
  O        -0.4275040000        9.0940250000        1.0940980000
  O         0.0288670000       -2.2880590000        7.9912580000
  O         2.5742950000        6.1196160000        5.1177960000
  O         9.1994190000        6.4527850000        1.0832950000
  O        -4.7481140000        1.9889750000       11.9440290000
  O         8.5002540000        3.6724200000        1.1132920000
  O        -2.5429750000        3.8492400000       12.0152310000
  O         4.2691710000        6.7355740000        3.0196680000
  O        -0.1470930000       -0.4360620000       10.0170300000
  O         6.7480570000        5.6000860000        0.0715300000
  O         2.0742010000        8.5415910000       -0.0654600000
  S         1.0781706416       -2.5145750409        3.3166819891
  S         2.4002750231       -0.1961319355        4.2932771664
  F         2.2388996374       -2.6430660416        0.9187272077
  F         0.1069360125       -3.2338043181        0.9306578434
  F         0.6522790188       -1.1102723063        1.0431024995
  F         4.6442746961        1.1967675534        4.5786369108
  F         4.9956798787       -0.7472539398        3.6093710716
  F         4.0853790421        0.8882870598        2.4661396521
  O        -7.2051230772       12.4259124622        3.7771387045
  O        -2.9577483331      -11.1734684680       16.6134324634
  O         2.5380033208       -0.1986430733        5.7487461954
  O         1.5017459524        0.7717021486        3.6769896558
  N         2.3948273417       -1.6902343686        3.6982751454
  C         1.0163149921       -2.3572181966        1.4511249705
  C         4.1262089795        0.2968805822        3.6890115365
     139
 i =       55, E =     -1553.2117096647
 Ti        -2.8683350000        2.1154420000       11.2652140000
 Ti         7.8027880000        5.3832100000        1.8443910000
 Ti         1.3525720000       -1.6735000000        9.4171130000
 Ti         2.5117920000        7.5426520000        3.6484140000
 Ti         1.4446720000        9.1874180000        1.7519890000
 Ti         3.2594580000       -1.8642570000       11.3595300000
 Ti        -1.8697820000        0.4160240000        9.3661400000
 Ti         5.8159840000        5.6142840000        3.7032810000
  H         3.7468960000        1.6526260000        8.5834390000
  H        -0.0029370000       -4.2340410000        6.4782570000
  H         4.4316300000       11.0106120000        4.6504380000
  H        -2.5036940000        6.0280510000       11.0484600000
  H         8.7487370000        1.5073420000        2.1552500000
  H        -6.8015420000        1.2218930000       10.9036440000
  H        11.1142460000        7.5038380000        2.0290890000
  H         4.3727210000       -5.8620200000       10.9626530000
  H        -2.5891430000        8.4561810000        2.0957030000
  H         4.6569660000        3.2041470000        6.8269530000
  H        -0.0452240000        3.6702680000        8.4060300000
  H        -3.5685920000       -1.8281670000        6.3785400000
  H         1.9853270000        7.5711820000       -0.1261220000
  H         5.9273850000        5.0774030000        0.1545840000
  H         3.7614260000       -2.5066170000        5.8447260000
  H         0.7455600000        9.3142620000        7.2794310000
  H        -6.0599130000        3.6612130000        9.0374900000
  H        10.6412470000        3.3933790000        4.1321340000
  H        -3.7285870000        2.2987080000        5.6888700000
  H        -1.7039720000       10.9033860000        4.1249230000
  H         1.7334520000       12.3009450000        2.6095370000
  H         8.6679850000       -0.5170630000        3.3558310000
  H         4.6066800000        7.2974510000        2.2978250000
  H         0.2154870000        0.1346200000       10.7192460000
  H         7.4153320000        0.2186850000        9.7283660000
  H         5.9554960000       -0.3025340000       10.4832990000
  H         7.8286560000        4.6709870000        8.6325370000
  H         7.2376510000        5.0115380000        7.0177090000
  H         7.0981770000       -4.7499770000        9.5343200000
  H         5.7840300000       -3.6950290000       10.0001570000
  H         1.4114850000        1.9115480000        9.3560850000
  H         0.8637590000        5.2270400000        6.6485740000
  H         5.7410230000        9.0693330000        3.8453710000
  H        -8.0103750000        8.6099930000        4.7446230000
  C         8.4223250000        4.6591910000        4.7037060000
  C        -3.8533280000        2.3467180000        8.4238990000
  C         3.9615950000       -2.5926300000        8.4765240000
  C         0.5135400000        9.4433570000        4.6213200000
  C         9.3443360000        4.0851920000        5.6931050000
  C        -4.8119260000        2.9400260000        7.4529070000
  C         4.9173150000       -3.1727480000        7.5232700000
  C        -0.3926610000       10.0575610000        5.6268840000
  C         9.1010420000        4.1497630000        7.1009990000
  C        -4.5992560000        2.8293420000        6.0635380000
  C         6.0750720000       -3.8937710000        7.9690880000
  C        -1.5160550000       10.7924690000        5.1890900000
  C        -0.1248110000        9.8942340000        6.9800950000
  C         4.6574050000       -3.0476440000        6.1409150000
  C        10.4989470000        3.4266870000        5.2100540000
  C        -5.9326790000        3.5931240000        7.9586910000
  C         2.8136840000        4.3074110000        6.6395670000
  C         1.8021000000        2.5801680000        8.5909250000
  C         6.1614730000        9.7262760000        4.6051290000
  C        -1.7300840000       -2.9447200000        6.5282340000
  C         8.7151750000        1.5883300000        0.0112620000
  C         1.8390400000       13.1474290000        0.0885870000
  C        10.9967290000        7.4345870000       -0.1203400000
  C        -2.4072200000        8.5110540000       -0.0635070000
  C         3.3505170000        5.2244920000        5.6056060000
  C        -1.1450180000       -2.0335150000        7.5402480000
  C         8.5285440000        3.0375930000       -0.0090850000
  C         1.7960860000       11.7116510000        0.0497010000
  C         9.7214410000        6.7729680000       -0.0672300000
  C        -1.0200150000        8.9738490000       -0.0463320000
  C         1.4829060000        4.4426040000        7.0787380000
  C         3.1252220000        2.4368270000        8.1546130000
  C         5.4241200000       10.8275940000        5.0587470000
  C        -0.9969320000       -4.0572320000        6.0734360000
  C         8.7846520000        0.9195150000        1.2397800000
  C        -2.5081420000        6.6152490000       11.9630650000
  C        11.6489580000        7.7305070000        1.1103030000
  C        -7.3513660000        1.0220250000       11.8219320000
  C         7.4413710000        9.4696440000        5.1127230000
  C        -3.0183170000       -2.6945520000        6.0174810000
  C         3.6326370000        3.2980560000        7.1812080000
  C         0.9806210000        3.5787050000        8.0528890000
  C         7.3617660000        0.4895280000       11.7535480000
  C        -3.0892010000        8.2549460000        1.1524790000
  C         4.4380030000       -6.3885600000       11.9106760000
  C         1.8336000000       13.8971630000        1.3187970000
  N         1.9163670000       13.2991920000        2.5559680000
  N         6.7825160000        0.2881570000       10.5174260000
  N         8.0012830000        4.7573400000        7.6391270000
  N         6.4187750000       -4.0420780000        9.2844230000
  O         7.2346650000        5.0226370000        5.0766040000
  O        -3.0539240000        1.4237030000        8.0201130000
  O         4.3452240000       -2.4564070000        9.6957080000
  O         0.4260540000        9.8718970000        3.4226800000
  O         1.3189610000        8.5130790000        5.0022280000
  O         2.7767760000       -2.2647240000        8.0780870000
  O         8.8243980000        4.7557010000        3.4898050000
  O        -3.9037660000        2.7797510000        9.6244670000
  O         6.1566970000        4.4091270000        2.5052180000
  O        -1.3679750000        1.9936580000       10.1096280000
  O         7.0178010000        6.7271700000        2.9531850000
  O        -3.0562790000        0.2084610000       10.6096570000
  O         1.6596210000       -2.8373120000       10.6743830000
  O         2.9694580000        9.1219370000        2.9092790000
  O         2.5316240000       -0.5433780000       10.2080480000
  O         1.3225750000        7.3069720000        2.3988930000
  O         4.5751670000        5.0876310000        5.2443370000
  O        -1.8361440000       -1.0225280000        7.9235160000
  O         4.0663910000       -3.6100490000       11.9620950000
  O         1.7435140000       11.0064290000        1.1443500000
  O         4.7710260000       -0.7954980000       11.9564180000
  O        -0.4275040000        9.0940250000        1.0940980000
  O         0.0288670000       -2.2880590000        7.9912580000
  O         2.5742950000        6.1196160000        5.1177960000
  O         9.1994190000        6.4527850000        1.0832950000
  O        -4.7481140000        1.9889750000       11.9440290000
  O         8.5002540000        3.6724200000        1.1132920000
  O        -2.5429750000        3.8492400000       12.0152310000
  O         4.2691710000        6.7355740000        3.0196680000
  O        -0.1470930000       -0.4360620000       10.0170300000
  O         6.7480570000        5.6000860000        0.0715300000
  O         2.0742010000        8.5415910000       -0.0654600000
  S         1.0781839145       -2.5144952318        3.3167625405
  S         2.4001637703       -0.1960129510        4.2933233468
  F         2.2388460975       -2.6429910953        0.9186593361
  F         0.1070560807       -3.2338130959        0.9306675623
  F         0.6522596187       -1.1103137645        1.0430609864
  F         4.6440320792        1.1968834836        4.5789103199
  F         4.9954737677       -0.7474198099        3.6095397931
  F         4.0852740717        0.8880055646        2.4662808694
  O        -7.2051263713       12.4259810599        3.7773950573
  O        -2.9576974052      -11.1734000251       16.6132637947
  O         2.5373582043       -0.1986215671        5.7488567027
  O         1.5017381509        0.7718713440        3.6768209955
  N         2.3949025934       -1.6900855342        3.6981868103
  C         1.0163085654       -2.3571738263        1.4512390847
  C         4.1262601221        0.2968875597        3.6892279851
