40
 i =      125, E =     -1723.1078707186
  S        -1.0393741960        0.0817479285        1.8169157265
  S         1.3096419544        0.9136715835        0.4067967726
  F        12.4211475779        0.1329777791        1.1272474659
  F         8.9865244357       -6.4735177250       13.0419598229
  F         2.6943721952        6.5090542646       13.2441576205
  F         5.2062248827        7.8120146407       11.5289914632
  F        -2.6776222216       -6.3702717379       11.2759288803
  F        -9.0134889225        6.7225095166       12.0018785865
  O        -1.1476613461        1.4014572149        2.4421081507
  O        14.6514792446       -1.1642133362        2.7141659045
  O         2.6717822773        0.7308542961        0.9014156949
  O         0.7909840863        2.2773188262        0.2998331179
  N         0.3451793600       -0.1928267713        1.0554909577
  C        13.6561674139       -0.0049844345        0.5704165935
  C        -9.5823158910        7.9565201320       12.0164918195
  N         2.4776506626        1.2256790387        3.9901270652
  N         2.9004031523        3.0805082058        2.9260920102
  C         1.7336950321        0.1166285125        4.6215186070
  C         2.0094500379       -1.2331621511        3.9570067485
  C         1.1538239687       -2.3353517422        4.5991500876
  C         1.9151792612        2.2946063382        3.4016886451
  C         3.8521353370        1.3232242969        3.8679741454
  C         4.1197038357        2.4883769557        3.2014440604
  C        -4.7350157566       11.4629289624        3.9472123295
  C         2.6972784337        4.3072036092        2.1481873508
  H         0.6690021963        0.3719376125        4.5439907013
  H         2.0010261370        0.1025417415        5.6874447423
  H         1.7844508810       -1.1581321191        2.8842409752
  H         3.0790350141       -1.4791489947        4.0386749994
  H         0.0937763599       -2.0668459842        4.4856986718
  H         1.3459386878       -2.3819264801        5.6822407667
  H         0.8485593217        2.4432398356        3.2640554146
  H         4.5141533445        0.5628337524        4.2566908477
  H         5.0532233934        2.9608652641        2.9155372561
  H        -3.6973281580       11.1272147538        4.0818126560
  H        -5.3956278195       10.6936649852        4.3703515334
  H        -4.9347577573       11.5029427376        2.8674336262
  H         3.6600787996        4.5771197470        1.7018080309
  H         2.3456221021        5.1194655796        2.7967891429
  H         1.9698855621        4.0995976498        1.3529960136
