Ti H  C  N  O  H  C  O  N  C  H 
 1.0000000000000000
    15.9994382109796049   -0.5572649430000000    0.0895682220000000
    -6.5170292548035018   14.6125095913853507   -0.0565184190000000
    -4.6346464189686101   -7.0664363292730927   13.0946092452447971
 Ti  H   C   N   O   H   C   O   N   C   H  
   8  24  34   4  28  10  12   4   2   6  11
Cartesian
 -2.8554412275000001  2.2297552022999998 11.2463997376000044
  7.9750361372000000  5.1109759087000004  1.8815884590000000
  1.2412501725000000 -1.7064359003000000  9.4264167275000066
  2.7524399572000018  7.4556982216999996  3.6533856854000009
  1.7538636066000000  9.1340074834999996  1.7489992761000008
  3.1294509489000002 -1.9607790113000003 11.3797851157000007
 -1.9062424331000001  0.4938697679000001  9.3549220955999992
  5.9872196348999998  5.4135291544999999  3.7290505139000008
 -2.3535633405000000  6.1268493589000004 11.0269464146999994
  8.7838182691999993  1.2049235062000001  2.2022738280000000
 -6.8153402829000038  1.4731364326000009 10.8639462887999994
 11.3571854627000004  7.1152746385999999  2.0822439711000000
  4.1050561101999996 -5.9953192240000002 10.9938617654000002
 -2.3046587249999999  8.5441078771000054  2.0710528544000000
  2.2483227416000000  7.4972046805000003 -0.1240856530000001
  6.0995098834999997  4.8682810071000002  0.1816520579000000
  3.6393581673000002 -2.6278875760000018  5.8686855120999999
  1.0290002524999999  9.2927178727000008  7.2723491616000002
 -5.9788559853000001  3.8824961801000000  8.9990117262999991
 10.7297936241000027  3.0266509341000001  4.1875866199000003
 -3.6777504886000001  2.4350551746000013  5.6651730010000003
 -1.3462097745999999 10.9618665172000007  4.1022410020000004
  2.1461089590000011 12.2368412643000006  2.6044666559000000
  8.6259872755000000 -0.8139157359000000  3.4047620808999999
  4.8450628364000004  7.1358276907000038  2.3147574648000000
  0.1605495998000000  0.1419586050000000 10.7200431206999998
  7.3641928865000006 -0.0259262801000000  9.7694475145999995
  5.8830690568000019 -0.4949903845000000 10.5167838780000000
  7.9383140644000001  4.4077101934000025  8.6705462285999992
  7.3685955079000021  4.7662922968999997  7.0520033226000036
  6.8753795927000025 -4.9807560768000005  9.5794177180000073
  5.5962333884000000 -3.8801753764000013 10.0368132477999996
  8.5530729679000004  4.3697397450000004  4.7451165122000001
 -3.8159860880999998  2.4911482223000010  8.3993672259000007
  3.8217512968000009 -2.7171409750000000  8.5016953248000000
  0.8163222919000001  9.4262097651000030  4.6127464437999999
  9.4490945171000007  3.7654249789000018  5.7403075387000024
 -4.7478898544000003  3.1161630702000016  7.4223197345000003
  4.7619496049999999 -3.3314885688000002  7.5545060905000003
 -0.0734961757000000 10.0730082808999999  5.6125375410000036
  9.2003320117000040  3.8403379320000002  7.1467295982000039
 -4.5314958052000005  2.9961849930000000  6.0342986467000035
  5.8914015843999996 -4.0917916102999996  8.0075721094999999
 -1.1682245463000001 10.8459647331000006  5.1676114375999997
  0.1809983144000001  9.9022489854000000  6.9674226281999996
  4.5142427544999997 -3.1993541866999999  6.1705827262000001
 10.5827700278000005  3.0664391747000002  5.2646011390000034
 -5.8480538206999997  3.8085779709000014  7.9210015912000005
  8.7648457616000002  1.2839919178999999  0.0581788735000000
  2.2951141394999999 13.0755804678000054  0.0831884338000001
 11.2492805642999993  7.0471067992000034 -0.0678265088000000
 -2.1090524932000001  8.5895436927999995 -0.0872147688000000
  3.4991550479000018  5.1125196139000035  5.6179769661000014
 -1.2569325685999999 -1.9818509278000007  7.5361152190000000
  8.6289901491999998  2.7388490768000011  0.0349816308000000
  2.2023612446000000 11.6420626106000000  0.0457001001000000
  9.9514462067000053  6.4302791305000007 -0.0209632126000000
 -0.7067419424000001  9.0038865702000006 -0.0627532411000000
  8.8041952533000050  0.6148782872000004  1.2878585046000000
 -2.3426355783999999  6.7152464699000038 11.9408405592999998
 11.9045814379999992  7.3219103563000019  1.1661325386000005
 -7.3768282152999998  1.2937570617000009 11.7793041825000007
  7.3089352380000001  0.2493959041000001 11.7937985755000003
 -2.8062425180000017  8.3591244286999995  1.1252557036999999
  4.1466994578999996 -6.5224813999000038 11.9429135854000066
  2.3088909703999998 13.8267716787000037  1.3124676864000000
  2.3639483306000009 13.2279373199000005  2.5506291126000016
  6.7299028115999997  0.0665537039000000 10.5548285882000066
  8.1194480091999992  4.4865797445000002  7.6780189907000000
  6.2224102367000000 -4.2500397509000001  9.3249668353999997
  7.3767471197000027  4.7748322575000000  5.1109120324999999
 -3.0469952938999998  1.5402833349000000  8.0010835721000007
  4.2032070062000004 -2.5926580701000002  9.7228049398999996
  0.7504487680000003  9.8558769388999998  3.4131455420000019
  1.5867814080000000  8.4689944203999996  4.9992014838000003
  2.6513279936000012 -2.3487002355000000  8.0961808047999995
  8.9649471389000031  4.4504944905999997  3.5333713572000001
 -3.8580004447000000  2.9273964402999999  9.5990816561999992
  6.2924421741000005  4.1956221636000004  2.5343584485999999
 -1.3537777445000008  2.0542292323000000 10.0994381127999997
  7.2312292183000002  6.4829102069999998  2.9843368550000000
 -3.1059579023000019  0.3295510405000000 10.5921069055000068
  1.5005519650000001 -2.8783994706999998 10.6868338867000006
  3.2689881161000001  9.0170122681000002  2.9149099339000002
  2.4545011373999999 -0.6169106861000000 10.2226572901000079
  1.5627560531000000  7.2599015844000032  2.3974784863999998
  3.8717747218000009 -3.7326396698000002 11.9888918734000001
  2.1192516777999999 10.9406259840000040  1.1408947382000001
  4.6739207346000002 -0.9444567772000000 11.9837644369999996
 -0.1166826275000000  9.1048959281999995  1.0808205737000003
  9.4121105305999997  6.1301029736999997  1.1270244293000000
 -4.7422236299999998  2.1697109244999999 11.9148398400000008
  8.6165459101000028  3.3757775589999999  1.1564294106999999
 -2.4740258157000001  3.9520513270000017 11.9961067321999995
  4.4842306190000034  6.5870717772000003  3.0354307639000000
 -0.2177092848000000 -0.4167384271000002 10.0164501757999993
  6.9383389381000002  5.3619521281999996  0.1026298021000000
  2.3706876007000002  8.4640018111999993 -0.0641145578000000
  3.7242921371285544  1.4901719638766113  8.5473046887976594
 -0.1504330981879214 -4.1722943437272386  6.4065747799734689
  4.5908105585699968 10.5633721256293782  5.0608070835051864
  4.7159233709658031  3.0335137787459074  6.8306183722898473
  0.0192213893391889  3.6735381989192750  8.3713784790112769
 -3.7780993137213428 -1.8665274618450027  6.5922772276928310
  1.3852381524071800  1.8260981218865240  9.2905650238559918
  1.0102308062584979  5.2156435515344723  6.6483240343867598
  5.8762791131690832  8.6404311184216418  4.1735519502394443
 -7.7710625131401603  8.8318889736059685  4.7601478424449928
  2.9201761368580361  4.2140443658840123  6.6432732352648900
  1.8173794993973045  2.4986397525345025  8.5514166480344453
  6.3508862625629190  9.3326753236665603  4.8676157738726236
 -1.8993641041837803 -2.9233045519385938  6.5817925753163555
  1.5921851208874864  4.4002051422624033  7.0728136187013408
  3.1393719924160162  2.3080192156759121  8.1293738954543464
  5.6286649642269335 10.4260243640581365  5.3614263637994286
 -1.1822202077338591 -4.0305176117016277  6.0907397834501493
  7.6838671522618753  9.1302601571261768  5.2464677726822222
 -3.2385969962213452 -2.7244956920015460  6.1958920736683281
  3.6929650218500742  3.1646853915083701  7.1771325969476472
  1.0441282963042666  3.5424743435502233  8.0275747282595606
  4.7212619556231683  4.9353706339623136  5.2622438231440070
 -1.9176843438848337 -0.9470976894524068  7.9054228489298515
 -0.0791424058711877 -2.2520070400702639  7.9620148225785057
  2.7605846383700685  6.0338583482064205  5.1154978761158754
  6.5567454447707405  9.5203771427030386 27.1142741589138225
  6.5367270444771561 11.3622678459369304 28.2807066159291729
  7.8419607993509723  9.7025969138601731 27.6020720939191584
  7.8273515522714963 10.8612205412970990 28.3306517275616656
  6.2409241256912393 13.8140887860027739 27.9477654211064994
  6.1235306916309726  8.4333705730273216 26.2318308393583912
  5.7803767601834730 10.5342194480083968 27.5402166560321007
  6.0627898763880754 12.6241545133555952 28.8883339675342228
  8.6309044218717279  8.9848109739900401 27.4145870738878230
  8.6068505625901590 11.3507725796813119 28.8987851470564436
  7.2931466769043016 13.9635983765638390 27.6753041974571303
  6.5439657522279875  8.5849586776876290 25.2287896757404511
  5.6517495357446244 13.6833503573822934 27.0306261236919028
  6.4921344103560585  7.4769091420302036 26.6221303018094524
  5.8804794736121782 14.7249527344637627 28.4465009275735206
  6.6176072496131804 12.7441474156161778 29.8263053010333579
  5.0272555287918355  8.4364637732731538 26.1815801000177260
  4.7199233987909857 10.6446354645678056 27.3520365543874213
  5.0040073492903927 12.4827155430568340 29.1399672229099949
