19        
Lattice="47.998314632938815 -1.671794829 0.268704666 -19.551087764410504 43.837528774156056 -0.16955525700000001 -13.90393925690583 -21.19930898781928 39.28382773573439" Properties=species:S:1:pos:R:3 i=1 E=-1362.5025135309 pbc="T T T"
N 15.753240 13.694649 31.753159
N 14.139134 14.460329 30.499903
C 15.614838 15.038815 32.047009
C 14.607911 15.521576 31.255726
C 13.499291 15.415091 28.295744
C 16.702930 12.772603 32.384151
C 14.846930 13.359825 30.815659
C 13.083046 14.531139 29.466785
H 16.188210 15.608056 32.768749
H 14.186572 16.514624 31.172215
H 13.709904 16.439905 28.627012
H 17.493263 13.355844 32.862595
H 14.387580 15.015254 27.791355
H 16.181370 12.173872 33.140862
H 12.671829 15.456326 27.573418
H 12.165022 14.891428 29.950335
H 17.136208 12.122011 31.619392
H 14.712565 12.373811 30.387386
H 12.896985 13.500190 29.145123
