     124
 i =        1, E =     -1301.9377970765
 Ti        -2.8544729371        2.2288012035       11.2451742717
 Ti         7.9734312298        5.1114538447        1.8825949583
 Ti         1.2423617844       -1.7066415171        9.4266889067
 Ti         2.7514322698        7.4556182143        3.6531173544
 Ti         1.7548616019        9.1330017268        1.7508223707
 Ti         3.1277597381       -1.9605540145       11.3777995704
 Ti        -1.9067772432        0.4939726684        9.3548483743
 Ti         5.9870965979        5.4132080736        3.7293954156
  H         3.7551404402        1.5331513695        8.6023612841
  H        -0.1859894333       -4.2220255275        6.4834087897
  H         4.7860044314       10.8565868584        4.6612439802
  H        -2.3532587756        6.1259541003       11.0269798755
  H         8.7845905051        1.2058549548        2.2023998991
  H        -6.8154642621        1.4735712464       10.8638313589
  H        11.3568956665        7.1155728212        2.0820823874
  H         4.1052239999       -5.9946656639       10.9935242777
  H        -2.3035249429        8.5443860883        2.0710626026
  H         4.7276273534        3.0500103265        6.8488582975
  H         0.0355221641        3.6821370950        8.4014906349
  H        -3.6646428393       -1.6945249837        6.3603065194
  H         2.2481050982        7.4957738905       -0.1242314581
  H         6.0984594251        4.8688811450        0.1817884018
  H         3.6392008347       -2.6280112983        5.8692430592
  H         1.0293043075        9.2921207296        7.2728780866
  H        -5.9792718351        3.8822295214        8.9988099772
  H        10.7304214392        3.0264819578        4.1882358960
  H        -3.6772129532        2.4351959681        5.6656296272
  H        -1.3459126634       10.9623030602        4.1028911359
  H         2.1466135501       12.2364966864        2.6045879401
  H         8.6269293604       -0.8142106675        3.4049176951
  H         4.8448701071        7.1351404334        2.3146632120
  H         0.1607402417        0.1413789644       10.7195927450
  H         7.3642190070       -0.0249799335        9.7691124081
  H         5.8826145547       -0.4945350644       10.5172160122
  H         7.9373266335        4.4079320461        8.6702709178
  H         7.3683961376        4.7655799108        7.0516356074
  H         6.8751931399       -4.9800390905        9.5784823709
  H         5.5958472609       -3.8801950005       10.0373082080
  H         1.4250449994        1.8741802028        9.3614339841
  H         1.0088335400        5.2028123565        6.6468368528
  H         6.0312938318        8.8694910889        3.8662786267
  H        -7.7321877915        8.8902783629        4.6892420304
  C         8.5529685034        4.3695799444        4.7446856831
  C        -3.8159945180        2.4912101306        8.3996315321
  C         3.8218174561       -2.7176222032        8.5028494765
  C         0.8160749619        9.4266638697        4.6122914554
  C         9.4489196102        3.7656298053        5.7397551200
  C        -4.7474781203        3.1161479775        7.4229221429
  C         4.7614381213       -3.3316843996        7.5554648453
  C        -0.0730028000       10.0731579288        5.6124048175
  C         9.2002600520        3.8401096952        7.1464457037
  C        -4.5311556210        2.9961228276        6.0347546678
  C         5.8911926562       -4.0922614332        8.0072193656
  C        -1.1681502054       10.8463458530        5.1683858490
  C         0.1812897427        9.9017878314        6.9676365099
  C         4.5139013948       -3.1996363335        6.1713400537
  C        10.5833196705        3.0666808197        5.2651803561
  C        -5.8481324346        3.8088607562        7.9207549602
  C         2.9248434055        4.2157972351        6.6501506477
  C         1.8429365066        2.5273463897        8.5974595039
  C         6.4701926841        9.5119342571        4.6279127428
  C        -1.8676141945       -2.8738658566        6.5221978928
  C         8.7640581389        1.2824384149        0.0583563401
  C         2.2953654782       13.0757128650        0.0828679782
  C        11.2490764595        7.0469030542       -0.0677157308
  C        -2.1101730023        8.5886818924       -0.0873424089
  C         3.4990046082        5.1124487984        5.6180862110
  C        -1.2567289145       -1.9815336609        7.5360792474
  C         8.6285922538        2.7385461376        0.0354191270
  C         2.2015129007       11.6413870420        0.0454387684
  C         9.9509558569        6.4286223735       -0.0207719263
  C        -0.7068145670        9.0037823877       -0.0627509554
  C         1.5972066142        4.3977208055        7.0819490325
  C         3.1628856406        2.3375250132        8.1691540672
  C         5.7691403190       10.6390919942        5.0754241394
  C        -1.1710793260       -4.0117866924        6.0726478933
  C         8.8035170557        0.6150107172        1.2884446600
  C        -2.3422715564        6.7150389423       11.9405084574
  C        11.9043764844        7.3220887768        1.1659895448
  C        -7.3768319900        1.2934230596       11.7790478817
  C         7.7377277654        9.2120093383        5.1429061558
  C        -3.1433770817       -2.5802026670        6.0032540970
  C         3.7052636053        3.1793808211        7.1976233107
  C         1.0595121577        3.5533722326        8.0543483998
  C         7.3081499774        0.2493170511       11.7938572220
  C        -2.8062804006        8.3595788792        1.1257042312
  C         4.1469328307       -6.5224425560       11.9423602170
  C         2.3088705396       13.8261931653        1.3123814667
  N         2.3631970698       13.2279122177        2.5501671451
  N         6.7304834325        0.0655822988       10.5551122645
  N         8.1193137658        4.4866466176        7.6778681115
  N         6.2219118165       -4.2494124273        9.3250669217
  O         7.3765905930        4.7754645209        5.1106039523
  O        -3.0464498435        1.5404514271        8.0009584478
  O         4.2039087945       -2.5923252375        9.7239985319
  O         0.7504732638        9.8565118795        3.4123841458
  O         1.5878759813        8.4700942753        4.9988535986
  O         2.6519300424       -2.3476700631        8.0963104121
  O         8.9644320357        4.4505391847        3.5324485248
  O        -3.8579510169        2.9273069361        9.5998283000
  O         6.2919898968        4.1953861234        2.5343135522
  O        -1.3525847254        2.0540535058       10.1005115718
  O         7.2311602523        6.4832396034        2.9841822540
  O        -3.1057531822        0.3288736419       10.5929421243
  O         1.4984630611       -2.8786107595       10.6879148109
  O         3.2704051332        9.0165865661        2.9140751865
  O         2.4545092031       -0.6150405019       10.2237023130
  O         1.5626473788        7.2584231844        2.3965599427
  O         4.7202539237        4.9327729582        5.2641324138
  O        -1.9150297593       -0.9470243544        7.9144878124
  O         3.8733129459       -3.7345209267       11.9892137962
  O         2.1208241557       10.9436941752        1.1426548623
  O         4.6761911815       -0.9430172705       11.9819983638
  O        -0.1189255755        9.1049816358        1.0810634463
  O        -0.0944976201       -2.2752852601        7.9933755324
  O         2.7571432841        6.0328549960        5.1240204326
  O         9.4133609568        6.1320160086        1.1283997652
  O        -4.7445914775        2.1700227069       11.9145890989
  O         8.6174820112        3.3734407915        1.1571932148
  O        -2.4727367256        3.9540900089       11.9948216938
  O         4.4843250314        6.5871358014        3.0361052477
  O        -0.2173976498       -0.4166548363       10.0153518513
  O         6.9377701542        5.3616222762        0.1025926379
  O         2.3705857583        8.4625665583       -0.0642505304
     124
 i =        2, E =     -1301.9378993049
 Ti        -2.8521978023        2.2263637686       11.2440860420
 Ti         7.9698727494        5.1123264594        1.8844973747
 Ti         1.2414618969       -1.7058536030        9.4248590640
 Ti         2.7509175868        7.4538598826        3.6543288676
 Ti         1.7565741739        9.1309216945        1.7524583851
 Ti         3.1251182585       -1.9601812503       11.3767459222
 Ti        -1.9069493192        0.4930189748        9.3535711763
 Ti         5.9863114045        5.4126825280        3.7313164159
  H         3.7557631998        1.5334917288        8.6025547207
  H        -0.1854894560       -4.2219052837        6.4833714993
  H         4.7865089051       10.8572713438        4.6602174784
  H        -2.3522893584        6.1239832427       11.0268283930
  H         8.7858138386        1.2067450853        2.2013241334
  H        -6.8160112034        1.4741494406       10.8643366940
  H        11.3554790751        7.1160115780        2.0823511533
  H         4.1058133774       -5.9935755852       10.9939094508
  H        -2.3020351035        8.5450165211        2.0700909448
  H         4.7276921900        3.0505111160        6.8488578114
  H         0.0357948735        3.6830459065        8.4022540375
  H        -3.6638131097       -1.6947766602        6.3598169504
  H         2.2472436902        7.4927887452       -0.1245029694
  H         6.0958706571        4.8701021076        0.1818866959
  H         3.6383410970       -2.6282488849        5.8703996552
  H         1.0293906852        9.2911623832        7.2740148317
  H        -5.9805817679        3.8819919601        8.9985666921
  H        10.7323914884        3.0261767935        4.1889178432
  H        -3.6763897970        2.4358200532        5.6667738991
  H        -1.3455843623       10.9638131050        4.1042539277
  H         2.1481306971       12.2351467841        2.6040594146
  H         8.6292717065       -0.8141024987        3.4052994728
  H         4.8443401995        7.1336404426        2.3144780542
  H         0.1611755287        0.1403559119       10.7186206471
  H         7.3641637372       -0.0227050559        9.7687111064
  H         5.8810900907       -0.4936485459       10.5178941762
  H         7.9354985317        4.4080531377        8.6694056471
  H         7.3676011919        4.7640602821        7.0503945233
  H         6.8757812451       -4.9792858346        9.5779801560
  H         5.5951834561       -3.8805784206       10.0376635577
  H         1.4246517465        1.8732648886        9.3615447083
  H         1.0092738510        5.2025692977        6.6467408592
  H         6.0305609174        8.8691995100        3.8658589177
  H        -7.7327203746        8.8903634980        4.6889266789
  C         8.5535878646        4.3697685298        4.7443563731
  C        -3.8159362172        2.4919088836        8.4000619080
  C         3.8237056836       -2.7164152358        8.5036481254
  C         0.8173043968        9.4295218007        4.6121923692
  C         9.4487963600        3.7655528768        5.7392308548
  C        -4.7470212670        3.1160707738        7.4238959609
  C         4.7603696763       -3.3334995090        7.5564345966
  C        -0.0726088880       10.0729910904        5.6126009477
  C         9.2003921750        3.8403617883        7.1463742894
  C        -4.5304567103        2.9969180819        6.0354561458
  C         5.8912060134       -4.0925898729        8.0076088081
  C        -1.1679971181       10.8469954611        5.1696820324
  C         0.1813194850        9.9010480922        6.9685121152
  C         4.5131509576       -3.1997855788        6.1721670594
  C        10.5840546018        3.0667349441        5.2655153771
  C        -5.8485424606        3.8089429363        7.9206475616
  C         2.9246725987        4.2153021243        6.6505724531
  C         1.8426230253        2.5266350296        8.5978323523
  C         6.4697395253        9.5115655352        4.6274331441
  C        -1.8674270537       -2.8743922453        6.5219958188
  C         8.7628646194        1.2800615927        0.0583793509
  C         2.2944509942       13.0778347812        0.0827013455
  C        11.2512268296        7.0465301403       -0.0675324033
  C        -2.1120983921        8.5877607487       -0.0874696349
  C         3.4984727281        5.1115735803        5.6179531124
  C        -1.2569727022       -1.9813071358        7.5356875187
  C         8.6299141237        2.7385274341        0.0362298961
  C         2.2044039071       11.6418505688        0.0452446325
  C         9.9505113151        6.4302156706       -0.0203404310
  C        -0.7070399879        9.0047427530       -0.0629224927
  C         1.5970989087        4.3973352607        7.0821381668
  C         3.1625876075        2.3370595942        8.1690073535
  C         5.7691744954       10.6388012179        5.0752793150
  C        -1.1708796830       -4.0123161711        6.0727501933
  C         8.8029221899        0.6147738643        1.2881642960
  C        -2.3414401310        6.7144207012       11.9395723239
  C        11.9036028533        7.3226281423        1.1667615784
  C        -7.3770940510        1.2934803997       11.7793736855
  C         7.7371060099        9.2116873381        5.1431562991
  C        -3.1431457198       -2.5806568416        6.0031112474
  C         3.7053158198        3.1790728062        7.1978066071
  C         1.0594882915        3.5528782889        8.0544672477
  C         7.3076174789        0.2477015536       11.7931175078
  C        -2.8065547498        8.3595295109        1.1257461702
  C         4.1466768589       -6.5228408563       11.9419853639
  C         2.3079054507       13.8250877913        1.3133684179
  N         2.3616680235       13.2273273154        2.5500781743
  N         6.7309310893        0.0636262453       10.5554344298
  N         8.1185574848        4.4866989828        7.6771762761
  N         6.2220663151       -4.2490005450        9.3257360129
  O         7.3766817280        4.7763391413        5.1099636335
  O        -3.0451016489        1.5411343363        8.0017936300
  O         4.2028793948       -2.5920980112        9.7264259641
  O         0.7509096198        9.8564253844        3.4106120771
  O         1.5898094828        8.4720801618        4.9973407984
  O         2.6529771295       -2.3458935990        8.0985095392
  O         8.9632559925        4.4500528358        3.5308752280
  O        -3.8571282912        2.9260758792        9.6016696010
  O         6.2912140921        4.1957180724        2.5348774928
  O        -1.3520293013        2.0530866741       10.1024256267
  O         7.2306518869        6.4828540762        2.9835491738
  O        -3.1048422963        0.3285763591       10.5933094140
  O         1.4962518511       -2.8759245431       10.6884674097
  O         3.2706774416        9.0143245879        2.9115187032
  O         2.4541366202       -0.6153469643       10.2262027753
  O         1.5634569816        7.2575177890        2.3963799957
  O         4.7202239076        4.9327703011        5.2654218484
  O        -1.9164527467       -0.9477049651        7.9144610064
  O         3.8753859935       -3.7379412103       11.9902429553
  O         2.1234018085       10.9484631086        1.1434998407
  O         4.6806200597       -0.9408297744       11.9810816986
  O        -0.1226630320        9.1048998409        1.0808392828
  O        -0.0936152242       -2.2736645595        7.9904922721
  O         2.7558592285        6.0309390971        5.1235437746
  O         9.4147705310        6.1342439663        1.1282940262
  O        -4.7481562185        2.1706375894       11.9145069309
  O         8.6183566389        3.3696482034        1.1582674330
  O        -2.4712103905        3.9568741288       11.9949455272
  O         4.4849412294        6.5867504500        3.0373999418
  O        -0.2170682906       -0.4159640226       10.0131162677
  O         6.9360692779        5.3612982909        0.1037455697
  O         2.3707741801        8.4594511224       -0.0646778701
     124
 i =        3, E =     -1301.9379165212
 Ti        -2.8511400075        2.2252851142       11.2442532951
 Ti         7.9685628834        5.1127280773        1.8846509677
 Ti         1.2416845698       -1.7056012752        9.4241970262
 Ti         2.7505820456        7.4535652043        3.6547375614
 Ti         1.7573835365        9.1295923974        1.7526946861
 Ti         3.1236698647       -1.9597998682       11.3764252932
 Ti        -1.9071360898        0.4928435159        9.3527734933
 Ti         5.9862019727        5.4124981460        3.7323252147
  H         3.7558648381        1.5331618983        8.6028303984
  H        -0.1857134714       -4.2222594727        6.4828820013
  H         4.7865575032       10.8576443062        4.6597900513
  H        -2.3513608089        6.1236540703       11.0276156068
  H         8.7861055280        1.2070711626        2.2009313237
  H        -6.8158218482        1.4746047632       10.8644611430
  H        11.3548423670        7.1165263885        2.0818238948
  H         4.1060995770       -5.9931485098       10.9940940523
  H        -2.3016784562        8.5453637933        2.0698557116
  H         4.7276281496        3.0503929895        6.8492226826
  H         0.0357579460        3.6830673758        8.4027629328
  H        -3.6637645615       -1.6946141107        6.3596125295
  H         2.2465729235        7.4915263206       -0.1245877789
  H         6.0945345800        4.8706263086        0.1819777498
  H         3.6384563682       -2.6286745584        5.8710581369
  H         1.0290113894        9.2911262034        7.2743955212
  H        -5.9813814404        3.8819733032        8.9989491982
  H        10.7332935757        3.0261608131        4.1889487443
  H        -3.6758898344        2.4363927060        5.6672274783
  H        -1.3453890277       10.9648402524        4.1046272583
  H         2.1490705663       12.2348672075        2.6038505071
  H         8.6305278462       -0.8144052775        3.4055070127
  H         4.8439733237        7.1326925017        2.3146883960
  H         0.1611118532        0.1400241674       10.7180052814
  H         7.3634500427       -0.0217721556        9.7686277203
  H         5.8806949096       -0.4932160992       10.5177191500
  H         7.9349024003        4.4078277051        8.6688516977
  H         7.3672776278        4.7633348421        7.0495660148
  H         6.8762673872       -4.9789910852        9.5787534904
  H         5.5952535468       -3.8810844365       10.0378059370
  H         1.4247078036        1.8730738003        9.3613689733
  H         1.0091476799        5.2023146724        6.6470021480
  H         6.0306884563        8.8692449596        3.8659795550
  H        -7.7326671146        8.8897046185        4.6886971274
  C         8.5534573221        4.3689624747        4.7441362603
  C        -3.8160474625        2.4918564210        8.4005208156
  C         3.8224367453       -2.7186210483        8.5049496553
  C         0.8162700015        9.4284237277        4.6115481993
  C         9.4494198600        3.7660294281        5.7390820680
  C        -4.7468176984        3.1166640473        7.4245006465
  C         4.7612284327       -3.3317022085        7.5573743779
  C        -0.0714465474       10.0743271183        5.6123767078
  C         9.2001116537        3.8399317950        7.1462595880
  C        -4.5302670188        2.9969984728        6.0359840015
  C         5.8905533874       -4.0935410593        8.0079311451
  C        -1.1681184459       10.8469665739        5.1699363817
  C         0.1810379567        9.9009116370        6.9684834266
  C         4.5129477741       -3.2006944261        6.1729331302
  C        10.5846263407        3.0667920527        5.2655384580
  C        -5.8488530895        3.8091046125        7.9210912957
  C         2.9243572484        4.2146504788        6.6505174811
  C         1.8425966641        2.5263825198        8.5975305048
  C         6.4697467385        9.5114202105        4.6278118435
  C        -1.8679058107       -2.8748219583        6.5217961963
  C         8.7642018823        1.2795944334        0.0584002333
  C         2.2962052207       13.0775211930        0.0826256051
  C        11.2506680031        7.0477247546       -0.0671162490
  C        -2.1128041975        8.5884219295       -0.0876119285
  C         3.4982029092        5.1114803557        5.6186701301
  C        -1.2567453884       -1.9811841843        7.5344481558
  C         8.6292335812        2.7383636105        0.0363492959
  C         2.2031943512       11.6415005280        0.0454066675
  C         9.9507847408        6.4289487762       -0.0205014712
  C        -0.7071250268        9.0050661843       -0.0629557605
  C         1.5969766431        4.3970277179        7.0822447015
  C         3.1628364453        2.3368689985        8.1694244173
  C         5.7691467764       10.6389475191        5.0748335581
  C        -1.1711946652       -4.0125853948        6.0725078876
  C         8.8025680852        0.6147265984        1.2879972573
  C        -2.3423144456        6.7145603440       11.9401276436
  C        11.9040912090        7.3221388939        1.1666225273
  C        -7.3768339697        1.2930235922       11.7793934242
  C         7.7373475431        9.2111597418        5.1428083940
  C        -3.1434551693       -2.5806688301        6.0029029342
  C         3.7051849483        3.1788008197        7.1979995674
  C         1.0594022307        3.5529983817        8.0548994336
  C         7.3077478507        0.2474151324       11.7939568372
  C        -2.8063449294        8.3596488475        1.1257002626
  C         4.1464872174       -6.5227541027       11.9419606750
  C         2.3073070038       13.8250436427        1.3127607278
  N         2.3609120276       13.2274025732        2.5494029722
  N         6.7313219241        0.0627809511       10.5563928806
  N         8.1182727100        4.4866727530        7.6766774453
  N         6.2224767728       -4.2489987335        9.3258129642
  O         7.3770118030        4.7769345303        5.1104002035
  O        -3.0444603702        1.5417250915        8.0014968339
  O         4.2032492902       -2.5919495963        9.7270680233
  O         0.7515984720        9.8572698697        3.4104912717
  O         1.5915121543        8.4733570846        4.9977406967
  O         2.6533811802       -2.3440388745        8.0980405747
  O         8.9632214929        4.4498911959        3.5307284752
  O        -3.8571869268        2.9257473270        9.6022282436
  O         6.2913138092        4.1959187380        2.5353887038
  O        -1.3522948598        2.0529961160       10.1029522186
  O         7.2306898141        6.4824430310        2.9831883233
  O        -3.1047439741        0.3287462795       10.5929609049
  O         1.4955543503       -2.8753140288       10.6885134351
  O         3.2707118937        9.0138529150        2.9101268014
  O         2.4543312572       -0.6150596968       10.2270978967
  O         1.5630663911        7.2572646093        2.3968184111
  O         4.7198290993        4.9329127545        5.2655804961
  O        -1.9168733766       -0.9486091840        7.9149613278
  O         3.8757293930       -3.7376118849       11.9909113246
  O         2.1256623117       10.9478132054        1.1431135573
  O         4.6799047519       -0.9396734067       11.9814116240
  O        -0.1226657614        9.1049604638        1.0803567725
  O        -0.0932113602       -2.2722912926        7.9895603870
  O         2.7554192039        6.0299070858        5.1227185278
  O         9.4138046325        6.1353901368        1.1275510457
  O        -4.7482215214        2.1709276207       11.9149349477
  O         8.6186277777        3.3693632723        1.1579891770
  O        -2.4693425986        3.9563867349       11.9956927117
  O         4.4849357718        6.5864742742        3.0383441428
  O        -0.2167140371       -0.4156090099       10.0116893131
  O         6.9351140312        5.3611915312        0.1040351992
  O         2.3709524575        8.4580781334       -0.0646922824
     124
 i =        4, E =     -1301.9379344796
 Ti        -2.8503667137        2.2246185951       11.2446233349
 Ti         7.9678138104        5.1131504022        1.8843469757
 Ti         1.2420511082       -1.7054428928        9.4237815244
 Ti         2.7502496397        7.4536075558        3.6550280127
 Ti         1.7581226578        9.1287704860        1.7524230114
 Ti         3.1226742805       -1.9592114129       11.3765563948
 Ti        -1.9075148316        0.4930095717        9.3520902017
 Ti         5.9863500749        5.4123236092        3.7329748513
  H         3.7557475454        1.5328580361        8.6031127130
  H        -0.1859294294       -4.2225831190        6.4824801832
  H         4.7866503861       10.8577719571        4.6594027860
  H        -2.3509233173        6.1236515582       11.0281657255
  H         8.7859939422        1.2070903575        2.2007060683
  H        -6.8156497841        1.4747377920       10.8646922089
  H        11.3547275318        7.1168048719        2.0814567569
  H         4.1061725869       -5.9931617545       10.9943467995
  H        -2.3016565947        8.5455633599        2.0696829572
  H         4.7275935500        3.0501728049        6.8496096108
  H         0.0357603786        3.6829030295        8.4032306271
  H        -3.6638253722       -1.6945356470        6.3593581865
  H         2.2459144931        7.4904582032       -0.1246477725
  H         6.0933797139        4.8708903127        0.1821075508
  H         3.6383286299       -2.6292049418        5.8715369535
  H         1.0287117415        9.2909822924        7.2745592826
  H        -5.9820112495        3.8819684007        8.9993132987
  H        10.7338821685        3.0262108726        4.1890335681
  H        -3.6754255713        2.4368373406        5.6676846063
  H        -1.3454401186       10.9655597439        4.1048088549
  H         2.1498185696       12.2346901454        2.6037700000
  H         8.6314207149       -0.8147240509        3.4057078304
  H         4.8436645625        7.1318888661        2.3150039342
  H         0.1609433267        0.1399578392       10.7174863785
  H         7.3629281652       -0.0211337791        9.7685801192
  H         5.8804292804       -0.4929681332       10.5176723814
  H         7.9345067524        4.4074935960        8.6684199421
  H         7.3671278318        4.7627827547        7.0488375036
  H         6.8767538946       -4.9789081573        9.5795504868
  H         5.5953655278       -3.8814660887       10.0381198379
  H         1.4247227647        1.8728857687        9.3612771229
  H         1.0089429896        5.2020839266        6.6473011701
  H         6.0307380086        8.8691542777        3.8659797161
  H        -7.7327194474        8.8892610528        4.6885907568
  C         8.5538250602        4.3694602538        4.7441712090
  C        -3.8156854351        2.4921904679        8.4008542402
  C         3.8229223765       -2.7167565061        8.5049336287
  C         0.8179324523        9.4297119459        4.6118528073
  C         9.4494502238        3.7656570649        5.7389773029
  C        -4.7469375911        3.1167976554        7.4249247343
  C         4.7606142828       -3.3328065519        7.5580683842
  C        -0.0718985608       10.0737946419        5.6122483401
  C         9.2001464441        3.8399780207        7.1461576389
  C        -4.5299561141        2.9972167226        6.0364249118
  C         5.8912527722       -4.0930857567        8.0081891278
  C        -1.1679894161       10.8474588693        5.1700449769
  C         0.1811060271        9.9009708647        6.9683024806
  C         4.5133598622       -3.2004195183        6.1735087797
  C        10.5851754957        3.0670857867        5.2656896621
  C        -5.8490562801        3.8091907684        7.9214775198
  C         2.9242260672        4.2144925676        6.6507319072
  C         1.8427089588        2.5263373401        8.5976190851
  C         6.4697433339        9.5113844666        4.6277669777
  C        -1.8678987262       -2.8748068368        6.5213765831
  C         8.7643290833        1.2798430154        0.0583486025
  C         2.2955954927       13.0767300525        0.0826816263
  C        11.2502601485        7.0470898668       -0.0670085376
  C        -2.1126623854        8.5888087427       -0.0875417245
  C         3.4976894593        5.1107420774        5.6184190637
  C        -1.2569512194       -1.9815629574        7.5343139798
  C         8.6297671099        2.7387367274        0.0362846303
  C         2.2044654079       11.6405185807        0.0455708004
  C         9.9497589221        6.4294230728       -0.0205932722
  C        -0.7068954687        9.0054854213       -0.0629049478
  C         1.5968438853        4.3967681322        7.0824391609
  C         3.1629277760        2.3366220478        8.1695839405
  C         5.7690827112       10.6389576557        5.0746302099
  C        -1.1714005489       -4.0127684164        6.0722229957
  C         8.8028017546        0.6147415119        1.2877551134
  C        -2.3420554009        6.7145182584       11.9407053578
  C        11.9040670600        7.3223540493        1.1662218478
  C        -7.3767796539        1.2930070390       11.7796166540
  C         7.7372831139        9.2107629668        5.1426706503
  C        -3.1435182072       -2.5806833504        6.0026773811
  C         3.7050780981        3.1786478488        7.1981750975
  C         1.0592878315        3.5528518418        8.0551522997
  C         7.3077454718        0.2477778254       11.7946139818
  C        -2.8063802237        8.3598553819        1.1255962990
  C         4.1467507459       -6.5228084967       11.9421715762
  C         2.3078888791       13.8251913799        1.3120994285
  N         2.3603723979       13.2274515374        2.5488841354
  N         6.7314713632        0.0622850877       10.5569758336
  N         8.1180355962        4.4864313825        7.6762813019
  N         6.2225414881       -4.2493909238        9.3260095238
  O         7.3772294102        4.7769556091        5.1108281376
  O        -3.0442291271        1.5421940030        8.0009661749
  O         4.2029135087       -2.5933246459        9.7275369223
  O         0.7513238296        9.8571574714        3.4105247052
  O         1.5919089599        8.4736052116        4.9982443557
  O         2.6533568036       -2.3439037383        8.0975993009
  O         8.9632323207        4.4494115034        3.5307614105
  O        -3.8576696981        2.9255582741        9.6025067926
  O         6.2914907884        4.1958414264        2.5358984377
  O        -1.3523947966        2.0530803303       10.1030778116
  O         7.2307798658        6.4823256121        2.9830517878
  O        -3.1048937250        0.3287342713       10.5924896656
  O         1.4953071329       -2.8752361191       10.6882870814
  O         3.2709860056        9.0136167446        2.9091192187
  O         2.4544890462       -0.6145548496       10.2274497823
  O         1.5623664346        7.2572017941        2.3974384689
  O         4.7196696439        4.9331725048        5.2658738558
  O        -1.9172765001       -0.9491692967        7.9151705160
  O         3.8751380067       -3.7367443025       11.9910985934
  O         2.1268120818       10.9466435846        1.1430151791
  O         4.6788570100       -0.9393629719       11.9815101865
  O        -0.1218957767        9.1050448948        1.0802412765
  O        -0.0926311514       -2.2711909869        7.9885207288
  O         2.7550843336        6.0293247479        5.1222745940
  O         9.4131482064        6.1355772559        1.1273849631
  O        -4.7475731533        2.1711048085       11.9151041418
  O         8.6182825881        3.3697680770        1.1578987124
  O        -2.4685984829        3.9556677255       11.9958944505
  O         4.4848173272        6.5862869569        3.0392325343
  O        -0.2164458357       -0.4151658892       10.0105007790
  O         6.9340841490        5.3612230411        0.1041929800
  O         2.3712589475        8.4568682306       -0.0647228471
     124
 i =        5, E =     -1301.9379511609
 Ti        -2.8492848063        2.2236853058       11.2453645412
 Ti         7.9667062744        5.1137336063        1.8838368239
 Ti         1.2419656043       -1.7049388218        9.4225508226
 Ti         2.7499077798        7.4532287264        3.6559217657
 Ti         1.7592047150        9.1279712049        1.7515308696
 Ti         3.1215669335       -1.9584304927       11.3775272874
 Ti        -1.9080530219        0.4932027473        9.3508539683
 Ti         5.9865803739        5.4119932671        3.7340605538
  H         3.7554089879        1.5326052033        8.6034521900
  H        -0.1859730524       -4.2230456339        6.4820807230
  H         4.7870082130       10.8577798829        4.6587328753
  H        -2.3504423755        6.1234900386       11.0281907640
  H         8.7857580986        1.2067477897        2.2003528957
  H        -6.8157063739        1.4746417200       10.8651819630
  H        11.3546753074        7.1171211733        2.0815971284
  H         4.1063686279       -5.9936698629       10.9947395457
  H        -2.3019788026        8.5458654957        2.0694139334
  H         4.7276610642        3.0498611828        6.8500711903
  H         0.0359772389        3.6825268541        8.4039956495
  H        -3.6638914703       -1.6945188248        6.3588606807
  H         2.2447392129        7.4883704584       -0.1248018520
  H         6.0913292624        4.8712133383        0.1823646506
  H         3.6379180190       -2.6296655847        5.8723600787
  H         1.0285712081        9.2906037854        7.2746121213
  H        -5.9829612680        3.8819553835        8.9996011151
  H        10.7349811436        3.0264544078        4.1893690656
  H        -3.6746248498        2.4376169974        5.6687724094
  H        -1.3455623414       10.9668381091        4.1051998180
  H         2.1509929463       12.2341533347        2.6034546729
  H         8.6328262633       -0.8149021881        3.4060643627
  H         4.8431421118        7.1305919032        2.3155746329
  H         0.1606457291        0.1400687163       10.7165441938
  H         7.3625765742       -0.0200049457        9.7684171470
  H         5.8798521364       -0.4926952796       10.5181068391
  H         7.9337290036        4.4068864619        8.6677444298
  H         7.3669534799        4.7618345582        7.0476110387
  H         6.8777377623       -4.9788217138        9.5804286309
  H         5.5954167633       -3.8818974492       10.0386395457
  H         1.4245665817        1.8722472933        9.3615413012
  H         1.0085534240        5.2017387163        6.6477013143
  H         6.0304245873        8.8687012829        3.8655562542
  H        -7.7331930680        8.8889378536        4.6885871317
  C         8.5542826624        4.3694172647        4.7440834390
  C        -3.8156742794        2.4925466909        8.4013681810
  C         3.8232984455       -2.7169586134        8.5050352952
  C         0.8185142681        9.4304070803        4.6121994655
  C         9.4497270628        3.7656075571        5.7391177040
  C        -4.7470726216        3.1170503258        7.4252924213
  C         4.7609514513       -3.3332407421        7.5581568743
  C        -0.0717659996       10.0740658432        5.6128649778
  C         9.2001290554        3.8399857015        7.1461676706
  C        -4.5293384266        2.9980325534        6.0369162910
  C         5.8915638876       -4.0932275745        8.0090371552
  C        -1.1675690803       10.8479397201        5.1702453837
  C         0.1813356385        9.9010753107        6.9687781881
  C         4.5135185514       -3.2003067175        6.1737058575
  C        10.5855766061        3.0673060761        5.2659765267
  C        -5.8492866193        3.8091632054        7.9218294662
  C         2.9239789253        4.2141110106        6.6507078894
  C         1.8426769744        2.5260351971        8.5982455251
  C         6.4695025393        9.5111257360        4.6271120561
  C        -1.8676803492       -2.8749358211        6.5211631331
  C         8.7642050920        1.2804760967        0.0581910493
  C         2.2949217202       13.0762737883        0.0828953187
  C        11.2501898127        7.0463547006       -0.0671790083
  C        -2.1120487359        8.5890477281       -0.0872800507
  C         3.4972155147        5.1100447589        5.6182775443
  C        -1.2570193622       -1.9814845695        7.5338369462
  C         8.6299812425        2.7395174369        0.0363692524
  C         2.2069731795       11.6395933329        0.0456936480
  C         9.9483928709        6.4308855222       -0.0205075682
  C        -0.7062140490        9.0058501418       -0.0628105939
  C         1.5966846368        4.3965167868        7.0828223628
  C         3.1627088936        2.3363630462        8.1696681803
  C         5.7691988180       10.6388156042        5.0744260268
  C        -1.1713411469       -4.0129879797        6.0718088530
  C         8.8037686094        0.6146292875        1.2872725964
  C        -2.3412945625        6.7140350823       11.9408656817
  C        11.9035337414        7.3227694692        1.1660588404
  C        -7.3771831659        1.2937978492       11.7801539655
  C         7.7367658096        9.2105203291        5.1426587823
  C        -3.1432426706       -2.5806742188        6.0022623013
  C         3.7050749876        3.1785189965        7.1984901844
  C         1.0593200209        3.5524123340        8.0554619904
  C         7.3079034548        0.2472382087       11.7945881808
  C        -2.8068014875        8.3603004724        1.1253864955
  C         4.1473635201       -6.5231636451       11.9426065085
  C         2.3078157028       13.8251569297        1.3120605390
  N         2.3602488793       13.2271564933        2.5488630022
  N         6.7311886686        0.0620474696       10.5569628948
  N         8.1175667548        4.4859616352        7.6757122945
  N         6.2227549861       -4.2499135880        9.3266850976
  O         7.3777618934        4.7772552035        5.1111334647
  O        -3.0436386578        1.5432159514        8.0005776442
  O         4.2018555046       -2.5941834697        9.7278848750
  O         0.7519335438        9.8572158395        3.4109412625
  O         1.5932264179        8.4748331158        4.9988674076
  O         2.6541061030       -2.3426511294        8.0975417625
  O         8.9632962106        4.4491474624        3.5309127262
  O        -3.8580041509        2.9252013831        9.6028289387
  O         6.2913616635        4.1956224047        2.5368169247
  O        -1.3524834717        2.0530450375       10.1031429529
  O         7.2307368836        6.4822910857        2.9830419404
  O        -3.1050020435        0.3284158377       10.5915301660
  O         1.4949834416       -2.8745069275       10.6874328482
  O         3.2712704850        9.0126595330        2.9077513787
  O         2.4545835427       -0.6145073024       10.2277053924
  O         1.5615903255        7.2572884292        2.3986807260
  O         4.7195602901        4.9329734748        5.2664318014
  O        -1.9186889385       -0.9501187660        7.9154793029
  O         3.8743856704       -3.7358994384       11.9910465692
  O         2.1287079092       10.9454629896        1.1430093252
  O         4.6776869929       -0.9387314064       11.9816594997
  O        -0.1209739829        9.1053035862        1.0804722236
  O        -0.0917843519       -2.2702847806        7.9863650945
  O         2.7538702834        6.0279830345        5.1217651316
  O         9.4123066049        6.1357699496        1.1274184497
  O        -4.7467961420        2.1714107471       11.9150129052
  O         8.6179631916        3.3703748630        1.1582189542
  O        -2.4675632837        3.9547926448       11.9959945899
  O         4.4847360080        6.5859276049        3.0406987741
  O        -0.2161544191       -0.4142476900       10.0086277981
  O         6.9320031160        5.3615556886        0.1046980135
  O         2.3720579229        8.4544891598       -0.0648875416
     124
 i =        6, E =     -1301.9379640360
 Ti        -2.8478181149        2.2223242924       11.2463139139
 Ti         7.9651080722        5.1144630537        1.8833950300
 Ti         1.2420985999       -1.7039725529        9.4205829037
 Ti         2.7493201221        7.4525592760        3.6572997639
 Ti         1.7607879605        9.1268923226        1.7507818015
 Ti         3.1199536311       -1.9576194739       11.3783803986
 Ti        -1.9085959797        0.4932345382        9.3491183370
 Ti         5.9866924084        5.4115016593        3.7357102904
  H         3.7551883991        1.5321466056        8.6038844275
  H        -0.1860277951       -4.2237146782        6.4813984631
  H         4.7872604954       10.8579901780        4.6577427706
  H        -2.3494934093        6.1231082858       11.0280014799
  H         8.7858891706        1.2064866536        2.2004290851
  H        -6.8158100398        1.4748536122       10.8652363771
  H        11.3543255747        7.1177322632        2.0819794118
  H         4.1069030747       -5.9943221064       10.9944856547
  H        -2.3025500399        8.5464868790        2.0697028226
  H         4.7275877948        3.0495281344        6.8507266363
  H         0.0360863800        3.6820729101        8.4051277322
  H        -3.6637390425       -1.6946265871        6.3579909360
  H         2.2429900723        7.4850845284       -0.1251058521
  H         6.0883061423        4.8718391320        0.1828316766
  H         3.6375873205       -2.6302905860        5.8736439409
  H         1.0285659763        9.2900034442        7.2747084426
  H        -5.9842462084        3.8817693449        8.9999159000
  H        10.7365833376        3.0269346645        4.1898449620
  H        -3.6733282916        2.4389809463        5.6704372086
  H        -1.3452038627       10.9684263551        4.1060220250
  H         2.1527106986       12.2333828022        2.6031442084
  H         8.6349619913       -0.8152322357        3.4066280613
  H         4.8422843288        7.1286657889        2.3165515984
  H         0.1601614281        0.1403251251       10.7148176324
  H         7.3618558991       -0.0184284163        9.7680000719
  H         5.8792162146       -0.4922766519       10.5185361911
  H         7.9322235647        4.4059767510        8.6667856132
  H         7.3666229222        4.7603951369        7.0459158563
  H         6.8789716421       -4.9783420195        9.5813879453
  H         5.5954845036       -3.8825513092       10.0395657842
  H         1.4244723096        1.8714155587        9.3619515516
  H         1.0080713382        5.2010930063        6.6483573010
  H         6.0300020066        8.8683058688        3.8650871957
  H        -7.7338523347        8.8881966522        4.6885530443
  C         8.5550463302        4.3695560618        4.7439467097
  C        -3.8155370778        2.4933150600        8.4019290825
  C         3.8238094994       -2.7164987059        8.5055199724
  C         0.8200224866        9.4318206042        4.6127118166
  C         9.4501954668        3.7654652695        5.7391675448
  C        -4.7471311830        3.1177673932        7.4259604286
  C         4.7610657274       -3.3339212842        7.5589748359
  C        -0.0712442386       10.0747034472        5.6134009609
  C         9.1999612496        3.8399393809        7.1460431999
  C        -4.5286193836        2.9989909482        6.0377773611
  C         5.8919757030       -4.0935224873        8.0098371389
  C        -1.1671163293       10.8486707574        5.1709940273
  C         0.1816218480        9.9009467175        6.9692361941
  C         4.5137130902       -3.2002728483        6.1746251817
  C        10.5865254559        3.0678605260        5.2663670177
  C        -5.8498497360        3.8091178531        7.9221785023
  C         2.9237118816        4.2135427801        6.6511913307
  C         1.8424324632        2.5252832036        8.5987022153
  C         6.4691907477        9.5105880641        4.6266608508
  C        -1.8675408462       -2.8750780025        6.5202421412
  C         8.7650777729        1.2805112984        0.0581889631
  C         2.2962205614       13.0762207864        0.0829445626
  C        11.2500727243        7.0468852968       -0.0670414516
  C        -2.1121195852        8.5898405830       -0.0871780778
  C         3.4964167036        5.1089530610        5.6183115815
  C        -1.2572682511       -1.9815282211        7.5327946429
  C         8.6293589233        2.7397489093        0.0366620758
  C         2.2081466903       11.6391538098        0.0458146812
  C         9.9479787915        6.4311511773       -0.0204149773
  C        -0.7058303648        9.0060955831       -0.0626584452
  C         1.5962875031        4.3957485364        7.0831868059
  C         3.1625338884        2.3360219119        8.1703094705
  C         5.7693160846       10.6387474684        5.0734825545
  C        -1.1714924913       -4.0135829499        6.0714575378
  C         8.8037826665        0.6144152538        1.2873223598
  C        -2.3408423484        6.7136294647       11.9406714367
  C        11.9032311934        7.3230220560        1.1663913525
  C        -7.3772025526        1.2937331249       11.7802203682
  C         7.7364370040        9.2101498221        5.1422585096
  C        -3.1433147142       -2.5810554329        6.0016471011
  C         3.7048555945        3.1778273171        7.1988474899
  C         1.0593335105        3.5520318764        8.0563503920
  C         7.3077839296        0.2471357147       11.7945177587
  C        -2.8069289748        8.3606589719        1.1254830254
  C         4.1477277899       -6.5233470248       11.9426285559
  C         2.3078032474       13.8248441966        1.3123510292
  N         2.3603980489       13.2266834001        2.5490077798
  N         6.7309209849        0.0618390194       10.5569907173
  N         8.1167952611        4.4852684478        7.6749421461
  N         6.2227187576       -4.2505451664        9.3274753567
  O         7.3783867193        4.7776871799        5.1112395193
  O        -3.0426499749        1.5445824913        8.0004968699
  O         4.2006601038       -2.5955104214        9.7287355365
  O         0.7528015945        9.8573336406        3.4114014924
  O         1.5952753912        8.4764851287        4.9997785677
  O         2.6549826045       -2.3410068856        8.0974114907
  O         8.9633269070        4.4489115386        3.5309569150
  O        -3.8581590426        2.9244264719        9.6034360348
  O         6.2908191852        4.1954278907        2.5381069904
  O        -1.3525529957        2.0527780861       10.1033458478
  O         7.2303626338        6.4822407592        2.9830996475
  O        -3.1050068354        0.3277714090       10.5900736933
  O         1.4937901859       -2.8733064643       10.6859977616
  O         3.2720317986        9.0109833243        2.9060452200
  O         2.4546392111       -0.6141746374       10.2281033311
  O         1.5606778038        7.2569799754        2.4004246265
  O         4.7191785106        4.9327597282        5.2672538087
  O        -1.9204808489       -0.9516654509        7.9160565755
  O         3.8737053721       -3.7352928367       11.9913476625
  O         2.1323394926       10.9443234613        1.1430139598
  O         4.6760521566       -0.9371763411       11.9819762489
  O        -0.1201373000        9.1056571754        1.0806023408
  O        -0.0908074971       -2.2684221304        7.9834206628
  O         2.7522725378        6.0258751321        5.1208981704
  O         9.4107942358        6.1368714779        1.1272808024
  O        -4.7462303595        2.1715579836       11.9150924595
  O         8.6177461567        3.3707587180        1.1585236578
  O        -2.4652397713        3.9536753216       11.9963590948
  O         4.4845642500        6.5853610752        3.0429965551
  O        -0.2155883287       -0.4130532001       10.0056581933
  O         6.9292129487        5.3618282783        0.1052704660
  O         2.3729996455        8.4508582429       -0.0649878553
     124
 i =        7, E =     -1301.9379723612
 Ti        -2.8466859387        2.2211823338       11.2469314005
 Ti         7.9639351538        5.1150213385        1.8831529913
 Ti         1.2426734611       -1.7028679055        9.4188430328
 Ti         2.7485705642        7.4520114730        3.6584573785
 Ti         1.7622181057        9.1260341021        1.7505342513
 Ti         3.1185063396       -1.9571141818       11.3786183402
 Ti        -1.9091939324        0.4932960449        9.3475795815
 Ti         5.9867318698        5.4109475200        3.7371444376
  H         3.7552274911        1.5314890490        8.6044534947
  H        -0.1862110918       -4.2243617862        6.4807446522
  H         4.7872305020       10.8582433924        4.6565955223
  H        -2.3486129978        6.1229275859       11.0280327727
  H         8.7860557249        1.2063055716        2.2008325153
  H        -6.8159210317        1.4750294272       10.8649942067
  H        11.3540979875        7.1183566629        2.0821479979
  H         4.1074909441       -5.9948258128       10.9939518576
  H        -2.3031165889        8.5471982188        2.0702820460
  H         4.7273378282        3.0491141219        6.8513061497
  H         0.0358997916        3.6817090596        8.4063324422
  H        -3.6635461227       -1.6948578056        6.3570476052
  H         2.2412723407        7.4818452699       -0.1254033082
  H         6.0854986721        4.8725767029        0.1833814827
  H         3.6376879173       -2.6307571918        5.8749526399
  H         1.0287289993        9.2895062666        7.2748439782
  H        -5.9853687278        3.8814061271        9.0001188240
  H        10.7380883140        3.0276956124        4.1904196365
  H        -3.6719714036        2.4405656240        5.6720355601
  H        -1.3443550613       10.9696896757        4.1069624461
  H         2.1543975947       12.2327697531        2.6032933874
  H         8.6369991685       -0.8159627773        3.4070746393
  H         4.8413258246        7.1268854380        2.3177814904
  H         0.1596955585        0.1408450541       10.7127507236
  H         7.3607911990       -0.0171255195        9.7676845850
  H         5.8788189098       -0.4918493163       10.5185945438
  H         7.9304568197        4.4049767722        8.6657683196
  H         7.3661748614        4.7590707177        7.0445049017
  H         6.8801207469       -4.9776490067        9.5820746894
  H         5.5955362281       -3.8831862258       10.0404371238
  H         1.4244166902        1.8706362522        9.3624028363
  H         1.0076254663        5.2002361355        6.6489906977
  H         6.0296430926        8.8679338619        3.8647078648
  H        -7.7343984485        8.8871843418        4.6884296775
  C         8.5555181151        4.3693866088        4.7435445899
  C        -3.8154082807        2.4939530355        8.4026462322
  C         3.8235713226       -2.7172908963        8.5066402979
  C         0.8209284439        9.4325340631        4.6129465937
  C         9.4508202953        3.7658602215        5.7390976322
  C        -4.7469413598        3.1184792881        7.4267678977
  C         4.7614944752       -3.3335146963        7.5600480946
  C        -0.0700399345       10.0758427270        5.6138738695
  C         9.1996546855        3.8394078418        7.1458560740
  C        -4.5278909038        3.0000281394        6.0387293756
  C         5.8917765582       -4.0942569966        8.0104589996
  C        -1.1664983767       10.8492786148        5.1719268013
  C         0.1819029100        9.9008976775        6.9697760827
  C         4.5138686869       -3.2007187948        6.1757486340
  C        10.5874554843        3.0684299705        5.2668300626
  C        -5.8502413913        3.8091615999        7.9224274174
  C         2.9230854754        4.2124334487        6.6514589495
  C         1.8423957100        2.5247844126        8.5994321726
  C         6.4691326701        9.5103619722        4.6259994122
  C        -1.8678254696       -2.8756738614        6.5195545017
  C         8.7648658141        1.2801663854        0.0582787703
  C         2.2969465435       13.0759637066        0.0828566737
  C        11.2498367787        7.0470794203       -0.0667672262
  C        -2.1121699389        8.5899525332       -0.0870149019
  C         3.4956591667        5.1080321203        5.6187868630
  C        -1.2574482135       -1.9814681804        7.5313914917
  C         8.6296369229        2.7396950145        0.0369489084
  C         2.2107322345       11.6386342444        0.0459208653
  C         9.9470875633        6.4322628520       -0.0203266467
  C        -0.7057874179        9.0066120447       -0.0624616874
  C         1.5959164070        4.3951404766        7.0841251540
  C         3.1623436533        2.3351263552        8.1707763200
  C         5.7690453032       10.6384417958        5.0726277706
  C        -1.1715349147       -4.0139589137        6.0705526039
  C         8.8035632813        0.6143095264        1.2876832124
  C        -2.3400589136        6.7135359400       11.9406538776
  C        11.9031431136        7.3233426275        1.1666201368
  C        -7.3769783039        1.2937240403       11.7801064343
  C         7.7360706775        9.2092529310        5.1419781982
  C        -3.1433017952       -2.5812035881        6.0004309610
  C         3.7046945002        3.1773374679        7.1997041153
  C         1.0589446415        3.5512544094        8.0571037061
  C         7.3076008167        0.2476788950       11.7947788116
  C        -2.8069919112        8.3612460896        1.1258064159
  C         4.1482196153       -6.5233315662       11.9423766848
  C         2.3088726774       13.8245600121        1.3123837563
  N         2.3608598187       13.2262930735        2.5488202189
  N         6.7307116504        0.0619721984       10.5574370239
  N         8.1160481097        4.4844843728        7.6741425093
  N         6.2225485540       -4.2511091447        9.3281274651
  O         7.3788923981        4.7781455612        5.1113005815
  O        -3.0417012281        1.5458655490        8.0003044320
  O         4.2001640033       -2.5962413354        9.7296682029
  O         0.7540652669        9.8579406043        3.4118583437
  O         1.5975740416        8.4782911157        5.0009193364
  O         2.6559355447       -2.3391080926        8.0969594309
  O         8.9635695426        4.4491007791        3.5308152802
  O        -3.8582326927        2.9239681237        9.6042225877
  O         6.2901911730        4.1953215402        2.5390820326
  O        -1.3524432269        2.0523958808       10.1036691055
  O         7.2298095437        6.4821513374        2.9832153059
  O        -3.1049865355        0.3269396530       10.5887975962
  O         1.4921358674       -2.8723171924       10.6844469506
  O         3.2729833970        9.0094948042        2.9049694750
  O         2.4548473639       -0.6134352027       10.2282705439
  O         1.5598686751        7.2563238374        2.4019024500
  O         4.7186076668        4.9325217152        5.2680199931
  O        -1.9221310812       -0.9532628559        7.9166629863
  O         3.8725678822       -3.7352348621       11.9918338022
  O         2.1349797066       10.9438841972        1.1433558124
  O         4.6751204858       -0.9363515402       11.9819724794
  O        -0.1195749552        9.1058796405        1.0806394544
  O        -0.0901810436       -2.2663971873        7.9810960986
  O         2.7509335982        6.0237418022        5.1199295967
  O         9.4099031550        6.1375544566        1.1273689971
  O        -4.7459352494        2.1711516664       11.9152172556
  O         8.6170359629        3.3706401765        1.1588526749
  O        -2.4638407329        3.9529187019       11.9965343173
  O         4.4842589857        6.5846791723        3.0453549604
  O        -0.2150586796       -0.4119625401       10.0026559075
  O         6.9270037828        5.3616333333        0.1055918861
  O         2.3734267834        8.4473956479       -0.0650333200
     124
 i =        8, E =     -1301.9379789076
 Ti        -2.8467177233        2.2210373503       11.2469722660
 Ti         7.9640374565        5.1149586285        1.8831450574
 Ti         1.2430067303       -1.7021491546        9.4182148916
 Ti         2.7482240915        7.4517986253        3.6588560361
 Ti         1.7624735079        9.1261090700        1.7507046461
 Ti         3.1183355941       -1.9572549802       11.3785039757
 Ti        -1.9095480099        0.4932749885        9.3471020884
 Ti         5.9866350576        5.4106238947        3.7374122489
  H         3.7552389905        1.5310501559        8.6047674419
  H        -0.1863266440       -4.2245453404        6.4804527468
  H         4.7871549667       10.8580990148        4.6559643194
  H        -2.3481963306        6.1230518221       11.0280156534
  H         8.7859990947        1.2060267688        2.2009662469
  H        -6.8161201549        1.4748946067       10.8650878371
  H        11.3541911077        7.1186415174        2.0822006189
  H         4.1078848041       -5.9949877679       10.9939095534
  H        -2.3034584542        8.5476527287        2.0705038892
  H         4.7270762201        3.0488542544        6.8515693113
  H         0.0356675314        3.6813658107        8.4069216815
  H        -3.6634385499       -1.6950375821        6.3563803498
  H         2.2404966300        7.4806617970       -0.1254727716
  H         6.0846655518        4.8729717069        0.1837091581
  H         3.6379805760       -2.6307549218        5.8754125198
  H         1.0290502188        9.2893971731        7.2751277246
  H        -5.9857298048        3.8811065080        9.0001498372
  H        10.7387266556        3.0283668360        4.1907574103
  H        -3.6712092575        2.4414888552        5.6725815322
  H        -1.3435904070       10.9699282831        4.1074072469
  H         2.1552222279       12.2326235621        2.6035571232
  H         8.6378047531       -0.8164661455        3.4070795281
  H         4.8408085799        7.1263677460        2.3186526529
  H         0.1595796638        0.1416184375       10.7114990376
  H         7.3603038210       -0.0167314172        9.7677524039
  H         5.8787849589       -0.4916052419       10.5186541639
  H         7.9294593891        4.4042637622        8.6653801463
  H         7.3658817736        4.7586240018        7.0441026455
  H         6.8807046340       -4.9773004269        9.5821694071
  H         5.5954826020       -3.8834149018       10.0407996772
  H         1.4243866872        1.8702416473        9.3629648713
  H         1.0074009692        5.1996977992        6.6493678990
  H         6.0294624089        8.8676039323        3.8643043207
  H        -7.7347951307        8.8866203879        4.6884004873
  C         8.5557538690        4.3696326087        4.7433524544
  C        -3.8153292877        2.4942782679        8.4029652390
  C         3.8237355434       -2.7174448842        8.5069655088
  C         0.8214616669        9.4329962528        4.6132236207
  C         9.4509265665        3.7659883869        5.7390398037
  C        -4.7467162554        3.1188368328        7.4270924901
  C         4.7615604443       -3.3337384269        7.5603773679
  C        -0.0693387381       10.0763155179        5.6142631820
  C         9.1996065428        3.8392570901        7.1458239082
  C        -4.5274159531        3.0006361231        6.0390954357
  C         5.8917765471       -4.0944421196        8.0107555129
  C        -1.1659448314       10.8495229747        5.1723828968
  C         0.1821841531        9.9009550004        6.9702361167
  C         4.5141765169       -3.2007265403        6.1761173526
  C        10.5879626477        3.0689414246        5.2671043327
  C        -5.8504103879        3.8090669333        7.9224955643
  C         2.9228478981        4.2121570820        6.6520900201
  C         1.8422450811        2.5241802752        8.5997364911
  C         6.4688405548        9.5099901964        4.6257303501
  C        -1.8677067574       -2.8756568970        6.5187843074
  C         8.7647549170        1.2801432361        0.0583710924
  C         2.2985017078       13.0756355644        0.0828526570
  C        11.2492380284        7.0477894949       -0.0667403181
  C        -2.1120010921        8.5899464015       -0.0867996808
  C         3.4952324800        5.1073609671        5.6188176873
  C        -1.2577935419       -1.9816279510        7.5312204791
  C         8.6282350874        2.7394636767        0.0371663310
  C         2.2109634688       11.6386297746        0.0459027358
  C         9.9470097171        6.4322503269       -0.0202887287
  C        -0.7055122816        9.0059829095       -0.0623467820
  C         1.5955465231        4.3945020091        7.0844546288
  C         3.1623378827        2.3347993123        8.1713106748
  C         5.7690880979       10.6384341955        5.0718988298
  C        -1.1717346918       -4.0143021717        6.0702544044
  C         8.8038223551        0.6141574826        1.2877525991
  C        -2.3396809922        6.7135081460       11.9407789558
  C        11.9030755302        7.3235009567        1.1665767048
  C        -7.3770623417        1.2940541601       11.7803045697
  C         7.7359371358        9.2089990140        5.1414923426
  C        -3.1433651590       -2.5814495106        5.9999591525
  C         3.7043995546        3.1768306091        7.1999133035
  C         1.0587979148        3.5509084570        8.0578269315
  C         7.3075712447        0.2476496867       11.7948371634
  C        -2.8071151484        8.3614638154        1.1259252953
  C         4.1483547525       -6.5234135899       11.9424115406
  C         2.3090405293       13.8243085985        1.3124801556
  N         2.3619599547       13.2260957689        2.5487250774
  N         6.7304012122        0.0627052271       10.5576347587
  N         8.1155557207        4.4838846170        7.6738592081
  N         6.2223327942       -4.2515357004        9.3285121070
  O         7.3789406853        4.7780434895        5.1111617193
  O        -3.0414456761        1.5464029173        8.0001296425
  O         4.2000565964       -2.5963440373        9.7300693028
  O         0.7548886117        9.8583607681        3.4121106598
  O         1.5984194344        8.4789982926        5.0015298759
  O         2.6564530701       -2.3385808216        8.0968404447
  O         8.9637909980        4.4494898383        3.5306062044
  O        -3.8581942261        2.9240723008        9.6046775774
  O         6.2899047150        4.1952547464        2.5391734222
  O        -1.3523736395        2.0520655669       10.1038839467
  O         7.2294278595        6.4820011814        2.9833468828
  O        -3.1050225521        0.3264342702       10.5883749239
  O         1.4913456680       -2.8719094835       10.6834478485
  O         3.2732452851        9.0090507094        2.9052715096
  O         2.4550918116       -0.6131015754       10.2279878800
  O         1.5597376022        7.2559650950        2.4023554337
  O         4.7183503696        4.9322871765        5.2685482805
  O        -1.9229726552       -0.9538008038        7.9165751706
  O         3.8721413428       -3.7356519164       11.9919596724
  O         2.1356773277       10.9441936354        1.1437234469
  O         4.6752067717       -0.9364386663       11.9817697162
  O        -0.1196631292        9.1062213136        1.0808059134
  O        -0.0902028654       -2.2658502520        7.9804107559
  O         2.7504288852        6.0228806768        5.1198037552
  O         9.4098798795        6.1376959021        1.1276467342
  O        -4.7460618953        2.1706300824       11.9152039945
  O         8.6168890038        3.3703276202        1.1591305825
  O        -2.4635256789        3.9527588871       11.9964640316
  O         4.4839673335        6.5842231066        3.0463798807
  O        -0.2149443770       -0.4114288293       10.0014951134
  O         6.9266850972        5.3612173883        0.1055444281
  O         2.3730643712        8.4462310429       -0.0649843892
     124
 i =        9, E =     -1301.9379855133
 Ti        -2.8471036556        2.2210697693       11.2469307240
 Ti         7.9645567442        5.1146747638        1.8833445753
 Ti         1.2434093576       -1.7011390775        9.4176547626
 Ti         2.7478998438        7.4516046349        3.6592632951
 Ti         1.7623757614        9.1265141076        1.7512555216
 Ti         3.1185269098       -1.9576284003       11.3781173712
 Ti        -1.9099700907        0.4930922303        9.3469408126
 Ti         5.9863953432        5.4101397933        3.7371971462
  H         3.7551943204        1.5303924041        8.6052815756
  H        -0.1865229607       -4.2248196586        6.4800905632
  H         4.7869963869       10.8577365295        4.6550014926
  H        -2.3475485307        6.1232508613       11.0278378751
  H         8.7858210225        1.2055294810        2.2011417536
  H        -6.8163568457        1.4746959758       10.8653742877
  H        11.3542781510        7.1189804742        2.0824014021
  H         4.1082939658       -5.9951312238       10.9941580236
  H        -2.3039470746        8.5482007317        2.0707300694
  H         4.7266293158        3.0483547487        6.8518394631
  H         0.0353372800        3.6806190243        8.4078290208
  H        -3.6633958601       -1.6952760797        6.3553597484
  H         2.2394927121        7.4798449796       -0.1254147706
  H         6.0843101935        4.8735394465        0.1841512417
  H         3.6386421761       -2.6305471910        5.8757315591
  H         1.0296938781        9.2894553339        7.2759140591
  H        -5.9861690002        3.8806257783        9.0002494858
  H        10.7396667703        3.0295280632        4.1910513107
  H        -3.6700697527        2.4429023453        5.6729712461
  H        -1.3423173604       10.9700305143        4.1078634479
  H         2.1564722973       12.2324218551        2.6036830222
  H         8.6387193829       -0.8168224535        3.4070420937
  H         4.8401486054        7.1261007941        2.3199750204
  H         0.1595714883        0.1432625145       10.7096933186
  H         7.3600606872       -0.0162914192        9.7679049978
  H         5.8787009683       -0.4911615297       10.5190596051
  H         7.9281383612        4.4029977754        8.6651619428
  H         7.3654797882        4.7581499134        7.0436825095
  H         6.8814696251       -4.9768438759        9.5823413710
  H         5.5954269467       -3.8837831073       10.0413448503
  H         1.4243318881        1.8695624270        9.3640437907
  H         1.0069377050        5.1988002850        6.6499433225
  H         6.0291243982        8.8669860506        3.8636282079
  H        -7.7354259271        8.8858453371        4.6882922539
  C         8.5559482488        4.3696856291        4.7432767763
  C        -3.8152200704        2.4949240623        8.4030513832
  C         3.8241463157       -2.7173608839        8.5069982260
  C         0.8226382960        9.4339299311        4.6139516361
  C         9.4512666525        3.7663504401        5.7390964689
  C        -4.7465821151        3.1194538291        7.4273137161
  C         4.7618507253       -3.3342032399        7.5607060252
  C        -0.0685311354       10.0767509918        5.6148045424
  C         9.1992699235        3.8390369485        7.1458659012
  C        -4.5266419458        3.0015933249        6.0393671282
  C         5.8920280140       -4.0947382671        8.0111123797
  C        -1.1650289956       10.8499519121        5.1728725306
  C         0.1828786413        9.9011214672        6.9708158637
  C         4.5147503672       -3.2006191680        6.1764913279
  C        10.5887175290        3.0698036115        5.2673178339
  C        -5.8507403118        3.8090831547        7.9226269841
  C         2.9223339018        4.2112898217        6.6524475986
  C         1.8420051056        2.5234551476        8.6006291450
  C         6.4685901072        9.5095000372        4.6249544747
  C        -1.8679218882       -2.8759574169        6.5182076190
  C         8.7642979108        1.2798961765        0.0586873697
  C         2.3001019455       13.0753343315        0.0827946104
  C        11.2487040136        7.0484874148       -0.0666057143
  C        -2.1119683005        8.5898589331       -0.0866001151
  C         3.4949989573        5.1070597251        5.6194555806
  C        -1.2579537426       -1.9814333773        7.5305550266
  C         8.6270087591        2.7389120199        0.0373802913
  C         2.2107137444       11.6388976999        0.0458930524
  C         9.9474919865        6.4315945880       -0.0202688722
  C        -0.7055117718        9.0054247984       -0.0620636073
  C         1.5952039049        4.3937945739        7.0851919358
  C         3.1621011341        2.3341442533        8.1719574647
  C         5.7690341136       10.6381303854        5.0709407726
  C        -1.1718428225       -4.0144738534        6.0695797347
  C         8.8037580411        0.6136810580        1.2879381457
  C        -2.3385816806        6.7134355151       11.9407806816
  C        11.9027732053        7.3242195743        1.1666939762
  C        -7.3772181486        1.2937880782       11.7805625918
  C         7.7356438145        9.2085626625        5.1410283977
  C        -3.1433383924       -2.5815969388        5.9988606588
  C         3.7040465598        3.1762776366        7.2005219364
  C         1.0585059157        3.5501819274        8.0586399248
  C         7.3068857295        0.2487329333       11.7948322994
  C        -2.8072693025        8.3614912669        1.1260540821
  C         4.1483342176       -6.5236528103       11.9426378300
  C         2.3106076642       13.8237984646        1.3127193681
  N         2.3638633834       13.2258160856        2.5489026942
  N         6.7299228479        0.0639156031       10.5576061669
  N         8.1146820012        4.4829793428        7.6737549666
  N         6.2219714619       -4.2521902394        9.3290364031
  O         7.3789323757        4.7776937489        5.1108262604
  O        -3.0413155714        1.5470706269        8.0001064733
  O         4.2000232590       -2.5964919133        9.7304140715
  O         0.7558340098        9.8588347937        3.4125504820
  O         1.5990300465        8.4794572649        5.0023425382
  O         2.6570746413       -2.3382962325        8.0966963987
  O         8.9641363947        4.4502877828        3.5304439459
  O        -3.8579800635        2.9242262055        9.6051792766
  O         6.2896360207        4.1949102375        2.5389563715
  O        -1.3524478922        2.0516770886       10.1040886215
  O         7.2289100614        6.4817961987        2.9836354000
  O        -3.1053554102        0.3258180300       10.5879613179
  O         1.4906310756       -2.8714562352       10.6820639751
  O         3.2733589644        9.0087598115        2.9061534142
  O         2.4554672847       -0.6126546581       10.2273955288
  O         1.5597263664        7.2556453669        2.4028051684
  O         4.7179726280        4.9315976648        5.2690587401
  O        -1.9241688704       -0.9544541928        7.9163992601
  O         3.8708802928       -3.7364843406       11.9922098343
  O         2.1360148100       10.9445494544        1.1439488941
  O         4.6755187731       -0.9370482168       11.9817284563
  O        -0.1198721584        9.1064754043        1.0810192194
  O        -0.0906703756       -2.2658567754        7.9801709479
  O         2.7496615248        6.0217650375        5.1198385594
  O         9.4098754797        6.1376464190        1.1278240183
  O        -4.7461894473        2.1693190865       11.9153586803
  O         8.6161889842        3.3698323302        1.1593367882
  O        -2.4635479638        3.9525431077       11.9965567871
  O         4.4834364221        6.5835581222        3.0474432300
  O        -0.2148227995       -0.4107223000       10.0003945171
  O         6.9270735165        5.3605071471        0.1052570708
  O         2.3720204429        8.4454909827       -0.0646825138
     124
 i =       10, E =     -1301.9379915208
 Ti        -2.8474055531        2.2208269237       11.2470015106
 Ti         7.9648517265        5.1143429221        1.8836035248
 Ti         1.2438034287       -1.7000180319        9.4168882153
 Ti         2.7475642246        7.4513123091        3.6598747355
 Ti         1.7622502215        9.1266479529        1.7518979484
 Ti         3.1185201497       -1.9579557716       11.3777515279
 Ti        -1.9105230696        0.4927967793        9.3466710245
 Ti         5.9860362463        5.4094922275        3.7371279439
  H         3.7550373757        1.5295093064        8.6060620371
  H        -0.1868432021       -4.2252574847        6.4794200071
  H         4.7868247205       10.8573407506        4.6536339475
  H        -2.3463236955        6.1232910387       11.0277249936
  H         8.7854771910        1.2049558952        2.2014964442
  H        -6.8164074059        1.4744324994       10.8656510675
  H        11.3540221088        7.1195686473        2.0826726650
  H         4.1085488052       -5.9951919883       10.9945545640
  H        -2.3043902093        8.5487329043        2.0709750038
  H         4.7260574845        3.0475957081        6.8523872645
  H         0.0349691386        3.6795531104        8.4091188278
  H        -3.6634249668       -1.6954827080        6.3538472632
  H         2.2380347186        7.4791767647       -0.1251525152
  H         6.0840552823        4.8742543689        0.1845837574
  H         3.6395656679       -2.6303570240        5.8761193756
  H         1.0305156206        9.2896769982        7.2770255777
  H        -5.9869767211        3.8800485426        9.0004518950
  H        10.7411118885        3.0311027289        4.1913003024
  H        -3.6686315199        2.4449418540        5.6735165480
  H        -1.3407387522       10.9705183483        4.1083533196
  H         2.1584695005       12.2320527866        2.6036243944
  H         8.6401562962       -0.8171430728        3.4069159600
  H         4.8393826485        7.1258306873        2.3215121019
  H         0.1596811276        0.1455042536       10.7074196452
  H         7.3597272892       -0.0154883168        9.7683073074
  H         5.8783817290       -0.4903340704       10.5195731183
  H         7.9264352409        4.4012212918        8.6647995115
  H         7.3648511447        4.7573896204        7.0430605619
  H         6.8825722754       -4.9763567388        9.5830624659
  H         5.5954367862       -3.8844666675       10.0421062890
  H         1.4243098630        1.8687102542        9.3653657560
  H         1.0062410184        5.1976153685        6.6508596743
  H         6.0287887250        8.8662298067        3.8628979631
  H        -7.7360905336        8.8847778806        4.6880752738
  C         8.5563074017        4.3701129835        4.7433781621
  C        -3.8150454453        2.4956116315        8.4032359510
  C         3.8243918019       -2.7174706730        8.5071115780
  C         0.8236137080        9.4344459005        4.6147778319
  C         9.4515544217        3.7666365977        5.7391564333
  C        -4.7462640660        3.1203879478        7.4276761071
  C         4.7623536885       -3.3344195171        7.5611944619
  C        -0.0671260067       10.0776636315        5.6155397630
  C         9.1988956906        3.8388532065        7.1459274636
  C        -4.5257095254        3.0030112070        6.0397302133
  C         5.8924002144       -4.0950226421        8.0116940811
  C        -1.1638341978       10.8503643775        5.1733860295
  C         0.1837119718        9.9012402076        6.9716018403
  C         4.5156226007       -3.2005092670        6.1769240077
  C        10.5897517745        3.0711584971        5.2675083494
  C        -5.8511440950        3.8090734642        7.9228658279
  C         2.9219686977        4.2107029658        6.6536187530
  C         1.8417641441        2.5225317591        8.6017456289
  C         6.4683251118        9.5088782192        4.6240951480
  C        -1.8679068040       -2.8758824975        6.5166387541
  C         8.7636780495        1.2793049175        0.0591064051
  C         2.3013186667       13.0748852623        0.0828166403
  C        11.2482288708        7.0490161176       -0.0664385004
  C        -2.1121868140        8.5894754783       -0.0863536009
  C         3.4941671957        5.1056375534        5.6193037828
  C        -1.2588483027       -1.9821045543        7.5305450602
  C         8.6260263554        2.7381681971        0.0376042991
  C         2.2116876688       11.6387490488        0.0460132109
  C         9.9474594984        6.4316728235       -0.0202516094
  C        -0.7057407097        9.0049806574       -0.0616743051
  C         1.5946307576        4.3925662014        7.0859069669
  C         3.1618536853        2.3333101577        8.1729035784
  C         5.7689091093       10.6377967019        5.0695443655
  C        -1.1722307109       -4.0149955899        6.0689519319
  C         8.8040913127        0.6131719523        1.2882823243
  C        -2.3374511228        6.7132154154       11.9408476033
  C        11.9023693220        7.3247751960        1.1668903704
  C        -7.3774953043        1.2939756626       11.7807538314
  C         7.7353498681        9.2079424222        5.1403298006
  C        -3.1435671161       -2.5820319332        5.9976463437
  C         3.7034473365        3.1752624581        7.2010789191
  C         1.0581556054        3.5492532426        8.0598042294
  C         7.3063719948        0.2496242076       11.7950121313
  C        -2.8077599444        8.3620656276        1.1262981534
  C         4.1488020728       -6.5239964303       11.9428958049
  C         2.3123691840       13.8233099048        1.3128595956
  N         2.3661859360       13.2254326128        2.5490348779
  N         6.7293095498        0.0652965849       10.5577724039
  N         8.1135235513        4.4817125949        7.6735425065
  N         6.2216762655       -4.2530737051        9.3296821658
  O         7.3788906089        4.7769721935        5.1106420851
  O        -3.0410948772        1.5479514941        8.0000399367
  O         4.2000612713       -2.5969321428        9.7308461677
  O         0.7569648439        9.8595286604        3.4132380411
  O         1.5999820764        8.4800798738        5.0034219763
  O         2.6578272355       -2.3377515637        8.0962922987
  O         8.9645086224        4.4507930523        3.5303347656
  O        -3.8579149125        2.9243733177        9.6057749214
  O         6.2894631933        4.1944390103        2.5388394582
  O        -1.3527743735        2.0512475846       10.1044068586
  O         7.2282406168        6.4813959443        2.9838488564
  O        -3.1059052485        0.3252460242       10.5873825726
  O         1.4900817185       -2.8707755248       10.6805947051
  O         3.2733808281        9.0083165134        2.9066780042
  O         2.4558858679       -0.6121873100       10.2269721943
  O         1.5594953748        7.2555053130        2.4035352998
  O         4.7175359195        4.9310964852        5.2698996397
  O        -1.9252766643       -0.9550874001        7.9160184766
  O         3.8690060005       -3.7373854817       11.9925681487
  O         2.1362696701       10.9444178286        1.1440250869
  O         4.6758904137       -0.9382317490       11.9818728154
  O        -0.1200630491        9.1067097114        1.0812516637
  O        -0.0910360953       -2.2653764713        7.9793752155
  O         2.7488874110        6.0206782841        5.1202474923
  O         9.4098538289        6.1371123143        1.1277976676
  O        -4.7462496396        2.1678218471       11.9156997007
  O         8.6152601952        3.3693344118        1.1594443496
  O        -2.4639941398        3.9521508142       11.9968126367
  O         4.4828103538        6.5827742084        3.0486246352
  O        -0.2145663406       -0.4096828260        9.9990104819
  O         6.9274204271        5.3600611952        0.1049623296
  O         2.3708646472        8.4448119420       -0.0642542765
     124
 i =       11, E =     -1301.9379993260
 Ti        -2.8477580121        2.2202091147       11.2472783485
 Ti         7.9648839661        5.1138119325        1.8838316188
 Ti         1.2441750461       -1.6986046324        9.4156793198
 Ti         2.7471572072        7.4508160331        3.6608708930
 Ti         1.7621041162        9.1264473315        1.7526032991
 Ti         3.1181899298       -1.9583465241       11.3775814768
 Ti        -1.9113994821        0.4924108133        9.3460261241
 Ti         5.9854827684        5.4085236351        3.7373714588
  H         3.7546931702        1.5282125303        8.6073163297
  H        -0.1874962226       -4.2260380924        6.4783923739
  H         4.7867515286       10.8567760052        4.6514967533
  H        -2.3441525537        6.1230523261       11.0277903621
  H         8.7849663042        1.2040919260        2.2019814040
  H        -6.8163734518        1.4740687533       10.8661077943
  H        11.3532119382        7.1205329649        2.0830141460
  H         4.1087681847       -5.9952799924       10.9953407378
  H        -2.3049355527        8.5494329770        2.0711469410
  H         4.7252366154        3.0462169058        6.8532831370
  H         0.0345631067        3.6779367427        8.4110502091
  H        -3.6636784961       -1.6957580769        6.3515406055
  H         2.2357374804        7.4785630261       -0.1245168891
  H         6.0838402797        4.8752109439        0.1849719331
  H         3.6408980591       -2.6301888034        5.8766306229
  H         1.0316058526        9.2900993465        7.2785770289
  H        -5.9883910994        3.8792370112        9.0008056385
  H        10.7433998579        3.0336289770        4.1916813499
  H        -3.6665806066        2.4481634522        5.6743823774
  H        -1.3385100907       10.9715451683        4.1090632201
  H         2.1617837256       12.2314110934        2.6035733145
  H         8.6425823066       -0.8177736967        3.4066684437
  H         4.8384178940        7.1255144974        2.3234345570
  H         0.1600594740        0.1488030603       10.7042535584
  H         7.3589958180       -0.0141168917        9.7690453760
  H         5.8776922640       -0.4888801058       10.5200698350
  H         7.9239456844        4.3985164022        8.6641008199
  H         7.3637989656        4.7560325469        7.0421489515
  H         6.8843078553       -4.9758193984        9.5845119201
  H         5.5954306831       -3.8855817373       10.0432411651
  H         1.4243310457        1.8675280517        9.3672077951
  H         1.0051107164        5.1957586349        6.6522262361
  H         6.0284325980        8.8650841575        3.8619169320
  H        -7.7369159008        8.8833042713        4.6877354177
  C         8.5564629949        4.3701404605        4.7434440938
  C        -3.8147206821        2.4964588951        8.4036807020
  C         3.8248834888       -2.7172663074        8.5071586370
  C         0.8255652830        9.4355905228        4.6161591498
  C         9.4520706764        3.7674771753        5.7392237723
  C        -4.7457395433        3.1215957421        7.4283030240
  C         4.7630159529       -3.3348020128        7.5618824844
  C        -0.0654641526       10.0783186328        5.6166892673
  C         9.1984223773        3.8384053488        7.1459919488
  C        -4.5242645628        3.0054954621        6.0403254629
  C         5.8930940809       -4.0951947875        8.0128072573
  C        -1.1618384978       10.8512245645        5.1741135061
  C         0.1850266284        9.9017315442        6.9728189774
  C         4.5170330689       -3.2002274272        6.1774783811
  C        10.5911089893        3.0731509840        5.2678322891
  C        -5.8515340816        3.8090983116        7.9232774157
  C         2.9209408984        4.2089623996        6.6543345040
  C         1.8415994392        2.5213333894        8.6034864000
  C         6.4680128248        9.5081147915        4.6227450301
  C        -1.8684566251       -2.8765616141        6.5154028752
  C         8.7634927255        1.2785843013        0.0595731975
  C         2.3030667952       13.0740308792        0.0829700193
  C        11.2474834477        7.0495723889       -0.0661948136
  C        -2.1126915161        8.5895570332       -0.0858486248
  C         3.4933347937        5.1044955783        5.6203405778
  C        -1.2594106561       -1.9822450053        7.5291812822
  C         8.6242289978        2.7373156201        0.0379135837
  C         2.2131283509       11.6379445870        0.0462574535
  C         9.9468886213        6.4318404880       -0.0202016547
  C        -0.7058261179        9.0040730985       -0.0611018692
  C         1.5939155915        4.3910697274        7.0874137071
  C         3.1614722333        2.3319451008        8.1741118777
  C         5.7686538099       10.6372253249        5.0677408297
  C        -1.1726548479       -4.0155270151        6.0675640173
  C         8.8049592832        0.6125867009        1.2885975151
  C        -2.3360713825        6.7126827879       11.9411065262
  C        11.9015657217        7.3254761659        1.1671532468
  C        -7.3778569867        1.2945842698       11.7812048953
  C         7.7347471074        9.2068612833        5.1394671700
  C        -3.1436310643       -2.5823041165        5.9954987489
  C         3.7027763984        3.1741089130        7.2022918606
  C         1.0576251993        3.5476819652        8.0613913992
  C         7.3060851135        0.2502318554       11.7955797125
  C        -2.8086119061        8.3628235897        1.1266271286
  C         4.1495435292       -6.5245966030       11.9433809908
  C         2.3139929590       13.8227967050        1.3128075188
  N         2.3695356308       13.2248139028        2.5489745825
  N         6.7283974751        0.0671300865       10.5583462281
  N         8.1119329463        4.4797357107        7.6730748072
  N         6.2214409726       -4.2544032168        9.3307379919
  O         7.3788636189        4.7760245366        5.1107279326
  O        -3.0407580961        1.5492433585        7.9997790530
  O         4.1998536288       -2.5979804008        9.7315033449
  O         0.7580938373        9.8600823561        3.4142234825
  O         1.6011268948        8.4806853371        5.0047974872
  O         2.6588808439       -2.3369816717        8.0956978029
  O         8.9649825614        4.4512819134        3.5303138044
  O        -3.8581891085        2.9245782552        9.6065939367
  O         6.2893338626        4.1938484874        2.5388193601
  O        -1.3535213672        2.0506255391       10.1050674719
  O         7.2273376830        6.4805371999        2.9839569427
  O        -3.1066436849        0.3246282708       10.5865867561
  O         1.4896433614       -2.8696784548       10.6788565646
  O         3.2733297829        9.0074927850        2.9066625483
  O         2.4564376386       -0.6117936237       10.2268107627
  O         1.5588602257        7.2556212965        2.4047715435
  O         4.7166279416        4.9300203783        5.2706272203
  O        -1.9270100217       -0.9563396786        7.9159750519
  O         3.8664405950       -3.7386333431       11.9928136041
  O         2.1369146071       10.9437612784        1.1441761659
  O         4.6762848777       -0.9399530708       11.9820448900
  O        -0.1204221808        9.1070594586        1.0818186832
  O        -0.0916517074       -2.2649102831        7.9783841852
  O         2.7476562403        6.0188843319        5.1205667815
  O         9.4097524797        6.1362160982        1.1277721368
  O        -4.7464640441        2.1661997441       11.9161230259
  O         8.6143274166        3.3686824099        1.1596668152
  O        -2.4645713619        3.9514857408       11.9971218745
  O         4.4820165003        6.5817610017        3.0500699202
  O        -0.2141451021       -0.4079873478        9.9970782027
  O         6.9275665737        5.3601485267        0.1047506417
  O         2.3696168399        8.4440483491       -0.0637171558
     124
 i =       12, E =     -1301.9380065545
 Ti        -2.8480753444        2.2194139439       11.2476566133
 Ti         7.9644893474        5.1133204963        1.8840022584
 Ti         1.2442913441       -1.6977549720        9.4147721870
 Ti         2.7468275158        7.4502176519        3.6616710842
 Ti         1.7619560537        9.1259809012        1.7532475810
 Ti         3.1175456748       -1.9586704399       11.3776250408
 Ti        -1.9122121244        0.4920093144        9.3454372210
 Ti         5.9848421054        5.4075544733        3.7376645186
  H         3.7542840509        1.5271062357        8.6085509774
  H        -0.1881767025       -4.2268018414        6.4774026056
  H         4.7869730352       10.8562240020        4.6494003351
  H        -2.3419424364        6.1223625988       11.0278901255
  H         8.7847147811        1.2031750932        2.2022855497
  H        -6.8164475398        1.4738639146       10.8668177831
  H        11.3519186709        7.1214051663        2.0834173483
  H         4.1088047957       -5.9955352197       10.9961811547
  H        -2.3054811015        8.5499489852        2.0712739798
  H         4.7245542672        3.0447341327        6.8542093265
  H         0.0343627715        3.6763194024        8.4128465387
  H        -3.6640744176       -1.6958826925        6.3491879965
  H         2.2336189767        7.4786987153       -0.1235823264
  H         6.0841016736        4.8759471683        0.1849548131
  H         3.6423015987       -2.6299717635        5.8768388852
  H         1.0327077586        9.2906888628        7.2799359038
  H        -5.9897837477        3.8784522492        9.0011777025
  H        10.7455220055        3.0363866278        4.1920382494
  H        -3.6646100858        2.4514366470        5.6749872245
  H        -1.3362882375       10.9726763771        4.1096879614
  H         2.1652033288       12.2306670222        2.6035976506
  H         8.6450249210       -0.8185131192        3.4066455548
  H         4.8378719004        7.1255535521        2.3246764442
  H         0.1608071799        0.1519708305       10.7016312473
  H         7.3582749047       -0.0127534089        9.7695688631
  H         5.8768306824       -0.4872878972       10.5203963470
  H         7.9217815745        4.3957766274        8.6635934736
  H         7.3628010018        4.7544267832        7.0413863843
  H         6.8858162637       -4.9754703736        9.5859426217
  H         5.5952965244       -3.8865817201       10.0443874351
  H         1.4244506967        1.8664746539        9.3689936022
  H         1.0039743505        5.1940047817        6.6535878685
  H         6.0281756168        8.8639139145        3.8609541870
  H        -7.7375755152        8.8822481364        4.6874002516
  C         8.5564340925        4.3699695046        4.7436835028
  C        -3.8145431337        2.4972407329        8.4039470114
  C         3.8252174362       -2.7175545470        8.5071682491
  C         0.8266657187        9.4358685002        4.6173448583
  C         9.4524562659        3.7681643857        5.7393261696
  C        -4.7453999119        3.1228231867        7.4287270836
  C         4.7639323878       -3.3348227388        7.5624276388
  C        -0.0638015205       10.0790335259        5.6178378933
  C         9.1980508374        3.8381490961        7.1460290375
  C        -4.5228311437        3.0080023876        6.0407973472
  C         5.8938504490       -4.0953008332        8.0140610481
  C        -1.1599672891       10.8520176040        5.1748022007
  C         0.1863044664        9.9023246582        6.9739889393
  C         4.5185043857       -3.1997760761        6.1779200904
  C        10.5925006635        3.0753334439        5.2681801957
  C        -5.8519501859        3.8091325367        7.9236702799
  C         2.9201773954        4.2076282104        6.6551807676
  C         1.8414360757        2.5201378600        8.6050531007
  C         6.4676527388        9.5072270543        4.6215443681
  C        -1.8687572372       -2.8768095791        6.5141634798
  C         8.7634907211        1.2780184332        0.0599391518
  C         2.3040066874       13.0733516816        0.0831120679
  C        11.2470200421        7.0496526251       -0.0657959802
  C        -2.1132644904        8.5899267146       -0.0852898306
  C         3.4924291299        5.1032304653        5.6210103082
  C        -1.2600133331       -1.9826671385        7.5284530336
  C         8.6237981844        2.7368440500        0.0380557068
  C         2.2135935720       11.6369254846        0.0465016666
  C         9.9465565911        6.4308523601       -0.0201179080
  C        -0.7061825986        9.0043241000       -0.0604285746
  C         1.5931887731        4.3895253849        7.0885978110
  C         3.1611205516        2.3308280050        8.1753183345
  C         5.7686510476       10.6367286930        5.0660704572
  C        -1.1732234725       -4.0160976415        6.0665829936
  C         8.8053389927        0.6118767299        1.2887179488
  C        -2.3343050848        6.7119581106       11.9412229343
  C        11.9004460329        7.3264951261        1.1676269299
  C        -7.3782323957        1.2945511162       11.7818803751
  C         7.7341794384        9.2060951394        5.1386694448
  C        -3.1437867199       -2.5826043695        5.9937876108
  C         3.7021347172        3.1728325100        7.2031896416
  C         1.0573120926        3.5462648216        8.0629275851
  C         7.3054264874        0.2512365770       11.7962158307
  C        -2.8093829734        8.3631503883        1.1269397165
  C         4.1499361710       -6.5252565199       11.9439541056
  C         2.3160176589       13.8222158717        1.3127256646
  N         2.3725308866       13.2241363788        2.5490444027
  N         6.7276250318        0.0685169752       10.5587892301
  N         8.1104804409        4.4777426719        7.6727658385
  N         6.2213284891       -4.2554566023        9.3319018803
  O         7.3786577560        4.7750396545        5.1108124012
  O        -3.0405415513        1.5503711790        7.9996876792
  O         4.1993975175       -2.5989207448        9.7319306999
  O         0.7588386486        9.8602293959        3.4152829782
  O         1.6021718023        8.4809986246        5.0057755152
  O         2.6598166081       -2.3361627296        8.0953123530
  O         8.9649598894        4.4513240250        3.5304874703
  O        -3.8586988193        2.9245296223        9.6071014178
  O         6.2891982412        4.1932166456        2.5387907751
  O        -1.3543989395        2.0500877720       10.1057167307
  O         7.2265781455        6.4796367281        2.9841157014
  O        -3.1073264523        0.3241621260       10.5860892537
  O         1.4894757289       -2.8689236641       10.6779382108
  O         3.2733247134        9.0066466040        2.9063187561
  O         2.4568564963       -0.6116492994       10.2268767291
  O         1.5579596353        7.2558519602        2.4057988499
  O         4.7157455316        4.9288863081        5.2710862676
  O        -1.9283303692       -0.9573069214        7.9159137566
  O         3.8637839299       -3.7398839438       11.9927237470
  O         2.1375292744       10.9428799220        1.1443639950
  O         4.6763148265       -0.9413135840       11.9822056075
  O        -0.1207941752        9.1068533708        1.0826007613
  O        -0.0920190649       -2.2647669180        7.9775163966
  O         2.7467284200        6.0177193645        5.1212228159
  O         9.4094509287        6.1355737515        1.1278271611
  O        -4.7467716273        2.1649248682       11.9165133692
  O         8.6134197316        3.3681666854        1.1598414103
  O        -2.4649615994        3.9507995534       11.9973522486
  O         4.4814426879        6.5811426433        3.0507911422
  O        -0.2136046693       -0.4063074562        9.9957155664
  O         6.9276620624        5.3609385450        0.1047412816
  O         2.3688008202        8.4439367179       -0.0632061369
     124
 i =       13, E =     -1301.9380125604
 Ti        -2.8484318832        2.2184619723       11.2480092204
 Ti         7.9636737048        5.1128272047        1.8843023636
 Ti         1.2443571645       -1.6975241066        9.4143182045
 Ti         2.7465674022        7.4496046930        3.6621859410
 Ti         1.7616961312        9.1254363865        1.7539802723
 Ti         3.1167354637       -1.9590441391       11.3775707488
 Ti        -1.9128393574        0.4917288730        9.3452609532
 Ti         5.9842437901        5.4065977600        3.7377762328
  H         3.7540454759        1.5262348356        8.6096890823
  H        -0.1887719286       -4.2275049332        6.4766878841
  H         4.7872220844       10.8558918648        4.6474491101
  H        -2.3398243894        6.1214735769       11.0280169696
  H         8.7848283294        1.2023248831        2.2026578992
  H        -6.8166631755        1.4737873042       10.8674926015
  H        11.3504110361        7.1222774299        2.0838462392
  H         4.1087219404       -5.9960269287       10.9964973536
  H        -2.3061204986        8.5502462427        2.0718937126
  H         4.7240072221        3.0432805381        6.8549409826
  H         0.0342457963        3.6748578872        8.4144154363
  H        -3.6645035639       -1.6959109410        6.3469948600
  H         2.2319715574        7.4794421251       -0.1224767905
  H         6.0847291678        4.8764034170        0.1845895128
  H         3.6439273259       -2.6295737398        5.8768161062
  H         1.0339619202        9.2913381155        7.2810563639
  H        -5.9908767222        3.8776149237        9.0013441262
  H        10.7472993045        3.0394262760        4.1923001097
  H        -3.6628074540        2.4547603414        5.6753044309
  H        -1.3340287491       10.9736117598        4.1102877780
  H         2.1685021796       12.2298690006        2.6036643308
  H         8.6473072639       -0.8192796894        3.4068501116
  H         4.8378126101        7.1259742280        2.3251924472
  H         0.1618730734        0.1547437172       10.6996009746
  H         7.3577233857       -0.0115238689        9.7698820097
  H         5.8758632734       -0.4857021652       10.5206316982
  H         7.9200860498        4.3930855882        8.6634391623
  H         7.3618539062        4.7526443833        7.0409321950
  H         6.8866552398       -4.9751281303        9.5870716152
  H         5.5951128449       -3.8873947531       10.0454681614
  H         1.4247104538        1.8656189293        9.3706404631
  H         1.0029422000        5.1923953554        6.6547978265
  H         6.0280203049        8.8629394901        3.8601943641
  H        -7.7378996905        8.8815978464        4.6870618446
  C         8.5562140261        4.3696029807        4.7439861014
  C        -3.8147590383        2.4976843824        8.4041262750
  C         3.8253769551       -2.7176747051        8.5072955359
  C         0.8274261839        9.4357500465        4.6183385316
  C         9.4527413187        3.7688629780        5.7395828805
  C        -4.7450812520        3.1240800508        7.4288513910
  C         4.7647293213       -3.3345160488        7.5630312879
  C        -0.0623519877       10.0795855296        5.6188557414
  C         9.1975114353        3.8377953987        7.1461259920
  C        -4.5216177024        3.0104343538        6.0410159093
  C         5.8946168147       -4.0951702134        8.0149702774
  C        -1.1582718403       10.8527819342        5.1755211812
  C         0.1875730845        9.9028304543        6.9749679882
  C         4.5199827183       -3.1992586584        6.1784206403
  C        10.5937022185        3.0775951364        5.2684099135
  C        -5.8522760911        3.8091839673        7.9238321954
  C         2.9196150423        4.2064868390        6.6557482884
  C         1.8413520301        2.5192709582        8.6065571169
  C         6.4675805683        9.5065330844        4.6204780113
  C        -1.8691527376       -2.8770080636        6.5134174807
  C         8.7636122113        1.2770997364        0.0601941554
  C         2.3050494738       13.0730101320        0.0832630431
  C        11.2466953472        7.0498438196       -0.0653926985
  C        -2.1141594144        8.5899853842       -0.0846233791
  C         3.4917002929        5.1022150342        5.6215066778
  C        -1.2604067851       -1.9830802363        7.5280030698
  C         8.6229360204        2.7359957631        0.0381073813
  C         2.2136943082       11.6361347201        0.0466755510
  C         9.9461876854        6.4300630417       -0.0198618112
  C        -0.7068843684        9.0041756654       -0.0597477957
  C         1.5926600816        4.3882456755        7.0896574509
  C         3.1607405272        2.3297615295        8.1762778451
  C         5.7685977917       10.6361702478        5.0646839731
  C        -1.1736412225       -4.0164266076        6.0658333305
  C         8.8058801106        0.6110477715        1.2890217050
  C        -2.3333101485        6.7112268853       11.9412294125
  C        11.8995765221        7.3267052722        1.1682438833
  C        -7.3789234103        1.2948108689       11.7824360401
  C         7.7337802426        9.2054448377        5.1382236701
  C        -3.1439414893       -2.5827561703        5.9921856721
  C         3.7016595414        3.1717073677        7.2040062782
  C         1.0570205484        3.5449370730        8.0640811737
  C         7.3048273866        0.2514183499       11.7965948212
  C        -2.8103473662        8.3639925533        1.1276585677
  C         4.1507132012       -6.5258487702       11.9441147834
  C         2.3172434188       13.8214593743        1.3129273838
  N         2.3754048638       13.2234018060        2.5494179696
  N         6.7268582288        0.0697498095       10.5589053618
  N         8.1091758522        4.4759374280        7.6727624595
  N         6.2211391483       -4.2560293875        9.3328406840
  O         7.3781594256        4.7739832554        5.1108039789
  O        -3.0403780132        1.5511718206        7.9998942181
  O         4.1989895175       -2.5998459403        9.7322175020
  O         0.7589141430        9.8598089402        3.4162703621
  O         1.6027641043        8.4806961435        5.0063761813
  O         2.6602855664       -2.3357104544        8.0951154051
  O         8.9645142382        4.4509489745        3.5307695252
  O        -3.8592183948        2.9242503321        9.6073345807
  O         6.2887059360        4.1924142028        2.5386063899
  O        -1.3550982976        2.0498455490       10.1061278683
  O         7.2259734067        6.4790388502        2.9845597500
  O        -3.1079999303        0.3235549644       10.5859986566
  O         1.4891909297       -2.8687296683       10.6778784714
  O         3.2734372977        9.0059100682        2.9061891236
  O         2.4570183661       -0.6115320523       10.2269578048
  O         1.5571136980        7.2558359630        2.4063838171
  O         4.7149102356        4.9275499839        5.2710438484
  O        -1.9289747164       -0.9579553773        7.9160645993
  O         3.8619748403       -3.7408959461       11.9926632208
  O         2.1373284820       10.9421242938        1.1444637989
  O         4.6762902313       -0.9428045289       11.9825295553
  O        -0.1212425191        9.1067768397        1.0832595766
  O        -0.0923889491       -2.2650981367        7.9773402937
  O         2.7462016539        6.0172447742        5.1221711704
  O         9.4091783941        6.1346420673        1.1279662760
  O        -4.7472150882        2.1646745887       11.9172506227
  O         8.6132251068        3.3680878192        1.1595009493
  O        -2.4656198566        3.9501224554       11.9975979533
  O         4.4811142656        6.5809246978        3.0507368183
  O        -0.2128856666       -0.4048950678        9.9949033076
  O         6.9279116066        5.3619860283        0.1048182276
  O         2.3682793374        8.4444507220       -0.0626660829
     124
 i =       14, E =     -1301.9380176366
 Ti        -2.8490561780        2.2177887168       11.2484727108
 Ti         7.9630629052        5.1122249800        1.8843858342
 Ti         1.2442417882       -1.6975852842        9.4139303330
 Ti         2.7464139053        7.4489835560        3.6625700943
 Ti         1.7612040571        9.1250747876        1.7544801171
 Ti         3.1161890448       -1.9595698932       11.3777424233
 Ti        -1.9132694422        0.4916348171        9.3450645002
 Ti         5.9836578583        5.4057481112        3.7380341721
  H         3.7540305539        1.5255169921        8.6106220156
  H        -0.1891465480       -4.2280035941        6.4763674879
  H         4.7874489847       10.8557421332        4.6457610790
  H        -2.3382164551        6.1206836658       11.0283886522
  H         8.7853543214        1.2015751648        2.2029266118
  H        -6.8171550861        1.4739373707       10.8682071256
  H        11.3491444720        7.1229158403        2.0840509483
  H         4.1089002368       -5.9968240084       10.9964629687
  H        -2.3071617166        8.5506520740        2.0727415622
  H         4.7236312304        3.0420268777        6.8554204365
  H         0.0340685239        3.6737101764        8.4156315774
  H        -3.6648067987       -1.6958362588        6.3450906258
  H         2.2308807593        7.4798419725       -0.1214460768
  H         6.0849001270        4.8766436795        0.1841341684
  H         3.6454455355       -2.6288636262        5.8768328984
  H         1.0351780080        9.2918966911        7.2819538548
  H        -5.9916095451        3.8767007819        9.0013160708
  H        10.7487050367        3.0426369667        4.1926278919
  H        -3.6611470824        2.4580534863        5.6755013647
  H        -1.3319118647       10.9743830118        4.1109948506
  H         2.1714704367       12.2290703828        2.6040133736
  H         8.6494982055       -0.8203824624        3.4071428553
  H         4.8379932203        7.1263792464        2.3253617539
  H         0.1630741129        0.1568077032       10.6979242472
  H         7.3569238208       -0.0104958531        9.7701135944
  H         5.8749567958       -0.4843596774       10.5205500675
  H         7.9186236919        4.3905977157        8.6633516981
  H         7.3608035959        4.7507635861        7.0408827994
  H         6.8870190305       -4.9748450325        9.5878601568
  H         5.5948479674       -3.8879204054       10.0462922968
  H         1.4250387338        1.8650361497        9.3721302098
  H         1.0021356091        5.1910950366        6.6557245281
  H         6.0280540204        8.8622370835        3.8596009551
  H        -7.7379212549        8.8811760203        4.6868728061
  C         8.5557474999        4.3692536936        4.7440234635
  C        -3.8145715873        2.4982194728        8.4043695873
  C         3.8254517377       -2.7179175035        8.5076558131
  C         0.8278389750        9.4353665151        4.6189964112
  C         9.4527301811        3.7695217019        5.7397770286
  C        -4.7447615627        3.1248143354        7.4289853973
  C         4.7653368977       -3.3340102566        7.5634545266
  C        -0.0609973963       10.0799815389        5.6198563528
  C         9.1971835613        3.8374855227        7.1462187462
  C        -4.5205299171        3.0128214901        6.0412035285
  C         5.8950852569       -4.0948870513        8.0157220124
  C        -1.1566623221       10.8534070037        5.1762992861
  C         0.1886557048        9.9033263967        6.9759854215
  C         4.5212595163       -3.1986651143        6.1787862305
  C        10.5946318243        3.0797559945        5.2686721688
  C        -5.8524693922        3.8090191997        7.9238267649
  C         2.9191312757        4.2055479579        6.6562781722
  C         1.8412846118        2.5183101422        8.6075107880
  C         6.4674367869        9.5058977104        4.6199784697
  C        -1.8693398626       -2.8771143693        6.5127624712
  C         8.7636981961        1.2764394388        0.0602389884
  C         2.3059264540       13.0725059594        0.0835059810
  C        11.2462378278        7.0496250598       -0.0650653427
  C        -2.1149503474        8.5904085379       -0.0838256816
  C         3.4911742277        5.1014678542        5.6221252526
  C        -1.2607597906       -1.9834754707        7.5277801798
  C         8.6223697327        2.7353226887        0.0380414052
  C         2.2135158920       11.6354411001        0.0468052978
  C         9.9457454771        6.4292483580       -0.0194456004
  C        -0.7075421660        9.0040728716       -0.0590566843
  C         1.5921037763        4.3870505607        7.0903942196
  C         3.1606880394        2.3290796157        8.1772922203
  C         5.7687334939       10.6360582480        5.0633001138
  C        -1.1740058318       -4.0168937278        6.0655497188
  C         8.8062201851        0.6104318346        1.2892145041
  C        -2.3322692906        6.7105646667       11.9415138992
  C        11.8986410001        7.3271330585        1.1686160280
  C        -7.3793813580        1.2947587300       11.7830942321
  C         7.7337161467        9.2051363455        5.1376245494
  C        -3.1441224446       -2.5829331021        5.9911239032
  C         3.7012862810        3.1706218802        7.2044513052
  C         1.0568847006        3.5440182783        8.0653183816
  C         7.3042121745        0.2518302758       11.7970537309
  C        -2.8110987680        8.3641500614        1.1284195334
  C         4.1510646168       -6.5264374334       11.9441430278
  C         2.3184268357       13.8208415474        1.3130935403
  N         2.3778542845       13.2226705146        2.5495705482
  N         6.7261967995        0.0706520689       10.5592452620
  N         8.1080739083        4.4742278421        7.6728191989
  N         6.2210447472       -4.2562115630        9.3336631898
  O         7.3773332194        4.7729233781        5.1108772985
  O        -3.0404309247        1.5513858891        8.0000558438
  O         4.1986403623       -2.6004819816        9.7325159251
  O         0.7587441396        9.8591750963        3.4170471887
  O         1.6032084776        8.4801902765        5.0068525825
  O         2.6604692361       -2.3355008965        8.0951689320
  O         8.9639875591        4.4503352889        3.5309175373
  O        -3.8600776107        2.9237878689        9.6076520781
  O         6.2881169153        4.1920020413        2.5383065034
  O        -1.3557495081        2.0496187902       10.1065956409
  O         7.2254858189        6.4782908996        2.9849640185
  O        -3.1082582101        0.3230777137       10.5861552442
  O         1.4887215962       -2.8685313710       10.6782451364
  O         3.2732482862        9.0052887774        2.9063192584
  O         2.4569921554       -0.6119005738       10.2270880135
  O         1.5567256147        7.2556006950        2.4065883481
  O         4.7140222476        4.9259699839        5.2706688847
  O        -1.9293028707       -0.9584500713        7.9162840940
  O         3.8607203506       -3.7420244332       11.9923921817
  O         2.1368284873       10.9417889484        1.1448061148
  O         4.6762516077       -0.9437983943       11.9827344371
  O        -0.1219047789        9.1065591492        1.0840040421
  O        -0.0928093694       -2.2656425894        7.9774459114
  O         2.7459934749        6.0169915663        5.1231079432
  O         9.4089534998        6.1341068976        1.1284571765
  O        -4.7479690941        2.1648133125       11.9179107462
  O         8.6131403537        3.3677437496        1.1592408748
  O        -2.4660492595        3.9496941572       11.9976716770
  O         4.4809677101        6.5808081205        3.0504211544
  O        -0.2121660344       -0.4037414253        9.9941780583
  O         6.9278667242        5.3627304112        0.1050496913
  O         2.3679466190        8.4447292583       -0.0622680078
     124
 i =       15, E =     -1301.9380229392
 Ti        -2.8500002405        2.2169118515       11.2492624100
 Ti         7.9621613017        5.1113901634        1.8842934503
 Ti         1.2441179540       -1.6978979623        9.4136088011
 Ti         2.7461990068        7.4482106418        3.6628663817
 Ti         1.7604330380        9.1244935320        1.7552024389
 Ti         3.1153227517       -1.9603591112       11.3779668832
 Ti        -1.9138173694        0.4916258013        9.3448917576
 Ti         5.9828066610        5.4045292529        3.7382696762
  H         3.7542617115        1.5246335934        8.6119043275
  H        -0.1896076456       -4.2285850944        6.4763070545
  H         4.7879491519       10.8557289078        4.6434316536
  H        -2.3363102070        6.1195114198       11.0289359071
  H         8.7864622144        1.2006301544        2.2031205417
  H        -6.8180609765        1.4743269287       10.8693748083
  H        11.3474287150        7.1236504287        2.0843822716
  H         4.1094845471       -5.9983375576       10.9962675511
  H        -2.3091476717        8.5513453760        2.0741202935
  H         4.7231046592        3.0404344407        6.8558532015
  H         0.0338208839        3.6723069951        8.4173038337
  H        -3.6649840241       -1.6956514036        6.3426808083
  H         2.2298135910        7.4796575776       -0.1201473526
  H         6.0843446128        4.8769358013        0.1836092262
  H         3.6475789726       -2.6275222046        5.8769300398
  H         1.0367535304        9.2926453711        7.2834049781
  H        -5.9925180093        3.8752303470        9.0013827270
  H        10.7506609810        3.0475410233        4.1931037259
  H        -3.6584218685        2.4629910737        5.6755456737
  H        -1.3289009674       10.9754396397        4.1120823296
  H         2.1756826522       12.2278693760        2.6044741163
  H         8.6528570313       -0.8221129057        3.4078018583
  H         4.8383056317        7.1266477026        2.3256119182
  H         0.1648834493        0.1591373086       10.6955288728
  H         7.3556173548       -0.0089774970        9.7703539071
  H         5.8736542978       -0.4826194753       10.5204744348
  H         7.9165200386        4.3869459109        8.6633767625
  H         7.3591177516        4.7477746833        7.0410360644
  H         6.8872326191       -4.9745027175        9.5887970236
  H         5.5943334607       -3.8884027132       10.0473493914
  H         1.4255482592        1.8642487777        9.3741035698
  H         1.0011794507        5.1893717182        6.6568515831
  H         6.0281920212        8.8613342274        3.8588976145
  H        -7.7377966831        8.8807406141        4.6866368762
  C         8.5549844234        4.3686479957        4.7439981867
  C        -3.8152587579        2.4980886183        8.4049608510
  C         3.8257013725       -2.7180302234        8.5082415204
  C         0.8284502255        9.4348981424        4.6199050589
  C         9.4526973979        3.7703477390        5.7400845830
  C        -4.7440003674        3.1263788001        7.4290813948
  C         4.7661138077       -3.3335742915        7.5641270966
  C        -0.0592902467       10.0805336593        5.6212044586
  C         9.1966250774        3.8368513349        7.1463946800
  C        -4.5188886103        3.0159909288        6.0413770841
  C         5.8958469320       -4.0943842734        8.0167604848
  C        -1.1545365324       10.8543771637        5.1774749923
  C         0.1900829981        9.9040064417        6.9773557842
  C         4.5230199695       -3.1975390396        6.1794439654
  C        10.5960751195        3.0829261536        5.2690665987
  C        -5.8528872385        3.8085835528        7.9239143114
  C         2.9184989631        4.2042924335        6.6571065699
  C         1.8414685370        2.5173742458        8.6091699996
  C         6.4676060425        9.5054785089        4.6189174261
  C        -1.8696871976       -2.8774128715        6.5122398244
  C         8.7636322365        1.2756668100        0.0602883825
  C         2.3074838380       13.0716518843        0.0838475731
  C        11.2451312593        7.0499264986       -0.0645020707
  C        -2.1156893081        8.5902981306       -0.0826893975
  C         3.4902163738        5.0998430103        5.6223669033
  C        -1.2613146530       -1.9840838336        7.5277770439
  C         8.6217316017        2.7344510576        0.0378525391
  C         2.2130986277       11.6346739323        0.0470750968
  C         9.9452856164        6.4280181162       -0.0188155422
  C        -0.7086262616        9.0046281525       -0.0579375735
  C         1.5914672000        4.3856051233        7.0915671746
  C         3.1606240629        2.3278763050        8.1783304647
  C         5.7688728843       10.6357670124        5.0618345263
  C        -1.1742508422       -4.0172215390        6.0650325089
  C         8.8069253550        0.6095471473        1.2894206408
  C        -2.3309339006        6.7095823790       11.9419536679
  C        11.8974752368        7.3272752864        1.1691958925
  C        -7.3803491148        1.2951397062       11.7841027078
  C         7.7335503728        9.2045247024        5.1372722760
  C        -3.1440764640       -2.5828385871        5.9894494033
  C         3.7008930130        3.1693199506        7.2051915102
  C         1.0565648971        3.5425250144        8.0666683965
  C         7.3033722000        0.2517886454       11.7977050368
  C        -2.8123510368        8.3646254543        1.1294227670
  C         4.1514867837       -6.5273993193       11.9442660104
  C         2.3199475283       13.8198922938        1.3134278741
  N         2.3811907695       13.2216371730        2.5497744415
  N         6.7252172037        0.0718591117       10.5598004211
  N         8.1064909777        4.4718118686        7.6730504150
  N         6.2210109035       -4.2561516347        9.3349106090
  O         7.3759318307        4.7713665980        5.1108339348
  O        -3.0402476296        1.5517434671        8.0001814989
  O         4.1980919201       -2.6012497030        9.7330564334
  O         0.7584543893        9.8581030229        3.4180636791
  O         1.6038060144        8.4793930844        5.0075889339
  O         2.6605317629       -2.3355526439        8.0954373430
  O         8.9629873279        4.4494727720        3.5310356683
  O        -3.8610606624        2.9231064080        9.6081195920
  O         6.2872042422        4.1913874775        2.5378424429
  O        -1.3566343337        2.0494072128       10.1071716005
  O         7.2249726173        6.4771678599        2.9856115908
  O        -3.1084787210        0.3223692737       10.5865171081
  O         1.4876077165       -2.8685457516       10.6789370887
  O         3.2728488202        9.0047236547        2.9069047366
  O         2.4569731948       -0.6125004530       10.2271202445
  O         1.5564116495        7.2547532115        2.4066827161
  O         4.7127344034        4.9236619123        5.2700484129
  O        -1.9297303055       -0.9591150955        7.9165747628
  O         3.8592319199       -3.7435438446       11.9919769596
  O         2.1361326736       10.9412990319        1.1453288691
  O         4.6758180379       -0.9448303573       11.9831712082
  O        -0.1228350494        9.1059563644        1.0851385084
  O        -0.0933535432       -2.2663141612        7.9776815690
  O         2.7460452980        6.0168422069        5.1245396784
  O         9.4084265480        6.1337221540        1.1292015320
  O        -4.7490264395        2.1649032995       11.9189281732
  O         8.6128520248        3.3671020453        1.1588877483
  O        -2.4663377608        3.9490994583       11.9979109419
  O         4.4807997521        6.5806230908        3.0501727487
  O        -0.2110379154       -0.4022227220        9.9927838993
  O         6.9274456260        5.3630503836        0.1053779828
  O         2.3673210769        8.4445188597       -0.0616919372
     124
 i =       16, E =     -1301.9380285121
 Ti        -2.8507663974        2.2160894304       11.2500119544
 Ti         7.9612117588        5.1107190501        1.8841764028
 Ti         1.2440229851       -1.6984148465        9.4135534613
 Ti         2.7460833617        7.4476754327        3.6630344579
 Ti         1.7596300320        9.1238954115        1.7558422913
 Ti         3.1145136103       -1.9610497453       11.3781133200
 Ti        -1.9142041876        0.4917836629        9.3449794572
 Ti         5.9821789573        5.4033754412        3.7382310739
  H         3.7546175641        1.5240025934        8.6128502825
  H        -0.1899249615       -4.2289108853        6.4766186079
  H         4.7885682945       10.8558743095        4.6416182380
  H        -2.3350545317        6.1184422926       11.0293354039
  H         8.7877674778        1.2000232126        2.2031903033
  H        -6.8190147587        1.4749657121       10.8704145682
  H        11.3460760985        7.1240220249        2.0848443777
  H         4.1102275604       -5.9998943370       10.9959971966
  H        -2.3112325420        8.5521024303        2.0754511574
  H         4.7225950971        3.0393218524        6.8559546316
  H         0.0336819852        3.6711653548        8.4186385159
  H        -3.6647539523       -1.6953508452        6.3409182406
  H         2.2294470173        7.4787053564       -0.1192674627
  H         6.0830164406        4.8771453001        0.1834059529
  H         3.6494920399       -2.6259921447        5.8771655857
  H         1.0378861347        9.2932508082        7.2849411689
  H        -5.9932936074        3.8736617507        9.0014952686
  H        10.7524580641        3.0520508554        4.1934852344
  H        -3.6557753006        2.4675619879        5.6753746532
  H        -1.3264222842       10.9764020295        4.1129802740
  H         2.1793568698       12.2267599539        2.6045858752
  H         8.6560768664       -0.8235382304        3.4086044174
  H         4.8385742494        7.1264959966        2.3259298751
  H         0.1665060094        0.1605452244       10.6934102849
  H         7.3544595728       -0.0075496446        9.7705326508
  H         5.8724372576       -0.4813395539       10.5206798593
  H         7.9146717150        4.3835661852        8.6636068961
  H         7.3574024210        4.7448582573        7.0413486462
  H         6.8870868101       -4.9742821579        9.5896212778
  H         5.5938522803       -3.8886077505       10.0481368948
  H         1.4260862888        1.8636493070        9.3757783513
  H         1.0005715754        5.1880064138        6.6576629655
  H         6.0284921448        8.8607924995        3.8583257963
  H        -7.7376209370        8.8804271050        4.6865543961
  C         8.5543603407        4.3680786107        4.7440200163
  C        -3.8150759375        2.4987044924        8.4051312080
  C         3.8258071583       -2.7183165516        8.5089055848
  C         0.8289033258        9.4345547603        4.6207414407
  C         9.4526959312        3.7708945651        5.7404349949
  C        -4.7439072110        3.1269318859        7.4291481744
  C         4.7668955309       -3.3330583074        7.5648075745
  C        -0.0580622189       10.0810228838        5.6223317114
  C         9.1959037798        3.8361466704        7.1466216183
  C        -4.5170858578        3.0190604975        6.0415022614
  C         5.8964745036       -4.0939548695        8.0175841522
  C        -1.1528068429       10.8553548309        5.1784229698
  C         0.1912144112        9.9045665361        6.9784940925
  C         4.5244573787       -3.1965075496        6.1801275112
  C        10.5974051145        3.0856905269        5.2693871943
  C        -5.8532174497        3.8084223548        7.9240376574
  C         2.9179812035        4.2031194683        6.6575413273
  C         1.8416091077        2.5165190599        8.6103950444
  C         6.4677954026        9.5050761470        4.6183297956
  C        -1.8697928605       -2.8774143153        6.5117341766
  C         8.7637415145        1.2748677434        0.0603389738
  C         2.3085596248       13.0708128564        0.0842102378
  C        11.2442649200        7.0496003013       -0.0639759263
  C        -2.1166809141        8.5907990694       -0.0816866483
  C         3.4896773428        5.0987831452        5.6227914952
  C        -1.2617921106       -1.9845045541        7.5279903839
  C         8.6208313008        2.7334681766        0.0376815077
  C         2.2133856545       11.6341497860        0.0474399503
  C         9.9444753532        6.4280628987       -0.0182629516
  C        -0.7094261274        9.0039887997       -0.0569535995
  C         1.5910718993        4.3843876444        7.0923752211
  C         3.1607494910        2.3271246544        8.1793349310
  C         5.7693653254       10.6358719555        5.0604082381
  C        -1.1745253806       -4.0175520409        6.0651018730
  C         8.8077295493        0.6087819141        1.2896493559
  C        -2.3300019986        6.7086157015       11.9423081061
  C        11.8963157943        7.3274681797        1.1697789340
  C        -7.3812010386        1.2951598168       11.7849695254
  C         7.7337615493        9.2043528701        5.1368649622
  C        -3.1440307470       -2.5828646002        5.9884156421
  C         3.7005205716        3.1682477666        7.2056532616
  C         1.0564752984        3.5415540687        8.0679001799
  C         7.3023395230        0.2521806623       11.7982144189
  C        -2.8135562454        8.3647680016        1.1303404090
  C         4.1519878596       -6.5284421807       11.9443611987
  C         2.3214290467       13.8190545874        1.3138797421
  N         2.3838681923       13.2207791418        2.5500274496
  N         6.7243434956        0.0726166043       10.5603007475
  N         8.1049726052        4.4697211677        7.6734514754
  N         6.2211459335       -4.2557380029        9.3359526774
  O         7.3746464612        4.7697883796        5.1107346982
  O        -3.0404714598        1.5516294446        8.0003704657
  O         4.1977413526       -2.6016507397        9.7336456999
  O         0.7582036121        9.8571142698        3.4188660009
  O         1.6041634235        8.4787134630        5.0083685660
  O         2.6604302880       -2.3359506519        8.0957351829
  O         8.9619762374        4.4487041938        3.5310777043
  O        -3.8622062221        2.9219167221        9.6087536801
  O         6.2862968589        4.1905875420        2.5374026578
  O        -1.3572513132        2.0494170472       10.1075487234
  O         7.2246401238        6.4763135061        2.9861984395
  O        -3.1086980792        0.3216797510       10.5868478599
  O         1.4863371751       -2.8688486962       10.6795897627
  O         3.2723160939        9.0045073539        2.9077730757
  O         2.4569722466       -0.6130857211       10.2269732345
  O         1.5564598306        7.2536148342        2.4067455570
  O         4.7115716172        4.9211610718        5.2691276915
  O        -1.9301969653       -0.9596441646        7.9168410527
  O         3.8583868410       -3.7446433518       11.9918037975
  O         2.1353316125       10.9407165231        1.1457071056
  O         4.6752183216       -0.9457620682       11.9837487078
  O        -0.1237059291        9.1057420356        1.0860815563
  O        -0.0938092823       -2.2668497926        7.9779551858
  O         2.7460829051        6.0165577393        5.1256462935
  O         9.4078198264        6.1332783831        1.1297468567
  O        -4.7497978183        2.1652845021       11.9201099856
  O         8.6125302053        3.3665949151        1.1584451398
  O        -2.4666014987        3.9484798666       11.9983446747
  O         4.4807086366        6.5803742139        3.0502899693
  O        -0.2099959697       -0.4010477264        9.9911749588
  O         6.9267301704        5.3624154404        0.1055995693
  O         2.3664914561        8.4437103497       -0.0611371844
     124
 i =       17, E =     -1301.9380346379
 Ti        -2.8515916859        2.2153617861       11.2507312887
 Ti         7.9604352279        5.1099709029        1.8840348462
 Ti         1.2437042182       -1.6991011384        9.4134641580
 Ti         2.7461860338        7.4472701628        3.6634254433
 Ti         1.7586390802        9.1234027163        1.7563211257
 Ti         3.1140661513       -1.9617561338       11.3784841359
 Ti        -1.9144217442        0.4919970801        9.3451875542
 Ti         5.9816543746        5.4021490894        3.7382235232
  H         3.7550456238        1.5236448057        8.6135346218
  H        -0.1901495668       -4.2290626806        6.4773788650
  H         4.7893606730       10.8562254743        4.6401953603
  H        -2.3343728122        6.1174335309       11.0297758529
  H         8.7892412179        1.1997115174        2.2032044101
  H        -6.8199584786        1.4757284003       10.8713099710
  H        11.3449925687        7.1240598758        2.0853665453
  H         4.1110202786       -6.0013611224       10.9958541879
  H        -2.3132418479        8.5528508190        2.0765858355
  H         4.7221612097        3.0385651411        6.8557559715
  H         0.0337584502        3.6702334510        8.4197129870
  H        -3.6642068167       -1.6949343406        6.3397608490
  H         2.2297503777        7.4771636658       -0.1187307262
  H         6.0810495447        4.8772046358        0.1835418120
  H         3.6512406146       -2.6242158121        5.8776235255
  H         1.0385618064        9.2937560566        7.2865217651
  H        -5.9940479679        3.8720041457        9.0015508944
  H        10.7543726378        3.0563723307        4.1937851501
  H        -3.6531580432        2.4722157674        5.6751814199
  H        -1.3245075537       10.9774716457        4.1137288908
  H         2.1827053839       12.2257240683        2.6043962043
  H         8.6594102335       -0.8247201592        3.4093806756
  H         4.8387792909        7.1259801826        2.3263771625
  H         0.1680348572        0.1612694205       10.6914904130
  H         7.3533059835       -0.0061245101        9.7709219621
  H         5.8712484125       -0.4804708651       10.5211979409
  H         7.9129304135        4.3802012055        8.6639208762
  H         7.3554780267        4.7419032280        7.0418922513
  H         6.8866231432       -4.9742676587        9.5906598689
  H         5.5935085265       -3.8886134639       10.0487044176
  H         1.4266658253        1.8632194585        9.3772145045
  H         1.0002396368        5.1869783219        6.6582105203
  H         6.0290634891        8.8606415416        3.8579176478
  H        -7.7373010977        8.8802308950        4.6866674579
  C         8.5536862075        4.3673750729        4.7440106424
  C        -3.8154508347        2.4983593370        8.4055255096
  C         3.8259560103       -2.7183256583        8.5094649916
  C         0.8292246089        9.4342819694        4.6215774577
  C         9.4524892484        3.7712125538        5.7407906644
  C        -4.7431691997        3.1278460873        7.4292623799
  C         4.7674761155       -3.3325781461        7.5653949060
  C        -0.0570855394       10.0814134329        5.6233660166
  C         9.1953520672        3.8355982130        7.1469696314
  C        -4.5156087235        3.0218033574        6.0415438702
  C         5.8970237894       -4.0932759521        8.0183006824
  C        -1.1512878675       10.8562383280        5.1791598033
  C         0.1919800074        9.9050054127        6.9795982352
  C         4.5257768214       -3.1954004475        6.1806662525
  C        10.5986149951        3.0884835043        5.2696294952
  C        -5.8536707417        3.8076094724        7.9241140028
  C         2.9176169049        4.2022105292        6.6579021088
  C         1.8417977327        2.5157784238        8.6113431351
  C         6.4682234602        9.5050020662        4.6179394068
  C        -1.8698972504       -2.8775707469        6.5116462258
  C         8.7638354409        1.2739450817        0.0603440034
  C         2.3092275509       13.0697673825        0.0847122410
  C        11.2431014462        7.0494229828       -0.0635502084
  C        -2.1176945138        8.5907593175       -0.0807291883
  C         3.4892621161        5.0976877465        5.6228612367
  C        -1.2620656701       -1.9844967827        7.5279569794
  C         8.6205269600        2.7324558140        0.0375076975
  C         2.2137972884       11.6335171980        0.0479036150
  C         9.9436292915        6.4280561107       -0.0178051510
  C        -0.7104600424        9.0038190588       -0.0559205675
  C         1.5908174108        4.3833384456        7.0928333980
  C         3.1610321539        2.3267806507        8.1802353033
  C         5.7700112039       10.6362061110        5.0593016823
  C        -1.1745675504       -4.0177104640        6.0653512047
  C         8.8087865266        0.6082387501        1.2898409292
  C        -2.3293314785        6.7075834441       11.9427633437
  C        11.8951253946        7.3274779954        1.1702468275
  C        -7.3821113588        1.2955163263       11.7857570898
  C         7.7341558833        9.2043419103        5.1366916033
  C        -3.1437067281       -2.5827075554        5.9876278867
  C         3.7001895326        3.1673516128        7.2057696117
  C         1.0566421322        3.5409571228        8.0690181528
  C         7.3014023566        0.2525521814       11.7987774490
  C        -2.8150009494        8.3650791690        1.1312206537
  C         4.1526490649       -6.5296229711       11.9444427152
  C         2.3229873360       13.8184750161        1.3142689856
  N         2.3860703228       13.2200451598        2.5501274847
  N         6.7234346331        0.0730638850       10.5609945660
  N         8.1034494705        4.4676267844        7.6739065002
  N         6.2215270380       -4.2550354141        9.3367889954
  O         7.3735506799        4.7680352788        5.1108911314
  O        -3.0405526867        1.5515072755        8.0003737713
  O         4.1975681040       -2.6019544442        9.7343259168
  O         0.7578600513        9.8562637325        3.4194849666
  O         1.6041029290        8.4780943239        5.0092420668
  O         2.6601714486       -2.3370574368        8.0960736283
  O         8.9612756284        4.4479268329        3.5310782566
  O        -3.8631810796        2.9207909917        9.6094449087
  O         6.2854887687        4.1898298545        2.5369476896
  O        -1.3578915067        2.0494757153       10.1079113785
  O         7.2241951700        6.4753302900        2.9864064780
  O        -3.1087921196        0.3211594020       10.5871368301
  O         1.4853509170       -2.8690343266       10.6800808866
  O         3.2714932148        9.0043173201        2.9086162046
  O         2.4568367989       -0.6140983636       10.2269552662
  O         1.5569693678        7.2526247840        2.4070168497
  O         4.7105607697        4.9184021907        5.2681556646
  O        -1.9308151966       -0.9601158646        7.9171505520
  O         3.8577427771       -3.7457605417       11.9917008957
  O         2.1346809811       10.9400043552        1.1461245503
  O         4.6744169482       -0.9462167528       11.9842765504
  O        -0.1246585556        9.1051592483        1.0870607213
  O        -0.0943644636       -2.2674289165        7.9782665677
  O         2.7460911070        6.0162278805        5.1267548728
  O         9.4069079820        6.1330775862        1.1301961099
  O        -4.7503764644        2.1650721917       11.9213432291
  O         8.6118780661        3.3658630707        1.1581193691
  O        -2.4667282490        3.9477691518       11.9988410619
  O         4.4807165810        6.5800022869        3.0507489151
  O        -0.2091378019       -0.4001551940        9.9895230488
  O         6.9256011598        5.3610847607        0.1057798378
  O         2.3654097133        8.4424375469       -0.0606307416
     124
 i =       18, E =     -1301.9380413477
 Ti        -2.8531128059        2.2140871430       11.2519716236
 Ti         7.9591986675        5.1085201662        1.8837394016
 Ti         1.2431826832       -1.7004322654        9.4134661657
 Ti         2.7463876847        7.4468752187        3.6641082829
 Ti         1.7570482146        9.1223023685        1.7572186221
 Ti         3.1132135480       -1.9629560649       11.3791572047
 Ti        -1.9146448952        0.4922091620        9.3454852429
 Ti         5.9806534826        5.4000307721        3.7381837605
  H         3.7559167398        1.5232400874        8.6146644493
  H        -0.1904672793       -4.2292799333        6.4789142406
  H         4.7908550108       10.8570497683        4.6380231406
  H        -2.3336593878        6.1155196767       11.0304567456
  H         8.7917356687        1.1992783774        2.2030707240
  H        -6.8214945587        1.4769691269       10.8727833686
  H        11.3430360418        7.1237837539        2.0864073463
  H         4.1122870733       -6.0036092564       10.9960052560
  H        -2.3163402836        8.5540016558        2.0780153674
  H         4.7215371742        3.0373929433        6.8552178651
  H         0.0340281560        3.6690242776        8.4214612887
  H        -3.6631613926       -1.6940953076        6.3382906232
  H         2.2305976924        7.4745036545       -0.1180418155
  H         6.0776973664        4.8771157037        0.1840238184
  H         3.6539188744       -2.6211721619        5.8784107268
  H         1.0391330443        9.2944968579        7.2890369735
  H        -5.9956112887        3.8689483502        9.0018716148
  H        10.7577596525        3.0633634606        4.1943728654
  H        -3.6487050057        2.4799055815        5.6748056357
  H        -1.3217739101       10.9794373038        4.1148795993
  H         2.1880220310       12.2241217562        2.6040129725
  H         8.6651581283       -0.8264857556        3.4105911132
  H         4.8389985535        7.1247905435        2.3273779011
  H         0.1704651730        0.1622017589       10.6885198248
  H         7.3512687392       -0.0038083804        9.7717280741
  H         5.8693647791       -0.4793692155       10.5222588085
  H         7.9100642671        4.3744693609        8.6644714899
  H         7.3523235420        4.7368532835        7.0429068072
  H         6.8857239677       -4.9745040854        9.5925528379
  H         5.5930037995       -3.8883648728       10.0496314599
  H         1.4276754103        1.8626733960        9.3791549887
  H         0.9998052679        5.1854450778        6.6589204268
  H         6.0302821639        8.8606764396        3.8573748436
  H        -7.7365873505        8.8800130118        4.6870232379
  C         8.5526182894        4.3661854782        4.7442151407
  C        -3.8155380294        2.4982366052        8.4057877187
  C         3.8261758310       -2.7186974698        8.5101837338
  C         0.8296844927        9.4338321760        4.6230856557
  C         9.4525496686        3.7720092383        5.7412455206
  C        -4.7426001516        3.1286613712        7.4295615089
  C         4.7687446360       -3.3316488964        7.5663424629
  C        -0.0558175745       10.0819625753        5.6248432899
  C         9.1940907699        3.8339631288        7.1473852621
  C        -4.5126908950        3.0266853422        6.0417896495
  C         5.8980076232       -4.0922813168        8.0196596118
  C        -1.1490872663       10.8578380718        5.1803272161
  C         0.1930030454        9.9058395428        6.9812214804
  C         4.5277966370       -3.1933880281        6.1815700732
  C        10.6005954132        3.0925974613        5.2701518212
  C        -5.8542907611        3.8067523109        7.9244318143
  C         2.9168289947        4.2003984908        6.6582384702
  C         1.8426279551        2.5154511139        8.6133996455
  C         6.4694160070        9.5054974976        4.6169687879
  C        -1.8698507386       -2.8776375461        6.5112505149
  C         8.7647306538        1.2725454001        0.0604604355
  C         2.3103449019       13.0680315506        0.0854435469
  C        11.2410972304        7.0493418236       -0.0626408788
  C        -2.1194797024        8.5911028952       -0.0793518075
  C         3.4883196185        5.0953687731        5.6225631349
  C        -1.2630193830       -1.9851529760        7.5287599743
  C         8.6201332550        2.7309822693        0.0372193120
  C         2.2140290568       11.6322504850        0.0488214723
  C         9.9421185909        6.4279132912       -0.0172388341
  C        -0.7119643480        9.0033903298       -0.0540983223
  C         1.5906089355        4.3822151758        7.0940598145
  C         3.1613523591        2.3257083927        8.1809442749
  C         5.7709226782       10.6365974700        5.0581150495
  C        -1.1743592749       -4.0178040311        6.0656983985
  C         8.8107836798        0.6072923245        1.2900037046
  C        -2.3282230387        6.7058311130       11.9433234218
  C        11.8930325021        7.3276408739        1.1712746747
  C        -7.3838233441        1.2963037470       11.7870881976
  C         7.7346616150        9.2040609569        5.1370140216
  C        -3.1429500122       -2.5821490895        5.9863259226
  C         3.7000077228        3.1663865365        7.2063790232
  C         1.0566435095        3.5395430866        8.0701213476
  C         7.2998200062        0.2529535680       11.7998810741
  C        -2.8173511101        8.3654501604        1.1323981907
  C         4.1535188143       -6.5315651702       11.9448178638
  C         2.3252433072       13.8175152168        1.3147809101
  N         2.3896384148       13.2188782930        2.5502193818
  N         6.7218131195        0.0737590900       10.5622776029
  N         8.1010574042        4.4640149849        7.6746984656
  N         6.2223914076       -4.2536589154        9.3382796317
  O         7.3719540406        4.7650830756        5.1111346233
  O        -3.0409583044        1.5512929347        8.0003565960
  O         4.1972876118       -2.6022570139        9.7353767210
  O         0.7573083898        9.8549951090        3.4204945898
  O         1.6037215743        8.4771499711        5.0106952925
  O         2.6598846887       -2.3393112679        8.0966185066
  O         8.9601618764        4.4467244313        3.5311726200
  O        -3.8649827044        2.9185912495        9.6105876392
  O         6.2843146352        4.1884188121        2.5363510468
  O        -1.3591795693        2.0494150736       10.1087070042
  O         7.2233487272        6.4733783152        2.9863725266
  O        -3.1088734721        0.3204112937       10.5874472672
  O         1.4839385654       -2.8696969967       10.6806281423
  O         3.2703484508        9.0041188407        2.9097554875
  O         2.4566000759       -0.6157764696       10.2271292399
  O         1.5575710287        7.2510178313        2.4078842970
  O         4.7088757320        4.9140464951        5.2665652663
  O        -1.9315891552       -0.9606197016        7.9173141926
  O         3.8567985141       -3.7476180229       11.9913606657
  O         2.1340063252       10.9383911994        1.1468429971
  O         4.6728484418       -0.9468457816       11.9850457203
  O        -0.1263126645        9.1039622440        1.0890233958
  O        -0.0950069856       -2.2677277051        7.9784836786
  O         2.7464914660        6.0158217337        5.1284342860
  O         9.4051703195        6.1326361300        1.1306830072
  O        -4.7513889273        2.1641073325       11.9232640690
  O         8.6107778092        3.3643962120        1.1578452407
  O        -2.4668796349        3.9464199404       11.9997845077
  O         4.4806361306        6.5793251116        3.0519346312
  O        -0.2079219572       -0.3989395103        9.9870514472
  O         6.9234576893        5.3588003425        0.1059740320
  O         2.3636105105        8.4402118563       -0.0597312387
     124
 i =       19, E =     -1301.9380462060
 Ti        -2.8539842384        2.2130748055       11.2524746952
 Ti         7.9583480347        5.1075983437        1.8837314693
 Ti         1.2429947616       -1.7012834608        9.4135845544
 Ti         2.7464323786        7.4467898548        3.6646166133
 Ti         1.7563821967        9.1213811965        1.7578519580
 Ti         3.1124329873       -1.9636000882       11.3793965881
 Ti        -1.9147232430        0.4921680847        9.3457143539
 Ti         5.9800436264        5.3987086235        3.7380726061
  H         3.7564041695        1.5230195950        8.6152138666
  H        -0.1906407118       -4.2294600550        6.4798548872
  H         4.7917629795       10.8575726048        4.6370485962
  H        -2.3335476131        6.1142494407       11.0307043866
  H         8.7930898206        1.1989348313        2.2029691067
  H        -6.8223660294        1.4775078431       10.8735382257
  H        11.3417320011        7.1234665220        2.0871500738
  H         4.1127210885       -6.0045353134       10.9963520607
  H        -2.3175710928        8.5543978917        2.0784653740
  H         4.7212927444        3.0367959484        6.8549116932
  H         0.0342343569        3.6684861598        8.4223585591
  H        -3.6625589672       -1.6935860559        6.3377699523
  H         2.2311301133        7.4733434369       -0.1177414065
  H         6.0762612770        4.8768575236        0.1844141588
  H         3.6552701647       -2.6196316324        5.8788539602
  H         1.0391361799        9.2946776178        7.2900927952
  H        -5.9968219755        3.8670932248        9.0022073237
  H        10.7597959949        3.0668593474        4.1947887384
  H        -3.6461595697        2.4840955706        5.6747692196
  H        -1.3206398294       10.9806869031        4.1153898756
  H         2.1906436204       12.2233400564        2.6039683715
  H         8.6684525818       -0.8272628091        3.4111328009
  H         4.8390065818        7.1239696235        2.3281584451
  H         0.1716110950        0.1627345646       10.6871665805
  H         7.3500610213       -0.0026790438        9.7722691480
  H         5.8684344972       -0.4790897029       10.5229485766
  H         7.9085320523        4.3710832432        8.6647507361
  H         7.3507180954        4.7340045828        7.0434030913
  H         6.8851440889       -4.9748352992        9.5936331287
  H         5.5928357355       -3.8879808134       10.0501651367
  H         1.4283410114        1.8626161001        9.3800900187
  H         0.9996308423        5.1847564706        6.6593109802
  H         6.0312145950        8.8609790283        3.8569356027
  H        -7.7361909543        8.8798940871        4.6874845742
  C         8.5523167984        4.3656948217        4.7445804967
  C        -3.8162480327        2.4975554392        8.4059944152
  C         3.8262909904       -2.7190294554        8.5104497737
  C         0.8295233799        9.4334254887        4.6239944981
  C         9.4525095622        3.7719654819        5.7414627223
  C        -4.7419918797        3.1297748727        7.4297392466
  C         4.7695297722       -3.3311357944        7.5669432307
  C        -0.0553749810       10.0824124882        5.6255436284
  C         9.1936635055        3.8332408037        7.1476091301
  C        -4.5112629778        3.0289213832        6.0420139376
  C         5.8987324969       -4.0916785827        8.0205033405
  C        -1.1482242980       10.8588529322        5.1808962267
  C         0.1933664067        9.9062202026        6.9819727714
  C         4.5288964565       -3.1921417195        6.1821557452
  C        10.6020810073        3.0950818185        5.2705440028
  C        -5.8549385327        3.8057904756        7.9247668059
  C         2.9165337912        4.1996332238        6.6585574614
  C         1.8429407773        2.5150080804        8.6138551333
  C         6.4700337231        9.5056503795        4.6167802655
  C        -1.8698994335       -2.8777771889        6.5114576093
  C         8.7655200002        1.2717126833        0.0605787630
  C         2.3106989072       13.0672323857        0.0857291829
  C        11.2401426341        7.0493450876       -0.0620040250
  C        -2.1206554319        8.5915178500       -0.0786726034
  C         3.4879044554        5.0942965657        5.6225966118
  C        -1.2628943456       -1.9847835658        7.5283352140
  C         8.6203183234        2.7302501140        0.0371179180
  C         2.2143023677       11.6312827674        0.0493405689
  C         9.9410690171        6.4279022748       -0.0170391550
  C        -0.7127502810        9.0029618238       -0.0530727662
  C         1.5903417464        4.3813657825        7.0942897741
  C         3.1617816059        2.3255483851        8.1817367113
  C         5.7716797629       10.6370752504        5.0573582322
  C        -1.1742265128       -4.0178582566        6.0660699706
  C         8.8120631039        0.6066274233        1.2900233745
  C        -2.3277466257        6.7048096196       11.9433961605
  C        11.8917884473        7.3277244990        1.1720934817
  C        -7.3849054173        1.2968111974       11.7878314817
  C         7.7351324793        9.2041691856        5.1370891399
  C        -3.1425010423       -2.5818133281        5.9858511202
  C         3.6998006209        3.1655448981        7.2062677554
  C         1.0568735019        3.5393002250        8.0711372752
  C         7.2987934414        0.2533472975       11.8005574359
  C        -2.8186828266        8.3657935195        1.1329678543
  C         4.1541927652       -6.5325616833       11.9450676515
  C         2.3265159201       13.8168776576        1.3149781103
  N         2.3916402857       13.2182054671        2.5503116693
  N         6.7207743956        0.0741868314       10.5629712036
  N         8.0997349450        4.4616637571        7.6750945065
  N         6.2229441621       -4.2528580374        9.3391747627
  O         7.3714501791        4.7636003236        5.1111505815
  O        -3.0409237059        1.5516450808        8.0002827215
  O         4.1971078281       -2.6023843431        9.7359030122
  O         0.7572151290        9.8545050878        3.4211431915
  O         1.6034144457        8.4769033121        5.0114461623
  O         2.6598841575       -2.3407993269        8.0968911319
  O         8.9595527009        4.4461758060        3.5312902400
  O        -3.8657571914        2.9175283718        9.6110719621
  O         6.2836455913        4.1872029269        2.5362163648
  O        -1.3598844239        2.0492886207       10.1092241162
  O         7.2227660776        6.4722622643        2.9862579611
  O        -3.1090637801        0.3197335680       10.5874422678
  O         1.4832932644       -2.8705832997       10.6805576163
  O         3.2701107144        9.0039412290        2.9101455131
  O         2.4564054620       -0.6164103545       10.2273466266
  O         1.5574158728        7.2502236599        2.4088360401
  O         4.7079840917        4.9117240764        5.2655494754
  O        -1.9320980672       -0.9609589536        7.9176609703
  O         3.8562354250       -3.7485782610       11.9911933960
  O         2.1336809838       10.9372657011        1.1472228853
  O         4.6719712669       -0.9474465539       11.9853558893
  O        -0.1272463530        9.1031205722        1.0902419227
  O        -0.0953065192       -2.2677983608        7.9788641236
  O         2.7468000477        6.0155646795        5.1290589684
  O         9.4041428274        6.1318648095        1.1307258908
  O        -4.7519179890        2.1630519325       11.9242764230
  O         8.6102619761        3.3636132362        1.1577853887
  O        -2.4674552836        3.9454521668       12.0003223889
  O         4.4804874680        6.5788842205        3.0528798618
  O        -0.2075064032       -0.3985400889        9.9862122811
  O         6.9223371164        5.3578146455        0.1059531990
  O         2.3627998317        8.4392039547       -0.0592118330
     124
 i =       20, E =     -1301.9380515005
 Ti        -2.8547941281        2.2118786402       11.2527367848
 Ti         7.9576283362        5.1065865585        1.8840344573
 Ti         1.2426364651       -1.7020653795        9.4134526330
 Ti         2.7464161984        7.4465497308        3.6656068356
 Ti         1.7558947130        9.1205377513        1.7583921785
 Ti         3.1117424194       -1.9642579392       11.3796675157
 Ti        -1.9147335836        0.4919119218        9.3459446604
 Ti         5.9794663178        5.3972713582        3.7381422260
  H         3.7567511771        1.5229885893        8.6157051365
  H        -0.1907344619       -4.2296974112        6.4807501735
  H         4.7927001330       10.8581391632        4.6363004429
  H        -2.3337320484        6.1131209704       11.0309215569
  H         8.7943727669        1.1983659213        2.2030114196
  H        -6.8232869780        1.4777830099       10.8741206210
  H        11.3405223224        7.1231628249        2.0878063968
  H         4.1128165053       -6.0050396274       10.9966742070
  H        -2.3181498673        8.5544619314        2.0788236566
  H         4.7211436254        3.0362045131        6.8545857481
  H         0.0346454035        3.6681446943        8.4232252604
  H        -3.6620196807       -1.6931397538        6.3374610953
  H         2.2315646201        7.4727075065       -0.1174717099
  H         6.0755508137        4.8763155575        0.1847663796
  H         3.6563831873       -2.6183671243        5.8794355182
  H         1.0390234103        9.2944352110        7.2904904194
  H        -5.9982686297        3.8650723991        9.0023728621
  H        10.7618790315        3.0697575750        4.1952544384
  H        -3.6439596016        2.4878253965        5.6752362350
  H        -1.3199920143       10.9819735666        4.1158088847
  H         2.1926083018       12.2227010512        2.6042785448
  H         8.6715487896       -0.8278047727        3.4113848461
  H         4.8389318871        7.1232272344        2.3290415247
  H         0.1723922756        0.1633457747       10.6863056327
  H         7.3489249587       -0.0018623743        9.7729259443
  H         5.8676841573       -0.4792112245       10.5236722527
  H         7.9072121242        4.3677188671        8.6649224388
  H         7.3493902499        4.7314123285        7.0436957575
  H         6.8844535762       -4.9752435137        9.5946306149
  H         5.5929502478       -3.8874237723       10.0506281132
  H         1.4289495993        1.8626045332        9.3808950733
  H         0.9994757240        5.1842162790        6.6596329458
  H         6.0322468172        8.8614798711        3.8564008758
  H        -7.7358403770        8.8798632863        4.6881419388
  C         8.5519879644        4.3648074262        4.7448122904
  C        -3.8162531897        2.4973563293        8.4062014276
  C         3.8262929984       -2.7193500312        8.5107917551
  C         0.8293653858        9.4332770121        4.6247905337
  C         9.4527282638        3.7723687861        5.7417348387
  C        -4.7416205994        3.1301887078        7.4300531377
  C         4.7701441818       -3.3303667270        7.5675087361
  C        -0.0552162953       10.0826582613        5.6261671131
  C         9.1931940459        3.8322683919        7.1478464573
  C        -4.5099599955        3.0312575063        6.0423839713
  C         5.8992758843       -4.0910413982        8.0211691732
  C        -1.1475076173       10.8599145000        5.1813552697
  C         0.1936069742        9.9064827223        6.9826301935
  C         4.5298327602       -3.1911222965        6.1826702190
  C        10.6032558481        3.0970778748        5.2709181346
  C        -5.8553935653        3.8048004837        7.9249641455
  C         2.9163236909        4.1989509195        6.6584095105
  C         1.8432679394        2.5148192656        8.6144179942
  C         6.4707382920        9.5059188940        4.6165837485
  C        -1.8695591226       -2.8774694930        6.5114738053
  C         8.7664486796        1.2707188832        0.0605901464
  C         2.3111868371       13.0664989327        0.0859772792
  C        11.2390479540        7.0497760843       -0.0615104128
  C        -2.1219356114        8.5915298756       -0.0779270970
  C         3.4877131251        5.0935389844        5.6226003705
  C        -1.2629246157       -1.9846415804        7.5284768914
  C         8.6206594731        2.7294128702        0.0371458960
  C         2.2139735759       11.6301227797        0.0496329214
  C         9.9402183308        6.4270122550       -0.0168253459
  C        -0.7137986098        9.0026852889       -0.0521770081
  C         1.5902860133        4.3808798355        7.0945550911
  C         3.1619963443        2.3253737283        8.1821375574
  C         5.7724761556       10.6375505093        5.0568462564
  C        -1.1740859168       -4.0179183913        6.0666313729
  C         8.8133051479        0.6059233477        1.2900580046
  C        -2.3276188172        6.7038259211       11.9435018126
  C        11.8905980780        7.3276114524        1.1727586758
  C        -7.3860297480        1.2974825911       11.7884900360
  C         7.7355734629        9.2043398424        5.1373553429
  C        -3.1420413482       -2.5815280354        5.9856966936
  C         3.6997381648        3.1650038891        7.2062179167
  C         1.0571572551        3.5390336075        8.0717475670
  C         7.2977461696        0.2538760484       11.8011860151
  C        -2.8200417179        8.3664096297        1.1337067580
  C         4.1550664763       -6.5334068302       11.9450752639
  C         2.3278392349       13.8161932093        1.3150436749
  N         2.3936017613       13.2174993209        2.5503842127
  N         6.7195969984        0.0747230759       10.5635722385
  N         8.0984515409        4.4591685451        7.6753463830
  N         6.2234624598       -4.2521476561        9.3398539862
  O         7.3714426585        4.7627745405        5.1113606271
  O        -3.0408665475        1.5520201020        8.0002783894
  O         4.1970246733       -2.6025532659        9.7364088085
  O         0.7571249898        9.8542476801        3.4217078975
  O         1.6029640793        8.4768567109        5.0121484689
  O         2.6599259229       -2.3422016438        8.0971587033
  O         8.9593717844        4.4458572026        3.5314478411
  O        -3.8666997364        2.9164922071        9.6116508360
  O         6.2829148806        4.1858369954        2.5362013566
  O        -1.3603985986        2.0489702013       10.1097930929
  O         7.2219517589        6.4712139382        2.9861367333
  O        -3.1093846408        0.3187904897       10.5872481172
  O         1.4829777507       -2.8714929360       10.6800541304
  O         3.2700717272        9.0032759102        2.9102549124
  O         2.4559233489       -0.6170813312       10.2276986121
  O         1.5570414649        7.2498884651        2.4101598819
  O         4.7074012728        4.9095588893        5.2647276489
  O        -1.9323275104       -0.9608940391        7.9177959572
  O         3.8557736986       -3.7495380486       11.9911948170
  O         2.1335068113       10.9363637294        1.1476368386
  O         4.6713087397       -0.9479596956       11.9854132820
  O        -0.1281907425        9.1020171498        1.0912596767
  O        -0.0952621662       -2.2676919771        7.9788132287
  O         2.7468495282        6.0152928858        5.1296826023
  O         9.4031452543        6.1308593051        1.1308246160
  O        -4.7523785872        2.1614991565       11.9252248113
  O         8.6100730664        3.3629493653        1.1577144528
  O        -2.4684266507        3.9444092881       12.0005895324
  O         4.4803007444        6.5783532921        3.0538346322
  O        -0.2074668793       -0.3984530741        9.9861743778
  O         6.9215211353        5.3572951844        0.1059606285
  O         2.3623699543        8.4385950558       -0.0587462950
     124
 i =       21, E =     -1301.9380564569
 Ti        -2.8563192719        2.2100890757       11.2533285475
 Ti         7.9569031496        5.1048600414        1.8845478113
 Ti         1.2420877912       -1.7032089000        9.4132608578
 Ti         2.7461929709        7.4461246559        3.6671449752
 Ti         1.7551476629        9.1192073776        1.7592918744
 Ti         3.1107269316       -1.9654529265       11.3801099200
 Ti        -1.9146711287        0.4913234615        9.3463151590
 Ti         5.9784963566        5.3951163411        3.7383492467
  H         3.7573323362        1.5229405644        8.6165199184
  H        -0.1907591042       -4.2301596495        6.4822258111
  H         4.7940759107       10.8591323254        4.6351018680
  H        -2.3343326450        6.1114788213       11.0312501145
  H         8.7964856276        1.1971109424        2.2031136035
  H        -6.8249585119        1.4781202294       10.8751771597
  H        11.3386880543        7.1226406711        2.0886917816
  H         4.1129776598       -6.0059587169       10.9969546654
  H        -2.3192550795        8.5544088543        2.0795913871
  H         4.7209973174        3.0351620003        6.8541039341
  H         0.0352368489        3.6678327422        8.4246254781
  H        -3.6613310128       -1.6925227699        6.3370059479
  H         2.2320931319        7.4719531774       -0.1169044771
  H         6.0748915022        4.8752063222        0.1851482622
  H         3.6578829064       -2.6163778992        5.8804082980
  H         1.0388309196        9.2938417181        7.2907458973
  H        -6.0006064746        3.8615914797        9.0025933286
  H        10.7650669277        3.0742056166        4.1960468209
  H        -3.6404472992        2.4934220842        5.6762039022
  H        -1.3189724790       10.9839654717        4.1166769320
  H         2.1953155840       12.2217282279        2.6051063621
  H         8.6763510994       -0.8285993361        3.4116413157
  H         4.8387704329        7.1222175964        2.3305504875
  H         0.1733612687        0.1643268103       10.6852819136
  H         7.3471784116       -0.0008402763        9.7739734734
  H         5.8666006228       -0.4795770330       10.5247530158
  H         7.9050696784        4.3622789952        8.6651571319
  H         7.3475107650        4.7274068965        7.0440503215
  H         6.8832737286       -4.9758695315        9.5959587127
  H         5.5932784659       -3.8863923349       10.0513461897
  H         1.4298653215        1.8626316901        9.3821543120
  H         0.9992078042        5.1834379927        6.6601353427
  H         6.0339087068        8.8623602025        3.8555528690
  H        -7.7352095961        8.8798119564        4.6892719151
  C         8.5520268877        4.3649234269        4.7453469451
  C        -3.8163302347        2.4970262609        8.4066654929
  C         3.8263214932       -2.7198761037        8.5114432219
  C         0.8290942911        9.4329227883        4.6256949877
  C         9.4529069608        3.7725952386        5.7419897804
  C        -4.7410851585        3.1309568913        7.4306353392
  C         4.7711505190       -3.3290912599        7.5683224647
  C        -0.0546772494       10.0833525744        5.6269533960
  C         9.1924038394        3.8305973532        7.1480176279
  C        -4.5078528421        3.0347420924        6.0431147256
  C         5.8999720060       -4.0902864592        8.0220824690
  C        -1.1465639445       10.8613621150        5.1822473305
  C         0.1938438694        9.9067268012        6.9834514888
  C         4.5311002635       -3.1894779501        6.1834895663
  C        10.6052574070        3.1000767047        5.2715542901
  C        -5.8562643058        3.8032020857        7.9252276236
  C         2.9160715774        4.1979995137        6.6584925507
  C         1.8438973983        2.5147627596        8.6155206118
  C         6.4720942378        9.5067084995        4.6159757635
  C        -1.8692598800       -2.8773055750        6.5118311656
  C         8.7682451792        1.2693380861        0.0606567944
  C         2.3120867056       13.0653249448        0.0861734313
  C        11.2375147032        7.0498803900       -0.0606440052
  C        -2.1241074924        8.5924376357       -0.0768086069
  C         3.4871156701        5.0917815554        5.6222022408
  C        -1.2628500245       -1.9844125074        7.5284623520
  C         8.6207031099        2.7280859631        0.0371983551
  C         2.2129655006       11.6284077976        0.0499472001
  C         9.9387758727        6.4258298103       -0.0163872392
  C        -0.7151246216        9.0010151626       -0.0508106130
  C         1.5901786629        4.3802643349        7.0950941860
  C         3.1622387682        2.3248257205        8.1824911989
  C         5.7734501465       10.6380835422        5.0563580877
  C        -1.1735719470       -4.0177917907        6.0672126055
  C         8.8152690239        0.6045990677        1.2901347323
  C        -2.3271124226        6.7024306026       11.9436716248
  C        11.8885796801        7.3281146591        1.1737449893
  C        -7.3878869080        1.2981302582       11.7895414534
  C         7.7361268934        9.2043281340        5.1381397840
  C        -3.1412262072       -2.5808023213        5.9851233277
  C         3.6997810924        3.1641591723        7.2062523373
  C         1.0574448082        3.5384368068        8.0724628621
  C         7.2957429119        0.2550025148       11.8021654626
  C        -2.8217614931        8.3665718314        1.1348227874
  C         4.1558687632       -6.5345805280       11.9451039831
  C         2.3299152767       13.8148356818        1.3150959129
  N         2.3969782282       13.2162983012        2.5505552271
  N         6.7176165586        0.0757781547       10.5643977678
  N         8.0964130518        4.4549702235        7.6757138777
  N         6.2242357300       -4.2510521088        9.3408564205
  O         7.3711573185        4.7614272054        5.1116250996
  O        -3.0404424353        1.5526973603        8.0003940199
  O         4.1969010786       -2.6028037803        9.7371514702
  O         0.7570157327        9.8540696390        3.4225536816
  O         1.6025523883        8.4767967347        5.0132909556
  O         2.6599653035       -2.3439873017        8.0976829921
  O         8.9590253695        4.4448809222        3.5316084013
  O        -3.8680625496        2.9148631652        9.6125873745
  O         6.2818387920        4.1838058755        2.5362250984
  O        -1.3612997014        2.0482794391       10.1108958659
  O         7.2206772720        6.4695081083        2.9859931945
  O        -3.1098984430        0.3172566259       10.5869484342
  O         1.4824358593       -2.8730297139       10.6792478513
  O         3.2700985569        9.0021860220        2.9105017828
  O         2.4550827943       -0.6181692393       10.2282663578
  O         1.5561991094        7.2492734695        2.4121602808
  O         4.7065341136        4.9066084923        5.2637654581
  O        -1.9322758965       -0.9607018032        7.9179600885
  O         3.8551892616       -3.7511069302       11.9911485539
  O         2.1330559876       10.9351096105        1.1482146400
  O         4.6705083164       -0.9490372330       11.9854905904
  O        -0.1297185499        9.1005259825        1.0928329349
  O        -0.0951508588       -2.2674238339        7.9787896950
  O         2.7472350568        6.0151456284        5.1308612597
  O         9.4020080627        6.1290145166        1.1311510388
  O        -4.7534657517        2.1592871068       11.9266526166
  O         8.6101356546        3.3617915318        1.1576447958
  O        -2.4702649885        3.9429595659       12.0008587688
  O         4.4798319000        6.5774224844        3.0552295131
  O        -0.2075698035       -0.3985793582        9.9866138998
  O         6.9205753029        5.3566120455        0.1060797989
  O         2.3619947451        8.4378455791       -0.0579405571
     124
 i =       22, E =     -1301.9380608922
 Ti        -2.8575108349        2.2089378639       11.2539148851
 Ti         7.9566055287        5.1035950047        1.8848422439
 Ti         1.2418550252       -1.7039638916        9.4133782506
 Ti         2.7458372649        7.4458276009        3.6679770103
 Ti         1.7546996381        9.1181708098        1.7599102110
 Ti         3.1099670699       -1.9664226070       11.3803749525
 Ti        -1.9146607223        0.4908746826        9.3466773906
 Ti         5.9778860455        5.3937473222        3.7383925609
  H         3.7578333489        1.5227208372        8.6170904501
  H        -0.1906538118       -4.2304254161        6.4833009963
  H         4.7949541425       10.8598733239        4.6342549754
  H        -2.3350399845        6.1104518096       11.0314069964
  H         8.7981748521        1.1958816176        2.2031824125
  H        -6.8263588075        1.4783076457       10.8760377663
  H        11.3373659306        7.1223435589        2.0892725942
  H         4.1131111621       -6.0069396949       10.9969888601
  H        -2.3204623447        8.5541139599        2.0804001341
  H         4.7208876745        3.0343360040        6.8537957803
  H         0.0354390598        3.6677898286        8.4256058392
  H        -3.6608759141       -1.6920984452        6.3366287043
  H         2.2323893418        7.4713174486       -0.1163436781
  H         6.0746134601        4.8741887596        0.1853209928
  H         3.6587220909       -2.6149464619        5.8811329985
  H         1.0386265343        9.2932229650        7.2908184141
  H        -6.0023689970        3.8587871788        9.0028486799
  H        10.7673040143        3.0773935617        4.1966728061
  H        -3.6377777265        2.4971603419        5.6769928126
  H        -1.3182350034       10.9853204366        4.1173724557
  H         2.1969141953       12.2210324525        2.6059063577
  H         8.6797858023       -0.8291360713        3.4117250898
  H         4.8385781901        7.1215894294        2.3317654129
  H         0.1737632937        0.1648003963       10.6848705024
  H         7.3459195671       -0.0003285682        9.7747674776
  H         5.8658730062       -0.4799664698       10.5254174200
  H         7.9033688008        4.3582312373        8.6652534116
  H         7.3462282999        4.7245973507        7.0442094949
  H         6.8824273257       -4.9763370828        9.5966073274
  H         5.5935910820       -3.8854857563       10.0517568364
  H         1.4305229082        1.8627991445        9.3831072779
  H         0.9990820076        5.1829125165        6.6604948168
  H         6.0351808378        8.8631148777        3.8548665905
  H        -7.7347264762        8.8796742160        4.6901915965
  C         8.5517815885        4.3642352382        4.7455008033
  C        -3.8161569514        2.4971305735        8.4070309997
  C         3.8265362242       -2.7199665001        8.5119784093
  C         0.8292434548        9.4331598648        4.6262305483
  C         9.4535282953        3.7732958106        5.7422595826
  C        -4.7409611025        3.1312769622        7.4310708486
  C         4.7718291272       -3.3284744607        7.5688926991
  C        -0.0545454001       10.0837755672        5.6274144671
  C         9.1916330045        3.8289617292        7.1481199393
  C        -4.5061413992        3.0370778776        6.0437000466
  C         5.9004554632       -4.0899469627        8.0226474253
  C        -1.1459892449       10.8625127368        5.1829225634
  C         0.1939895838        9.9068455616        6.9838514596
  C         4.5317794682       -3.1882962541        6.1841648450
  C        10.6067267481        3.1019380145        5.2720664673
  C        -5.8569485676        3.8020647234        7.9255400596
  C         2.9157532302        4.1970403743        6.6584946253
  C         1.8442732310        2.5145567311        8.6160077027
  C         6.4728559417        9.5070777046        4.6159441052
  C        -1.8688258604       -2.8769231424        6.5116271503
  C         8.7690647301        1.2685304894        0.0607461104
  C         2.3127318771       13.0644435148        0.0861707125
  C        11.2362194147        7.0503330793       -0.0599684926
  C        -2.1251573458        8.5922733881       -0.0760190748
  C         3.4869171766        5.0909871570        5.6227251091
  C        -1.2628478215       -1.9844651189        7.5285920598
  C         8.6210086484        2.7272286460        0.0372071208
  C         2.2123736040       11.6274172909        0.0500729195
  C         9.9379261816        6.4250811381       -0.0159626014
  C        -0.7161307945        9.0003409573       -0.0497916450
  C         1.5900150884        4.3797350200        7.0954958732
  C         3.1626003535        2.3244641378        8.1830048163
  C         5.7742983347       10.6388019219        5.0555997129
  C        -1.1733849006       -4.0180189352        6.0680348641
  C         8.8169637674        0.6035135991        1.2901695900
  C        -2.3268195239        6.7015029815       11.9437719604
  C        11.8873196528        7.3281353530        1.1744534954
  C        -7.3894879407        1.2989734695       11.7903152035
  C         7.7367848037        9.2045605469        5.1383245424
  C        -3.1409363268       -2.5805676312        5.9850878261
  C         3.6997881933        3.1633908906        7.2062728688
  C         1.0575837001        3.5382365925        8.0732783285
  C         7.2943534770        0.2553134724       11.8028210236
  C        -2.8230418284        8.3668614913        1.1355168363
  C         4.1563279923       -6.5354104187       11.9452266461
  C         2.3313902718       13.8136837238        1.3151394962
  N         2.3996201226       13.2153562213        2.5507008376
  N         6.7160398344        0.0767838425       10.5649350331
  N         8.0948835904        4.4517721237        7.6759308012
  N         6.2247645900       -4.2503493293        9.3415487255
  O         7.3709877065        4.7612096310        5.1117571585
  O        -3.0399338412        1.5531472451        8.0005996307
  O         4.1967594274       -2.6030068196        9.7376925288
  O         0.7569712515        9.8539072464        3.4230716485
  O         1.6024638538        8.4767594627        5.0139441575
  O         2.6599505399       -2.3447666624        8.0981748610
  O         8.9587692377        4.4445746738        3.5317693037
  O        -3.8690804201        2.9135611537        9.6133638543
  O         6.2811563059        4.1823572788        2.5362760923
  O        -1.3618985589        2.0476906789       10.1119243798
  O         7.2200646337        6.4683704418        2.9860685019
  O        -3.1103629164        0.3161422785       10.5868438520
  O         1.4818579616       -2.8743550714       10.6788779078
  O         3.2700632520        9.0016074219        2.9108593655
  O         2.4545589895       -0.6188390173       10.2286337550
  O         1.5553445534        7.2485671893        2.4133686016
  O         4.7058001265        4.9046350507        5.2629979618
  O        -1.9318375977       -0.9604258573        7.9179177080
  O         3.8546118836       -3.7522541856       11.9911267864
  O         2.1323756774       10.9342998328        1.1484100765
  O         4.6699000712       -0.9499758947       11.9858106174
  O        -0.1306514106        9.0991553982        1.0938885994
  O        -0.0949430751       -2.2670311142        7.9787797579
  O         2.7476889773        6.0149581668        5.1314986565
  O         9.4014606618        6.1276475708        1.1314807440
  O        -4.7543864770        2.1575317246       11.9275385182
  O         8.6101552566        3.3608088454        1.1576796613
  O        -2.4718545383        3.9421479325       12.0010140734
  O         4.4793216046        6.5766145413        3.0561682161
  O        -0.2077607510       -0.3989015609        9.9871497174
  O         6.9201780275        5.3558915134        0.1062212180
  O         2.3618401745        8.4372492102       -0.0573590848
     124
 i =       23, E =     -1301.9380656103
 Ti        -2.8584123398        2.2080202546       11.2544255983
 Ti         7.9564876103        5.1026488437        1.8850850878
 Ti         1.2417063062       -1.7044451691        9.4136148300
 Ti         2.7454344221        7.4453726922        3.6687078710
 Ti         1.7543315832        9.1173721906        1.7601169840
 Ti         3.1094858590       -1.9673135300       11.3807211276
 Ti        -1.9147759718        0.4905882137        9.3471371324
 Ti         5.9776128266        5.3928488367        3.7384805432
  H         3.7581561109        1.5224998612        8.6175292016
  H        -0.1905804710       -4.2305471940        6.4842726183
  H         4.7957758952       10.8605046573        4.6335443913
  H        -2.3358993764        6.1098707688       11.0314198790
  H         8.7999152719        1.1946488571        2.2033594150
  H        -6.8277110865        1.4786250009       10.8766633636
  H        11.3363770775        7.1222305098        2.0897064427
  H         4.1131414536       -6.0079572748       10.9968612796
  H        -2.3217849663        8.5536071297        2.0813133337
  H         4.7206991125        3.0336634951        6.8536003730
  H         0.0356081966        3.6679109921        8.4264549142
  H        -3.6604930190       -1.6918440059        6.3364297928
  H         2.2325788936        7.4704849398       -0.1157675160
  H         6.0744845547        4.8730445722        0.1854587418
  H         3.6591729050       -2.6138876831        5.8818931408
  H         1.0383381478        9.2924713838        7.2908038717
  H        -6.0039748374        3.8561335230        9.0030456918
  H        10.7691597583        3.0797922104        4.1972110078
  H        -3.6356012923        2.4998572400        5.6778551063
  H        -1.3178101075       10.9864592924        4.1178081036
  H         2.1977428510       12.2204731877        2.6066077616
  H         8.6826138997       -0.8294718113        3.4116392475
  H         4.8382963965        7.1211847710        2.3328553328
  H         0.1736096078        0.1646718793       10.6850505923
  H         7.3448983534       -0.0001709291        9.7755165861
  H         5.8652764507       -0.4804344260       10.5258838120
  H         7.9017002331        4.3547253105        8.6651743640
  H         7.3451395694        4.7224705060        7.0441232539
  H         6.8818287648       -4.9767850281        9.5969138511
  H         5.5940318493       -3.8846554883       10.0518599958
  H         1.4309378173        1.8629055695        9.3839827941
  H         0.9991456566        5.1825445234        6.6608004816
  H         6.0362163535        8.8637430414        3.8542468425
  H        -7.7343851347        8.8795466083        4.6909468847
  C         8.5519757481        4.3640832314        4.7456236268
  C        -3.8158003816        2.4973163585        8.4075923377
  C         3.8267510766       -2.7198497733        8.5126515754
  C         0.8292377622        9.4336664789        4.6264147891
  C         9.4537684081        3.7732976333        5.7426251231
  C        -4.7407706039        3.1312222852        7.4315019656
  C         4.7721069729       -3.3281821937        7.5693277274
  C        -0.0546369036       10.0841495257        5.6278106860
  C         9.1912624561        3.8278704722        7.1483693591
  C        -4.5047866324        3.0387000617        6.0442037181
  C         5.9006921863       -4.0896913645        8.0229323960
  C        -1.1455796948       10.8634810836        5.1832672384
  C         0.1939554879        9.9067379603        6.9841368079
  C         4.5321578112       -3.1875281428        6.1846929527
  C        10.6080838490        3.1035813730        5.2725128233
  C        -5.8575783983        3.8006394012        7.9258500538
  C         2.9156570950        4.1964779431        6.6586037553
  C         1.8445495919        2.5144789097        8.6166371029
  C         6.4736088402        9.5075936950        4.6156122575
  C        -1.8685138771       -2.8767185412        6.5118532566
  C         8.7696958732        1.2678427398        0.0607296378
  C         2.3131691739       13.0635264971        0.0861955774
  C        11.2350496702        7.0505658404       -0.0595412992
  C        -2.1260037821        8.5920855114       -0.0752063476
  C         3.4868213231        5.0902029022        5.6228747436
  C        -1.2625903148       -1.9842046140        7.5286097504
  C         8.6209864442        2.7263614862        0.0373411730
  C         2.2118869838       11.6267601085        0.0499911509
  C         9.9373596747        6.4245375029       -0.0154705171
  C        -0.7169349315        8.9994270070       -0.0490926994
  C         1.5900256575        4.3793249903        7.0958486767
  C         3.1627832044        2.3240686989        8.1833139670
  C         5.7749554058       10.6392561744        5.0552566413
  C        -1.1731569555       -4.0179817343        6.0685495116
  C         8.8183178229        0.6026643738        1.2902052173
  C        -2.3270514907        6.7006800930       11.9439467505
  C        11.8862533956        7.3279484969        1.1748755736
  C        -7.3905464780        1.2992386916       11.7909648187
  C         7.7371824731        9.2046028733        5.1387323804
  C        -3.1404922318       -2.5802436383        5.9849414875
  C         3.6996965247        3.1627974856        7.2063237720
  C         1.0576688250        3.5380593519        8.0738518068
  C         7.2931702929        0.2559978562       11.8033590753
  C        -2.8241697786        8.3667320482        1.1361698824
  C         4.1566808350       -6.5362510233       11.9452755775
  C         2.3328897626       13.8127866719        1.3151443470
  N         2.4018375305       13.2145296504        2.5507431987
  N         6.7146948140        0.0775625307       10.5654437277
  N         8.0933684016        4.4487959950        7.6759582141
  N         6.2252015583       -4.2499673001        9.3418964895
  O         7.3709833934        4.7613202462        5.1118752603
  O        -3.0391774524        1.5535172317        8.0008192053
  O         4.1967516014       -2.6031390269        9.7382525994
  O         0.7571216677        9.8539633600        3.4233330489
  O         1.6026765624        8.4770678625        5.0142753360
  O         2.6599546439       -2.3446294110        8.0986111399
  O         8.9585682686        4.4442624858        3.5318326006
  O        -3.8699764759        2.9125308215        9.6142107299
  O         6.2807831997        4.1812565343        2.5364743820
  O        -1.3621556974        2.0471562239       10.1130519050
  O         7.2197530320        6.4676697617        2.9862115361
  O        -3.1109564608        0.3151837540       10.5868589891
  O         1.4814184833       -2.8753245481       10.6788488384
  O         3.2696207067        9.0010313320        2.9111546943
  O         2.4541677892       -0.6194765026       10.2290244663
  O         1.5547355534        7.2480153111        2.4141772806
  O         4.7054699508        4.9032520782        5.2627786683
  O        -1.9314127010       -0.9600224574        7.9177334192
  O         3.8541685256       -3.7531794172       11.9913480256
  O         2.1315933932       10.9337647666        1.1483267983
  O         4.6693737927       -0.9507697570       11.9863548929
  O        -0.1313301918        9.0979097761        1.0944702818
  O        -0.0946063575       -2.2668498598        7.9786292908
  O         2.7479151085        6.0148359403        5.1323209568
  O         9.4011633973        6.1266369173        1.1319167195
  O        -4.7550963954        2.1563285949       11.9282414688
  O         8.6102667161        3.3599934621        1.1577620400
  O        -2.4731578167        3.9415920885       12.0009943629
  O         4.4788246823        6.5757913581        3.0568549778
  O        -0.2081190158       -0.3994117704        9.9877487377
  O         6.9200422650        5.3548786277        0.1064503798
  O         2.3617388526        8.4365007740       -0.0569792703
     124
 i =       24, E =     -1301.9380701035
 Ti        -2.8597329887        2.2066966488       11.2554050916
 Ti         7.9564791343        5.1012484142        1.8855649936
 Ti         1.2415365720       -1.7049902507        9.4141342997
 Ti         2.7447357392        7.4447853216        3.6698019936
 Ti         1.7537198838        9.1161985481        1.7604411419
 Ti         3.1090135920       -1.9686767879       11.3815101844
 Ti        -1.9149260670        0.4901568296        9.3479483097
 Ti         5.9774334138        5.3918231078        3.7387562307
  H         3.7583934692        1.5221457920        8.6180986981
  H        -0.1904794301       -4.2306408852        6.4857560027
  H         4.7971235849       10.8614549725        4.6324990665
  H        -2.3375078651        6.1090335042       11.0313894525
  H         8.8028218548        1.1928759830        2.2035870179
  H        -6.8296514496        1.4792298768       10.8776359884
  H        11.3348634016        7.1219928592        2.0903733849
  H         4.1130687629       -6.0095573025       10.9967348074
  H        -2.3239244445        8.5526522607        2.0827540202
  H         4.7204057409        3.0326001536        6.8533348535
  H         0.0360355140        3.6680749764        8.4277186906
  H        -3.6598854972       -1.6914104894        6.3362186136
  H         2.2328673152        7.4689695849       -0.1148587695
  H         6.0743086238        4.8710041162        0.1857764994
  H         3.6596060258       -2.6124053719        5.8830741790
  H         1.0375423106        9.2914422534        7.2908061965
  H        -6.0064574758        3.8517765597        9.0033401523
  H        10.7721064409        3.0833720266        4.1980294433
  H        -3.6324212842        2.5036731496        5.6791096676
  H        -1.3172335632       10.9882731281        4.1184807936
  H         2.1987081838       12.2197636773        2.6072882722
  H         8.6869030152       -0.8298599565        3.4114689486
  H         4.8377493528        7.1207054730        2.3344562299
  H         0.1729293238        0.1638640896       10.6859043676
  H         7.3435604003       -0.0000745389        9.7766581080
  H         5.8643468626       -0.4809787312       10.5268287874
  H         7.8988372854        4.3492980726        8.6650552537
  H         7.3436545362        4.7193664416        7.0437583206
  H         6.8810437937       -4.9774535898        9.5973197826
  H         5.5948995161       -3.8835845050       10.0519677813
  H         1.4313958175        1.8629834970        9.3855309385
  H         0.9993207302        5.1820831186        6.6612797439
  H         6.0377646045        8.8647118749        3.8532595483
  H        -7.7339481035        8.8793373984        4.6920388792
  C         8.5523819823        4.3641465283        4.7459067239
  C        -3.8160456156        2.4967450109        8.4086723711
  C         3.8272059439       -2.7193127323        8.5135490953
  C         0.8294036768        9.4343989618        4.6263425048
  C         9.4543936484        3.7735803493        5.7430871154
  C        -4.7402674558        3.1313862389        7.4322518481
  C         4.7723977968       -3.3278462239        7.5699129218
  C        -0.0545458785       10.0847358347        5.6280028607
  C         9.1901258645        3.8254566957        7.1486072665
  C        -4.5027353259        3.0410057575        6.0450318026
  C         5.9008351722       -4.0895848188        8.0231675177
  C        -1.1451489447       10.8646029774        5.1837924349
  C         0.1936233862        9.9064824046        6.9842478004
  C         4.5325776467       -3.1864134281        6.1854146235
  C        10.6098950369        3.1055204726        5.2731941907
  C        -5.8585927816        3.7985416960        7.9262655617
  C         2.9155608592        4.1955560435        6.6588080527
  C         1.8447611495        2.5142384996        8.6177626813
  C         6.4746640684        9.5081808488        4.6152462214
  C        -1.8680378436       -2.8763442468        6.5120665759
  C         8.7706591234        1.2666208722        0.0608908411
  C         2.3133944388       13.0620388254        0.0861093490
  C        11.2333919921        7.0503848007       -0.0588024491
  C        -2.1274580958        8.5917504339       -0.0741430829
  C         3.4868174071        5.0892429998        5.6232927631
  C        -1.2621363313       -1.9837393776        7.5286195137
  C         8.6210902592        2.7248972882        0.0376003190
  C         2.2110250203       11.6257828302        0.0498739857
  C         9.9363146260        6.4241204514       -0.0147422879
  C        -0.7181226103        8.9976348692       -0.0480249622
  C         1.5901534240        4.3788147812        7.0963820375
  C         3.1628536173        2.3235706432        8.1838419083
  C         5.7760980314       10.6400032518        5.0546033070
  C        -1.1728716894       -4.0179526006        6.0694693400
  C         8.8205639692        0.6012387640        1.2903276582
  C        -2.3272652091        6.6995175837       11.9440994044
  C        11.8845414960        7.3280326979        1.1755391629
  C        -7.3923426581        1.2995769174       11.7918527517
  C         7.7378591161        9.2048041436        5.1392530243
  C        -3.1398862663       -2.5798258991        5.9848353156
  C         3.6995699962        3.1618889803        7.2064738100
  C         1.0579712252        3.5378742764        8.0747436926
  C         7.2913239574        0.2566743352       11.8041928937
  C        -2.8256988997        8.3659885623        1.1371500952
  C         4.1567603598       -6.5375308642       11.9454165529
  C         2.3350259692       13.8113521637        1.3150684694
  N         2.4052158926       13.2133584563        2.5507842600
  N         6.7127644323        0.0786861556       10.5661139033
  N         8.0909895120        4.4441740446        7.6760320460
  N         6.2258379696       -4.2494946727        9.3421416499
  O         7.3710166845        4.7614124739        5.1122794492
  O        -3.0375014735        1.5543576290        8.0012739875
  O         4.1968721064       -2.6034644772        9.7390862314
  O         0.7570290145        9.8543808143        3.4235013678
  O         1.6029737293        8.4774943978        5.0147529118
  O         2.6600570861       -2.3439783415        8.0992887877
  O         8.9585975412        4.4434954188        3.5320592289
  O        -3.8708571479        2.9112277665        9.6153749750
  O         6.2805452470        4.1799375752        2.5369390293
  O        -1.3626416968        2.0462847263       10.1150495660
  O         7.2192728708        6.4667839140        2.9861534776
  O        -3.1119751187        0.3140393412       10.5868728354
  O         1.4811303630       -2.8764305861       10.6791600121
  O         3.2688690220        9.0001514244        2.9113475928
  O         2.4536173933       -0.6204972295       10.2299402341
  O         1.5540298681        7.2471545338        2.4151697886
  O         4.7050842655        4.9013110045        5.2627346764
  O        -1.9306920981       -0.9592902054        7.9172689494
  O         3.8533861080       -3.7546750667       11.9917775784
  O         2.1303356163       10.9327927291        1.1480893210
  O         4.6686749306       -0.9520245332       11.9871875452
  O        -0.1322994836        9.0959658077        1.0953144961
  O        -0.0941237329       -2.2666620660        7.9784360910
  O         2.7481696523        6.0146267733        5.1336219279
  O         9.4008052151        6.1252776888        1.1326787883
  O        -4.7561695394        2.1549217284       11.9294045279
  O         8.6102687843        3.3586426874        1.1579570929
  O        -2.4746778396        3.9408306622       12.0008851583
  O         4.4780447007        6.5746457729        3.0578481265
  O        -0.2087310700       -0.4004074531        9.9887269327
  O         6.9198023059        5.3530438727        0.1070208620
  O         2.3613973039        8.4351403890       -0.0562768591
     124
 i =       25, E =     -1301.9380731088
 Ti        -2.8604890089        2.2058750173       11.2560818641
 Ti         7.9563753153        5.1003746287        1.8858832769
 Ti         1.2416022743       -1.7051225225        9.4147314865
 Ti         2.7443559094        7.4445185586        3.6702931027
 Ti         1.7533779048        9.1153721631        1.7605545448
 Ti         3.1087612733       -1.9695398427       11.3821466551
 Ti        -1.9149940675        0.4899870622        9.3484679743
 Ti         5.9774994845        5.3915172608        3.7390019566
  H         3.7583974543        1.5217054765        8.6184838539
  H        -0.1905136718       -4.2306751054        6.4866481744
  H         4.7979587187       10.8620694247        4.6317574430
  H        -2.3386263628        6.1083983047       11.0312572058
  H         8.8049085888        1.1919157040        2.2036984978
  H        -6.8307443805        1.4797151389       10.8782471056
  H        11.3337439041        7.1218901761        2.0908757351
  H         4.1127658235       -6.0104354929       10.9968465771
  H        -2.3251442948        8.5518284375        2.0835069628
  H         4.7201560737        3.0318187582        6.8533304389
  H         0.0362242883        3.6682085620        8.4285256001
  H        -3.6595304724       -1.6911403205        6.3361018816
  H         2.2329853806        7.4678532268       -0.1142316778
  H         6.0742853403        4.8694766398        0.1861488027
  H         3.6597508545       -2.6116355872        5.8836577834
  H         1.0369181878        9.2908756203        7.2908675051
  H        -6.0080885795        3.8489082617        9.0036335610
  H        10.7739847601        3.0854510936        4.1986178856
  H        -3.6306010374        2.5058398276        5.6797663432
  H        -1.3169864575       10.9894772366        4.1186855999
  H         2.1991492733       12.2193082572        2.6074355312
  H         8.6895859047       -0.8301255839        3.4113326889
  H         4.8372993952        7.1205502937        2.3353168331
  H         0.1721244637        0.1627824091       10.6870006702
  H         7.3428115432       -0.0001397019        9.7773788098
  H         5.8636392025       -0.4810870995       10.5274447197
  H         7.8967071452        4.3457772291        8.6649233014
  H         7.3427705799        4.7175217312        7.0433329213
  H         6.8808316216       -4.9779107026        9.5974270762
  H         5.5954738263       -3.8831406616       10.0519966195
  H         1.4315812822        1.8631229706        9.3865139462
  H         0.9995192620        5.1817981821        6.6617055478
  H         6.0387125303        8.8652856072        3.8527453557
  H        -7.7336395400        8.8791947279        4.6926173466
  C         8.5527911943        4.3642472169        4.7462393006
  C        -3.8153248104        2.4971768069        8.4090001438
  C         3.8274408290       -2.7190803864        8.5139832961
  C         0.8293660814        9.4348509311        4.6263300727
  C         9.4544505254        3.7730925427        5.7433647513
  C        -4.7401796349        3.1310720962        7.4327883098
  C         4.7725992245       -3.3275248338        7.5701743537
  C        -0.0546305157       10.0850695253        5.6280429435
  C         9.1897102289        3.8244028529        7.1488205302
  C        -4.5016643956        3.0420511373        6.0456065987
  C         5.9007848649       -4.0896749410        8.0232690200
  C        -1.1450235565       10.8652841786        5.1839538115
  C         0.1932943170        9.9062403123        6.9842636521
  C         4.5326434026       -3.1859209546        6.1857378075
  C        10.6112455267        3.1069619560        5.2737325140
  C        -5.8595323713        3.7967257475        7.9266223868
  C         2.9155481611        4.1951109725        6.6592982838
  C         1.8448474507        2.5140748827        8.6184311045
  C         6.4754236865        9.5086604728        4.6149011453
  C        -1.8679953879       -2.8764533962        6.5124518963
  C         8.7712061821        1.2658129625        0.0610369510
  C         2.3132648154       13.0611846429        0.0860724700
  C        11.2324186709        7.0504254409       -0.0583404630
  C        -2.1281981635        8.5910334320       -0.0735105205
  C         3.4867736475        5.0885702978        5.6235127505
  C        -1.2616346074       -1.9832264324        7.5282563885
  C         8.6211329711        2.7240160945        0.0378385824
  C         2.2106518552       11.6251465936        0.0498402313
  C         9.9358206147        6.4236877736       -0.0143308402
  C        -0.7188632254        8.9969599939       -0.0473075081
  C         1.5901846852        4.3783919961        7.0967839825
  C         3.1628779399        2.3231976751        8.1843451935
  C         5.7766445413       10.6403205096        5.0543289720
  C        -1.1725881828       -4.0178026720        6.0697358726
  C         8.8220940298        0.6003756833        1.2903449099
  C        -2.3276538285        6.6987507813       11.9440355234
  C        11.8835576868        7.3277762543        1.1760795257
  C        -7.3934236061        1.2998307582       11.7924659013
  C         7.7381618086        9.2047287721        5.1397017116
  C        -3.1393755826       -2.5794088040        5.9844877736
  C         3.6993840550        3.1611967272        7.2066069051
  C         1.0581000318        3.5378130416        8.0755105567
  C         7.2903808605        0.2567600649       11.8046857149
  C        -2.8267131699        8.3655730326        1.1377281105
  C         4.1567419722       -6.5383670817       11.9455396138
  C         2.3361305598       13.8105419826        1.3150422183
  N         2.4072867884       13.2125788492        2.5507740416
  N         6.7116672563        0.0792085087       10.5665242618
  N         8.0892995945        4.4409796125        7.6760278009
  N         6.2261870076       -4.2494086271        9.3421580622
  O         7.3712341751        4.7613862123        5.1125091723
  O        -3.0367190348        1.5546838950        8.0017439019
  O         4.1970376075       -2.6036166779        9.7395355443
  O         0.7569145057        9.8546332859        3.4235222069
  O         1.6029932482        8.4777913497        5.0147404221
  O         2.6603354338       -2.3431459109        8.0997003395
  O         8.9587701610        4.4430411540        3.5323180973
  O        -3.8716054881        2.9102757625        9.6161041408
  O         6.2806260363        4.1793421417        2.5374641440
  O        -1.3629281086        2.0456454741       10.1166235641
  O         7.2190717815        6.4663580820        2.9859619913
  O        -3.1126984650        0.3135626760       10.5867701069
  O         1.4812081990       -2.8769587265       10.6796157495
  O         3.2684157675        8.9997064151        2.9112077765
  O         2.4534108790       -0.6209231664       10.2308222595
  O         1.5536334471        7.2465727953        2.4156989976
  O         4.7049383183        4.9005219039        5.2629304668
  O        -1.9301728137       -0.9588443854        7.9170137261
  O         3.8528549175       -3.7556783020       11.9920150030
  O         2.1294129533       10.9319890953        1.1478780205
  O         4.6681681865       -0.9527062052       11.9877349675
  O        -0.1328899068        9.0944267478        1.0959843839
  O        -0.0939737422       -2.2665452258        7.9786590352
  O         2.7484816146        6.0145779178        5.1343859988
  O         9.4003563882        6.1247402025        1.1331164971
  O        -4.7568201022        2.1542679310       11.9300915839
  O         8.6102037779        3.3577214381        1.1582600620
  O        -2.4751496872        3.9403288934       12.0007892887
  O         4.4776640045        6.5741247690        3.0584425989
  O        -0.2091658521       -0.4011726641        9.9893754900
  O         6.9195548268        5.3518583534        0.1075083630
  O         2.3610362810        8.4341103629       -0.0558792414
     124
 i =       26, E =     -1301.9380772860
 Ti        -2.8611393911        2.2049708813       11.2567073547
 Ti         7.9560633965        5.0995625428        1.8862516596
 Ti         1.2418274981       -1.7049496057        9.4154870378
 Ti         2.7440879907        7.4442666632        3.6707028527
 Ti         1.7530715373        9.1145031841        1.7605051349
 Ti         3.1084913952       -1.9703825324       11.3828566600
 Ti        -1.9151294829        0.4898869720        9.3489018919
 Ti         5.9777145885        5.3915998946        3.7393543343
  H         3.7581569263        1.5210129942        8.6189507360
  H        -0.1906280979       -4.2306793032        6.4873377241
  H         4.7987933605       10.8626184367        4.6308977188
  H        -2.3398011788        6.1076554189       11.0310444524
  H         8.8073506921        1.1911339429        2.2038365938
  H        -6.8316830171        1.4803584096       10.8788021336
  H        11.3324707815        7.1218660848        2.0914245520
  H         4.1120911180       -6.0110588086       10.9971094347
  H        -2.3260636424        8.5508178892        2.0841192734
  H         4.7198075328        3.0308303473        6.8535403413
  H         0.0363356581        3.6683454157        8.4294423499
  H        -3.6591635628       -1.6908662784        6.3358229946
  H         2.2328908299        7.4665727700       -0.1135401435
  H         6.0743995690        4.8676735808        0.1867554169
  H         3.6597738857       -2.6111684720        5.8840003686
  H         1.0362391074        9.2903601370        7.2908923628
  H        -6.0098472233        3.8458921865        9.0040421255
  H        10.7759497365        3.0874312797        4.1992923703
  H        -3.6289953860        2.5077353250        5.6803462348
  H        -1.3168564032       10.9906924414        4.1186442928
  H         2.1994326716       12.2187798332        2.6073902556
  H         8.6922407586       -0.8305809915        3.4111822785
  H         4.8367602735        7.1205869921        2.3359405564
  H         0.1708614378        0.1610916578       10.6888318173
  H         7.3420721343       -0.0003940107        9.7780530074
  H         5.8627787232       -0.4808581807       10.5279340431
  H         7.8941821176        4.3421213133        8.6646060585
  H         7.3419758986        4.7157948269        7.0426739133
  H         6.8810233558       -4.9783538615        9.5972452226
  H         5.5960120088       -3.8830207565       10.0520120131
  H         1.4315958929        1.8632612561        9.3875540280
  H         0.9997329713        5.1814722648        6.6623088273
  H         6.0395695661        8.8657247297        3.8522767295
  H        -7.7333704901        8.8790563934        4.6930766181
  C         8.5531387397        4.3637463346        4.7466196546
  C        -3.8153911189        2.4968461391        8.4095920097
  C         3.8277222148       -2.7186303794        8.5142504343
  C         0.8289834613        9.4351409532        4.6263393169
  C         9.4546508797        3.7727878853        5.7438271039
  C        -4.7398569605        3.1308651771        7.4332736706
  C         4.7725441384       -3.3274144775        7.5703639189
  C        -0.0548932795       10.0853457540        5.6280581288
  C         9.1890789415        3.8227405482        7.1492273523
  C        -4.5007722166        3.0428608826        6.0461179068
  C         5.9007138818       -4.0897054811        8.0233317643
  C        -1.1450455800       10.8659453619        5.1839229423
  C         0.1928463988        9.9059014755        6.9842679274
  C         4.5326400303       -3.1855418068        6.1859254467
  C        10.6123281647        3.1080989719        5.2743241979
  C        -5.8604068257        3.7946439687        7.9271074009
  C         2.9154628342        4.1945355105        6.6597406285
  C         1.8449244402        2.5140494611        8.6193614413
  C         6.4760569767        9.5089930591        4.6146196316
  C        -1.8677112622       -2.8762703800        6.5124044237
  C         8.7718009088        1.2649617463        0.0611661860
  C         2.3130183199       13.0604265155        0.0860981947
  C        11.2317471057        7.0501429422       -0.0579167164
  C        -2.1290366766        8.5906521307       -0.0728345476
  C         3.4868970041        5.0882269413        5.6240240028
  C        -1.2613457234       -1.9830146529        7.5284164077
  C         8.6210429539        2.7231479041        0.0381980465
  C         2.2103406628       11.6244533304        0.0497856034
  C         9.9352886332        6.4233897487       -0.0139470696
  C        -0.7194163552        8.9960062006       -0.0466102568
  C         1.5903058884        4.3780993314        7.0975465982
  C         3.1627053820        2.3225537301        8.1848271279
  C         5.7772066822       10.6406625002        5.0539218452
  C        -1.1724830221       -4.0178120814        6.0700677269
  C         8.8234484045        0.5996150935        1.2903338170
  C        -2.3284260671        6.6979395524       11.9438706058
  C        11.8825836348        7.3274432218        1.1767055183
  C        -7.3940518173        1.2995278106       11.7931349675
  C         7.7384263433        9.2046766613        5.1399752110
  C        -3.1389203120       -2.5791608714        5.9842575323
  C         3.6991777559        3.1605985546        7.2070769293
  C         1.0580742190        3.5375944968        8.0762813866
  C         7.2895873468        0.2571305872       11.8052038043
  C        -2.8275829683        8.3647508468        1.1383596639
  C         4.1565930422       -6.5392088524       11.9456080205
  C         2.3372116250       13.8098740686        1.3150160997
  N         2.4092199220       13.2116983032        2.5506675914
  N         6.7108096428        0.0793849569       10.5670255407
  N         8.0875150900        4.4376021982        7.6758900533
  N         6.2263456943       -4.2497188876        9.3420602539
  O         7.3717779824        4.7615230026        5.1126585001
  O        -3.0356295041        1.5554346993        8.0021507408
  O         4.1972380826       -2.6038160123        9.7399620536
  O         0.7568977513        9.8548571354        3.4234672890
  O         1.6028703696        8.4782042696        5.0144527491
  O         2.6608616593       -2.3419132362        8.1000605425
  O         8.9591290629        4.4429513432        3.5327297822
  O        -3.8719318672        2.9098942832        9.6166934711
  O         6.2808779728        4.1789665722        2.5382968553
  O        -1.3631122372        2.0448595289       10.1184256069
  O         7.2190105534        6.4661353089        2.9858132370
  O        -3.1135248701        0.3131722023       10.5865040427
  O         1.4814918908       -2.8772697237       10.6801912147
  O         3.2679949565        8.9992492818        2.9107921330
  O         2.4533042022       -0.6210268707       10.2319440984
  O         1.5533334589        7.2459909257        2.4162354835
  O         4.7049615140        4.9001137814        5.2633614608
  O        -1.9295785660       -0.9582182107        7.9165568619
  O         3.8523173145       -3.7566614466       11.9923037161
  O         2.1284104154       10.9310504330        1.1476329263
  O         4.6677104636       -0.9533754794       11.9882274280
  O        -0.1335728482        9.0927606890        1.0967955780
  O        -0.0937648851       -2.2663570364        7.9788951260
  O         2.7487172348        6.0144408535        5.1350294655
  O         9.3997154919        6.1243845531        1.1335111733
  O        -4.7574299154        2.1542046211       11.9308235587
  O         8.6101064154        3.3568298731        1.1587143583
  O        -2.4750458619        3.9396930493       12.0006318298
  O         4.4774638973        6.5739027896        3.0589982423
  O        -0.2096749179       -0.4020439849        9.9901407274
  O         6.9192244763        5.3507178315        0.1081237944
  O         2.3605593336        8.4328831139       -0.0555975441
     124
 i =       27, E =     -1301.9380817166
 Ti        -2.8618610121        2.2036613628       11.2575181393
 Ti         7.9555820752        5.0985146926        1.8869278630
 Ti         1.2421098335       -1.7044331704        9.4163291295
 Ti         2.7438309949        7.4439367486        3.6714328579
 Ti         1.7526045278        9.1134235205        1.7606494935
 Ti         3.1081052376       -1.9715065585       11.3837656271
 Ti        -1.9153241930        0.4896939848        9.3493680752
 Ti         5.9779282456        5.3918905414        3.7400635203
  H         3.7574341620        1.5199134358        8.6196414429
  H        -0.1907926940       -4.2308392378        6.4880645448
  H         4.7999895366       10.8632487498        4.6295514063
  H        -2.3414237116        6.1064968406       11.0309278863
  H         8.8109213463        1.1902316845        2.2039879555
  H        -6.8326727094        1.4811227026       10.8796734109
  H        11.3306785474        7.1218340751        2.0921144011
  H         4.1108365458       -6.0116864615       10.9974943191
  H        -2.3269041167        8.5494050365        2.0849839468
  H         4.7193441008        3.0292352288        6.8540497863
  H         0.0365872652        3.6682758119        8.4308674831
  H        -3.6586515825       -1.6904201016        6.3351014886
  H         2.2324245511        7.4647642865       -0.1125792687
  H         6.0745896526        4.8650656963        0.1878048739
  H         3.6598640469       -2.6106526139        5.8841772652
  H         1.0353353978        9.2898070555        7.2908130394
  H        -6.0122648702        3.8414931977        9.0046372268
  H        10.7786460798        3.0904616137        4.2003157576
  H        -3.6269094928        2.5104263277        5.6810385730
  H        -1.3164969715       10.9922486813        4.1186838243
  H         2.2001035164       12.2179240904        2.6071900975
  H         8.6959808920       -0.8316697754        3.4111613679
  H         4.8360944782        7.1208136583        2.3364993777
  H         0.1689010835        0.1585554715       10.6918537317
  H         7.3410635696       -0.0007584696        9.7788251582
  H         5.8614639469       -0.4799922403       10.5286349870
  H         7.8902958928        4.3367841045        8.6641582030
  H         7.3409891780        4.7132033755        7.0416483921
  H         6.8815742804       -4.9787351450        9.5967547677
  H         5.5965863934       -3.8833336218       10.0522768719
  H         1.4314574742        1.8632513250        9.3893653683
  H         0.9998350025        5.1809918572        6.6634512845
  H         6.0405386601        8.8660231239        3.8515569346
  H        -7.7331294544        8.8789279412        4.6935943580
  C         8.5537484774        4.3637693713        4.7473262253
  C        -3.8153502434        2.4965935817        8.4102899991
  C         3.8279419953       -2.7181435423        8.5145416237
  C         0.8286861925        9.4352065976        4.6262844542
  C         9.4549813750        3.7724515538        5.7443149625
  C        -4.7400395639        3.1299982948        7.4340332658
  C         4.7724921795       -3.3270671952        7.5706208871
  C        -0.0551374340       10.0854068912        5.6278306121
  C         9.1875579536        3.8195476763        7.1495974051
  C        -4.4992795842        3.0444584176        6.0469816991
  C         5.9004469556       -4.0899742268        8.0233967878
  C        -1.1449997118       10.8667474508        5.1840091335
  C         0.1923472966        9.9057407101        6.9841067715
  C         4.5327210835       -3.1849670666        6.1861178069
  C        10.6135527019        3.1091736939        5.2751916324
  C        -5.8615306369        3.7923256368        7.9277277538
  C         2.9155121881        4.1939358689        6.6606981181
  C         1.8446806052        2.5136237347        8.6207514953
  C         6.4767310163        9.5090996595        4.6142098062
  C        -1.8674137457       -2.8760626108        6.5124811821
  C         8.7724519553        1.2636976545        0.0614710350
  C         2.3128838570       13.0594076935        0.0860583761
  C        11.2307711192        7.0499753058       -0.0572018587
  C        -2.1301576713        8.5896535874       -0.0719690396
  C         3.4870559636        5.0878310054        5.6247729926
  C        -1.2607463552       -1.9824704549        7.5283988203
  C         8.6211793606        2.7219218862        0.0387136123
  C         2.2097458318       11.6233500662        0.0497256758
  C         9.9344465509        6.4228932041       -0.0134817887
  C        -0.7204163812        8.9951586815       -0.0454834878
  C         1.5904037712        4.3775797841        7.0985392811
  C         3.1622363010        2.3218220796        8.1858176410
  C         5.7781365141       10.6411116421        5.0530913481
  C        -1.1723811834       -4.0178158083        6.0704663389
  C         8.8253084975        0.5984596648        1.2904550006
  C        -2.3292743663        6.6969349937       11.9436651353
  C        11.8814260099        7.3269289558        1.1776279008
  C        -7.3950837826        1.2995098556       11.7939743015
  C         7.7387719585        9.2047545725        5.1401414253
  C        -3.1382961258       -2.5788146252        5.9837941875
  C         3.6988211005        3.1595105889        7.2077129096
  C         1.0582420784        3.5373938334        8.0776501560
  C         7.2887397289        0.2567594409       11.8060048112
  C        -2.8285896202        8.3637050283        1.1393602614
  C         4.1559631951       -6.5401989413       11.9456678450
  C         2.3385992319       13.8088017710        1.3149099350
  N         2.4119003331       13.2103989412        2.5504678538
  N         6.7098687684        0.0796272719       10.5677359158
  N         8.0849766117        4.4327534060        7.6757508914
  N         6.2262586029       -4.2504091504        9.3419270052
  O         7.3723242778        4.7612176791        5.1129135753
  O        -3.0342428913        1.5565925166        8.0026734982
  O         4.1975046314       -2.6040754313        9.7405049575
  O         0.7566192233        9.8550748589        3.4233197141
  O         1.6024225875        8.4784264245        5.0144004781
  O         2.6617329302       -2.3401103254        8.1003935397
  O         8.9597211198        4.4427303919        3.5333399664
  O        -3.8721920360        2.9095583455        9.6174424592
  O         6.2811714264        4.1786996506        2.5395509277
  O        -1.3632190332        2.0436230842       10.1208136274
  O         7.2188381508        6.4659113150        2.9858558151
  O        -3.1147726174        0.3126020399       10.5858850200
  O         1.4818957244       -2.8774256473       10.6807390487
  O         3.2677227192        8.9984798144        2.9102184619
  O         2.4531069480       -0.6209610923       10.2334236330
  O         1.5531268205        7.2450834201        2.4171259917
  O         4.7051202291        4.8997067737        5.2642604096
  O        -1.9290491077       -0.9574802558        7.9160483376
  O         3.8514457654       -3.7579488736       11.9927861152
  O         2.1270560938       10.9296853069        1.1474308404
  O         4.6672037228       -0.9542098180       11.9886144563
  O        -0.1346211143        9.0902236191        1.0981022725
  O        -0.0936095089       -2.2664862882        7.9793651001
  O         2.7488235293        6.0141499706        5.1359817769
  O         9.3987691591        6.1239241031        1.1340192511
  O        -4.7581059422        2.1542803298       11.9321641346
  O         8.6097350743        3.3556698342        1.1592899349
  O        -2.4745765270        3.9387043472       12.0003958423
  O         4.4774029309        6.5740021710        3.0597217022
  O        -0.2103534362       -0.4032292930        9.9913767875
  O         6.9187034442        5.3492471463        0.1091061698
  O         2.3596665003        8.4311111598       -0.0551227979
     124
 i =       28, E =     -1301.9380843004
 Ti        -2.8621350568        2.2030917314       11.2578786978
 Ti         7.9554055705        5.0980241157        1.8873945111
 Ti         1.2421579404       -1.7039909516        9.4166599716
 Ti         2.7438695425        7.4438261137        3.6717688939
 Ti         1.7523655971        9.1129512503        1.7609273159
 Ti         3.1079528965       -1.9720514222       11.3840622448
 Ti        -1.9152678523        0.4894805788        9.3495624537
 Ti         5.9780533235        5.3921311009        3.7405686711
  H         3.7568762344        1.5192403915        8.6200114630
  H        -0.1907275739       -4.2310314133        6.4883222419
  H         4.8005338562       10.8636135119        4.6288893313
  H        -2.3424991770        6.1059256392       11.0310245671
  H         8.8128546454        1.1898077606        2.2039575712
  H        -6.8329928648        1.4813454060       10.8802669611
  H        11.3299736083        7.1216544423        2.0924193940
  H         4.1097970297       -6.0118692535       10.9976737744
  H        -2.3269136822        8.5486042689        2.0853736320
  H         4.7191435003        3.0282978111        6.8544245947
  H         0.0366446653        3.6683056602        8.4316405867
  H        -3.6583283146       -1.6900785836        6.3345592848
  H         2.2319665244        7.4638426311       -0.1121781306
  H         6.0747094480        4.8635866057        0.1885349105
  H         3.6598834165       -2.6103862192        5.8840166971
  H         1.0349578722        9.2895517823        7.2905091790
  H        -6.0133521946        3.8392765118        9.0048898771
  H        10.7797673072        3.0919909737        4.2008484645
  H        -3.6260246695        2.5117777871        5.6814357171
  H        -1.3164357371       10.9927917362        4.1186830826
  H         2.2005091687       12.2173138371        2.6070007746
  H         8.6977751759       -0.8325810893        3.4113069593
  H         4.8359171088        7.1210248040        2.3364950580
  H         0.1676115877        0.1568672814       10.6940055451
  H         7.3406675958       -0.0010436423        9.7790359107
  H         5.8606741255       -0.4792695101       10.5290156444
  H         7.8881941932        4.3338892837        8.6639837231
  H         7.3404628450        4.7117121564        7.0411150613
  H         6.8819594005       -4.9787293416        9.5962245252
  H         5.5967021633       -3.8838805589       10.0524680118
  H         1.4312577478        1.8632305173        9.3903054814
  H         0.9998133763        5.1808624171        6.6641825652
  H         6.0409068410        8.8660655417        3.8513430225
  H        -7.7329179117        8.8789448978        4.6937811009
  C         8.5536443441        4.3632578058        4.7475104103
  C        -3.8150754208        2.4966501203        8.4104866966
  C         3.8279408434       -2.7177476753        8.5145424297
  C         0.8283988687        9.4348212051        4.6262502978
  C         9.4548937816        3.7720318491        5.7445164294
  C        -4.7400779078        3.1298596246        7.4344251385
  C         4.7723559731       -3.3268313056        7.5706584515
  C        -0.0551835394       10.0855194871        5.6276137821
  C         9.1869198240        3.8183169395        7.1497586267
  C        -4.4991203431        3.0446306387        6.0474460919
  C         5.9002075204       -4.0900852196        8.0232825547
  C        -1.1451670334       10.8668879713        5.1840255729
  C         0.1919985838        9.9055916689        6.9839040711
  C         4.5327177918       -3.1846497574        6.1860864713
  C        10.6142028156        3.1099135772        5.2756263967
  C        -5.8626897866        3.7903978755        7.9279603676
  C         2.9154780286        4.1935077247        6.6610512706
  C         1.8445028635        2.5134659247        8.6215597752
  C         6.4770656352        9.5091600362        4.6140298683
  C        -1.8671853103       -2.8758257591        6.5122534953
  C         8.7726820757        1.2632327875        0.0616581374
  C         2.3128371845       13.0590020279        0.0860201400
  C        11.2304733975        7.0497132015       -0.0568359010
  C        -2.1305772595        8.5892574241       -0.0715768329
  C         3.4872627814        5.0879711890        5.6255508843
  C        -1.2607242527       -1.9826199153        7.5287454709
  C         8.6210551117        2.7214428087        0.0389970319
  C         2.2095275012       11.6227862455        0.0496861865
  C         9.9340038125        6.4226368645       -0.0133020356
  C        -0.7207760282        8.9945977722       -0.0448211564
  C         1.5905069669        4.3775775783        7.0993107419
  C         3.1618657293        2.3213479904        8.1862637575
  C         5.7785660317       10.6413375554        5.0526429616
  C        -1.1722732810       -4.0178685037        6.0706935833
  C         8.8263976102        0.5978438279        1.2905359065
  C        -2.3296533800        6.6965570825       11.9436508767
  C        11.8809600717        7.3267805644        1.1780601288
  C        -7.3955521771        1.2994444453       11.7944075590
  C         7.7389867135        9.2048114994        5.1401942490
  C        -3.1380697199       -2.5786106745        5.9835299501
  C         3.6987529525        3.1590856034        7.2082911242
  C         1.0582571635        3.5372746109        8.0783137012
  C         7.2883418051        0.2564064826       11.8063381506
  C        -2.8288141002        8.3630334785        1.1398393392
  C         4.1553082030       -6.5405140016       11.9457299312
  C         2.3390337650       13.8081471727        1.3149019456
  N         2.4130245091       13.2096225983        2.5503708522
  N         6.7096318923        0.0795018472       10.5680275443
  N         8.0835038647        4.4300559030        7.6757374223
  N         6.2259266948       -4.2509744416        9.3417441592
  O         7.3725664862        4.7612248362        5.1132466635
  O        -3.0336562752        1.5570438451        8.0029424952
  O         4.1975136386       -2.6041960917        9.7406821864
  O         0.7563792338        9.8549361048        3.4232532598
  O         1.6019512069        8.4782285612        5.0146154645
  O         2.6620335741       -2.3393420245        8.1005069586
  O         8.9602505862        4.4430431456        3.5336988832
  O        -3.8721779718        2.9094166256        9.6177482798
  O         6.2811202637        4.1787375421        2.5401172624
  O        -1.3630848148        2.0428993769       10.1218495482
  O         7.2188252378        6.4659085678        2.9861918820
  O        -3.1154485924        0.3123175776       10.5853279310
  O         1.4820410396       -2.8774797048       10.6806744304
  O         3.2678237826        8.9982181843        2.9102229510
  O         2.4529666052       -0.6207840733       10.2339925105
  O         1.5531256516        7.2443951913        2.4177222331
  O         4.7052898126        4.8997802427        5.2648317197
  O        -1.9285690795       -0.9570514660        7.9157825336
  O         3.8513246350       -3.7583284271       11.9930693219
  O         2.1262742630       10.9289797250        1.1473428431
  O         4.6670030105       -0.9543462973       11.9886034344
  O        -0.1351665990        9.0889456102        1.0989349673
  O        -0.0935232321       -2.2664403476        7.9795547239
  O         2.7488960513        6.0139210728        5.1362848579
  O         9.3983196485        6.1236573787        1.1341708481
  O        -4.7583853381        2.1544847697       11.9330011219
  O         8.6096045152        3.3551851610        1.1595920980
  O        -2.4743886876        3.9382849644       12.0002830254
  O         4.4776585615        6.5743247790        3.0600435474
  O        -0.2108305990       -0.4040747249        9.9924051170
  O         6.9183953176        5.3485523950        0.1096563193
  O         2.3591889009        8.4301883211       -0.0548644961
     124
 i =       29, E =     -1301.9380871959
 Ti        -2.8623634668        2.2026598895       11.2581321580
 Ti         7.9552798211        5.0976530818        1.8877822543
 Ti         1.2420787325       -1.7036137281        9.4168759966
 Ti         2.7441117872        7.4436408236        3.6720913623
 Ti         1.7521264462        9.1125857791        1.7612355057
 Ti         3.1077983519       -1.9725276874       11.3840836897
 Ti        -1.9151848625        0.4892171223        9.3497178100
 Ti         5.9780410375        5.3923569810        3.7410120822
  H         3.7563596817        1.5185086620        8.6203700969
  H        -0.1905990484       -4.2312475664        6.4885369643
  H         4.8009403245       10.8640051427        4.6283142602
  H        -2.3436319394        6.1055481985       11.0312439457
  H         8.8146896264        1.1893304963        2.2039744846
  H        -6.8331919825        1.4813806600       10.8808143248
  H        11.3296205089        7.1213506882        2.0926782210
  H         4.1084451495       -6.0120710986       10.9978099627
  H        -2.3267035678        8.5477920352        2.0857193393
  H         4.7189532330        3.0274609250        6.8548973311
  H         0.0365300644        3.6684930735        8.4323831722
  H        -3.6579259266       -1.6897070443        6.3339053956
  H         2.2313411142        7.4630041552       -0.1119070133
  H         6.0747601283        4.8622092828        0.1893321610
  H         3.6599590579       -2.6099768676        5.8837272242
  H         1.0347086340        9.2892749910        7.2900914691
  H        -6.0144470978        3.8371859318        9.0050905386
  H        10.7806290559        3.0934675667        4.2012961295
  H        -3.6252606040        2.5129829808        5.6818908193
  H        -1.3165867641       10.9929731627        4.1185927160
  H         2.2010639342       12.2164831297        2.6068281370
  H         8.6993644342       -0.8337130852        3.4115579620
  H         4.8360046388        7.1211697350        2.3363645831
  H         0.1662549782        0.1550496031       10.6963295669
  H         7.3403232777       -0.0013297967        9.7791572843
  H         5.8598265543       -0.4785144843       10.5292812941
  H         7.8863063563        4.3310148544        8.6638176624
  H         7.3397125382        4.7101027380        7.0407688840
  H         6.8823484742       -4.9786047989        9.5955760219
  H         5.5965503617       -3.8846374071       10.0525870944
  H         1.4310371267        1.8632865438        9.3910257748
  H         0.9998476734        5.1808916973        6.6650190922
  H         6.0412202113        8.8660957799        3.8513431473
  H        -7.7325847084        8.8789749511        4.6939159197
  C         8.5535828693        4.3630361235        4.7477522962
  C        -3.8149035045        2.4966126894        8.4107216843
  C         3.8277817791       -2.7175101493        8.5144896613
  C         0.8281436316        9.4345078204        4.6264778377
  C         9.4548210112        3.7718311488        5.7448908505
  C        -4.7404225031        3.1292361658        7.4346444341
  C         4.7722547881       -3.3264870312        7.5705604066
  C        -0.0555830130       10.0854372862        5.6275919584
  C         9.1859009347        3.8164628044        7.1500449994
  C        -4.4988375149        3.0451300949        6.0477353525
  C         5.8998755165       -4.0901236038        8.0231459770
  C        -1.1453032016       10.8671154917        5.1839091797
  C         0.1917425343        9.9055460894        6.9837954666
  C         4.5326071167       -3.1844507234        6.1859361616
  C        10.6143303189        3.1101865720        5.2759362634
  C        -5.8634382319        3.7889382893        7.9281663046
  C         2.9155900247        4.1935119622        6.6617954416
  C         1.8443412559        2.5133412329        8.6221122901
  C         6.4773622044        9.5093068426        4.6139895554
  C        -1.8670332546       -2.8757875454        6.5122496357
  C         8.7726865916        1.2630239018        0.0617337319
  C         2.3128775289       13.0586857600        0.0861204343
  C        11.2303028743        7.0494977558       -0.0566184713
  C        -2.1307066555        8.5889340659       -0.0710973440
  C         3.4872914908        5.0877454299        5.6259908028
  C        -1.2605431753       -1.9826065081        7.5286703126
  C         8.6209907837        2.7212091681        0.0392935395
  C         2.2092841222       11.6223360778        0.0495929384
  C         9.9336902625        6.4223792308       -0.0131588549
  C        -0.7209222844        8.9940568357       -0.0442072124
  C         1.5904929790        4.3774867777        7.0999837656
  C         3.1616376408        2.3209264768        8.1867744582
  C         5.7789031353       10.6416504928        5.0522124431
  C        -1.1721124645       -4.0179286606        6.0708113377
  C         8.8273124029        0.5974308535        1.2906027031
  C        -2.3302630713        6.6962221412       11.9438447603
  C        11.8806920576        7.3263960659        1.1783509682
  C        -7.3956731820        1.2992600442       11.7948568750
  C         7.7392691205        9.2048526977        5.1401562243
  C        -3.1377868262       -2.5783636239        5.9831932324
  C         3.6985854860        3.1585895582        7.2087153606
  C         1.0581714598        3.5373258106        8.0790915265
  C         7.2880947809        0.2563402204       11.8065743111
  C        -2.8289783858        8.3625601184        1.1402565951
  C         4.1547254586       -6.5407641009       11.9458272083
  C         2.3395944336       13.8076328021        1.3149991414
  N         2.4137472545       13.2087511215        2.5502561805
  N         6.7095419185        0.0791263642       10.5683563488
  N         8.0820787228        4.4275879939        7.6757232680
  N         6.2254479119       -4.2516161324        9.3415535048
  O         7.3725746054        4.7611085741        5.1134283393
  O        -3.0331455152        1.5574396929        8.0030307482
  O         4.1973290242       -2.6042178603        9.7407493801
  O         0.7562145036        9.8542887394        3.4232783871
  O         1.6013230788        8.4778034879        5.0148800180
  O         2.6621002482       -2.3388383495        8.1005064714
  O         8.9604755044        4.4434359442        3.5339842795
  O        -3.8720393786        2.9093739476        9.6180363134
  O         6.2808798994        4.1787682181        2.5405249478
  O        -1.3628144014        2.0422314923       10.1225632337
  O         7.2189392334        6.4659145214        2.9868028162
  O        -3.1160570561        0.3119533514       10.5847619749
  O         1.4819913677       -2.8777207449       10.6802716817
  O         3.2678167282        8.9981419928        2.9107036207
  O         2.4528089750       -0.6206009661       10.2342166761
  O         1.5532511399        7.2436403294        2.4184371075
  O         4.7055739677        4.9001866605        5.2655630402
  O        -1.9281220415       -0.9568132608        7.9157615053
  O         3.8514674908       -3.7583861815       11.9934030669
  O         2.1255830215       10.9283777052        1.1471996131
  O         4.6667561372       -0.9541831571       11.9885728788
  O        -0.1356164187        9.0878218216        1.0997495295
  O        -0.0934856721       -2.2663962673        7.9797787393
  O         2.7490900591        6.0137641863        5.1366609144
  O         9.3979850307        6.1233259347        1.1341780723
  O        -4.7585902678        2.1545238618       11.9337361509
  O         8.6094949068        3.3548120978        1.1599448574
  O        -2.4743908374        3.9379678198       12.0002117127
  O         4.4780640049        6.5747101603        3.0603128287
  O        -0.2114944827       -0.4050936575        9.9936827789
  O         6.9180787852        5.3479041802        0.1100426552
  O         2.3588480962        8.4293432160       -0.0546971932
     124
 i =       30, E =     -1301.9380893991
 Ti        -2.8625907214        2.2021606790       11.2583927573
 Ti         7.9551607977        5.0972858789        1.8881420237
 Ti         1.2418019659       -1.7034112438        9.4169480167
 Ti         2.7443836127        7.4432864700        3.6727263494
 Ti         1.7518539493        9.1121365777        1.7616995414
 Ti         3.1075562035       -1.9730415483       11.3839624920
 Ti        -1.9151821147        0.4887720082        9.3499004041
 Ti         5.9778460041        5.3925130580        3.7415016201
  H         3.7557124303        1.5176979234        8.6207574699
  H        -0.1904171124       -4.2314670506        6.4888266669
  H         4.8015818154       10.8644942730        4.6276148242
  H        -2.3451287755        6.1052674661       11.0315807021
  H         8.8168902295        1.1886451442        2.2042269818
  H        -6.8333011617        1.4812125244       10.8813730631
  H        11.3294582457        7.1207918499        2.0929570648
  H         4.1065393912       -6.0125485918       10.9979086839
  H        -2.3266164878        8.5467778974        2.0862841289
  H         4.7186878496        3.0265369753        6.8554562150
  H         0.0364698511        3.6688169394        8.4333828993
  H        -3.6572738434       -1.6891491205        6.3329858971
  H         2.2303321222        7.4619867349       -0.1116380770
  H         6.0747294050        4.8606369691        0.1903014173
  H         3.6600819005       -2.6092878169        5.8834460912
  H         1.0342736151        9.2889694297        7.2896611705
  H        -6.0160092198        3.8345068752        9.0054015789
  H        10.7815205736        3.0953300606        4.2018085593
  H        -3.6241429491        2.5145903260        5.6824893621
  H        -1.3168476174       10.9929631237        4.1185092954
  H         2.2020930506       12.2153222004        2.6065321668
  H         8.7014142335       -0.8352307176        3.4119928380
  H         4.8363403479        7.1211190467        2.3363815174
  H         0.1644508389        0.1527277040       10.6992004526
  H         7.3398310026       -0.0015881138        9.7793431247
  H         5.8588671838       -0.4775792498       10.5296396120
  H         7.8838900554        4.3271480864        8.6636614027
  H         7.3383894131        4.7076970517        7.0405724186
  H         6.8827870580       -4.9783994005        9.5948532772
  H         5.5961026359       -3.8856819133       10.0527489621
  H         1.4307072448        1.8632346299        9.3918837698
  H         0.9999463788        5.1810576970        6.6661046504
  H         6.0415511453        8.8660792636        3.8513446438
  H        -7.7322288494        8.8790373245        4.6940399448
  C         8.5537934334        4.3636490257        4.7482130063
  C        -3.8146914352        2.4965596819        8.4110479857
  C         3.8275547544       -2.7172063160        8.5144392173
  C         0.8276050105        9.4338020002        4.6266495079
  C         9.4543233065        3.7708964061        5.7452370016
  C        -4.7409567465        3.1284769561        7.4349623374
  C         4.7720124675       -3.3263678152        7.5704421201
  C        -0.0559706066       10.0854584458        5.6275607557
  C         9.1848111853        3.8144541365        7.1502974588
  C        -4.4983404897        3.0457875958        6.0481451309
  C         5.8995251200       -4.0900732013        8.0230411217
  C        -1.1455111598       10.8672558967        5.1837710352
  C         0.1913536188        9.9055528698        6.9836419004
  C         4.5326167920       -3.1839285940        6.1857770135
  C        10.6147334111        3.1107652037        5.2763456228
  C        -5.8645072383        3.7871039233        7.9285024373
  C         2.9155960907        4.1931771901        6.6623203215
  C         1.8440957174        2.5132320366        8.6229210967
  C         6.4777067558        9.5094646152        4.6138607858
  C        -1.8666455163       -2.8755720931        6.5121829283
  C         8.7728052433        1.2627894958        0.0619338893
  C         2.3129292521       13.0581808443        0.0862517793
  C        11.2299695587        7.0494665340       -0.0563282789
  C        -2.1307883049        8.5883523118       -0.0705221229
  C         3.4875551338        5.0878894296        5.6271585931
  C        -1.2603459678       -1.9825908633        7.5286360375
  C         8.6211039058        2.7209592848        0.0397256718
  C         2.2089480995       11.6217926712        0.0494542722
  C         9.9332966279        6.4222414358       -0.0130116971
  C        -0.7211308443        8.9935047875       -0.0435392656
  C         1.5906136535        4.3775958072        7.1009786877
  C         3.1612646999        2.3204050133        8.1873164966
  C         5.7794496433       10.6420533087        5.0517285768
  C        -1.1719253544       -4.0179919027        6.0709977815
  C         8.8283202069        0.5969593864        1.2908685032
  C        -2.3310866955        6.6958608027       11.9442187603
  C        11.8805349655        7.3257631343        1.1786372162
  C        -7.3957811683        1.2992040945       11.7952842758
  C         7.7396059347        9.2049535719        5.1401353325
  C        -3.1373157463       -2.5780495141        5.9827938677
  C         3.6984317215        3.1581268581        7.2094191462
  C         1.0580940994        3.5374198581        8.0799659972
  C         7.2879748748        0.2560302911       11.8069344227
  C        -2.8291371759        8.3620663004        1.1407479768
  C         4.1538152168       -6.5410522762       11.9460688982
  C         2.3404509732       13.8070133699        1.3151224288
  N         2.4145893545       13.2076586332        2.5500999334
  N         6.7094516237        0.0787725215       10.5688740209
  N         8.0801612836        4.4242280056        7.6757461644
  N         6.2247512595       -4.2523882370        9.3414142303
  O         7.3722608511        4.7606989491        5.1135273504
  O        -3.0324869488        1.5578805102        8.0029677992
  O         4.1969040026       -2.6043206956        9.7408305814
  O         0.7561443074        9.8534524671        3.4233755432
  O         1.6008470195        8.4773494190        5.0155147585
  O         2.6619850996       -2.3383589263        8.1003077087
  O         8.9603274200        4.4436168325        3.5342415413
  O        -3.8719667048        2.9091714864        9.6184385280
  O         6.2805229102        4.1787447012        2.5409080009
  O        -1.3624688531        2.0414001989       10.1232994226
  O         7.2190999117        6.4657860311        2.9875976345
  O        -3.1167747155        0.3114503465       10.5841918291
  O         1.4818095576       -2.8781877429       10.6795816941
  O         3.2675160692        8.9980708275        2.9116863305
  O         2.4525075447       -0.6206025762       10.2342572240
  O         1.5536063200        7.2426907552        2.4193501827
  O         4.7058697727        4.9004051647        5.2664712717
  O        -1.9278132571       -0.9566194739        7.9156579724
  O         3.8517092503       -3.7582710569       11.9939683758
  O         2.1249344608       10.9276469835        1.1469781069
  O         4.6664137392       -0.9538954550       11.9885959304
  O        -0.1359363816        9.0865089641        1.1005098967
  O        -0.0932164474       -2.2663218340        7.9795736883
  O         2.7490788570        6.0132555732        5.1370956350
  O         9.3977728691        6.1227396616        1.1341059890
  O        -4.7586987251        2.1541226101       11.9345622671
  O         8.6092965886        3.3543402007        1.1604575967
  O        -2.4746360303        3.9376375498       12.0001488997
  O         4.4784436329        6.5750422025        3.0607009865
  O        -0.2125604986       -0.4065676043        9.9954341425
  O         6.9176954450        5.3469956873        0.1103583400
  O         2.3584820878        8.4282974596       -0.0544919814
     124
 i =       31, E =     -1301.9380911550
 Ti        -2.8626723417        2.2018969849       11.2585165439
 Ti         7.9551515889        5.0971190172        1.8883421898
 Ti         1.2414980655       -1.7035721223        9.4169629924
 Ti         2.7444434725        7.4430725708        3.6732207215
 Ti         1.7517829158        9.1118395761        1.7620471142
 Ti         3.1074665449       -1.9732636801       11.3838663999
 Ti        -1.9152314919        0.4884266485        9.3501247334
 Ti         5.9777460046        5.3924422804        3.7417660131
  H         3.7553034318        1.5173368742        8.6208975224
  H        -0.1902961712       -4.2315394463        6.4890486694
  H         4.8020650553       10.8648103387        4.6272847160
  H        -2.3462065488        6.1052657696       11.0317423647
  H         8.8180376800        1.1881979554        2.2045596429
  H        -6.8332214221        1.4809403551       10.8816119551
  H        11.3296062810        7.1202110627        2.0931080530
  H         4.1051697837       -6.0129543139       10.9980339623
  H        -2.3267328155        8.5461342918        2.0866098742
  H         4.7185543574        3.0261826230        6.8557996786
  H         0.0365556966        3.6691529024        8.4339745993
  H        -3.6567825142       -1.6887040231        6.3324868957
  H         2.2295659165        7.4615521456       -0.1115361218
  H         6.0747734286        4.8598179132        0.1907726941
  H         3.6601623332       -2.6087486720        5.8833656125
  H         1.0338339786        9.2888184160        7.2895284562
  H        -6.0170768421        3.8328724141        9.0055554452
  H        10.7819139640        3.0963152875        4.2020564673
  H        -3.6234975611        2.5155658317        5.6828595486
  H        -1.3171596894       10.9927170930        4.1184016232
  H         2.2028943415       12.2146251113        2.6062055862
  H         8.7025642072       -0.8361109119        3.4123327273
  H         4.8366886647        7.1209428699        2.3365699624
  H         0.1631525258        0.1511258823       10.7009501455
  H         7.3396088852       -0.0017155295        9.7794415018
  H         5.8584539192       -0.4770977470       10.5299404275
  H         7.8824728716        4.3246493917        8.6636854335
  H         7.3372857131        4.7059494212        7.0406284400
  H         6.8829428258       -4.9782608913        9.5945399259
  H         5.5956483866       -3.8863945366       10.0528083636
  H         1.4304222995        1.8631450492        9.3923064512
  H         1.0001678937        5.1813896871        6.6668053969
  H         6.0417012542        8.8660739969        3.8513650875
  H        -7.7320743868        8.8791017185        4.6940627105
  C         8.5533671027        4.3629334535        4.7482098482
  C        -3.8145070857        2.4964958880        8.4111946850
  C         3.8272774776       -2.7171968822        8.5144012275
  C         0.8275906139        9.4336406719        4.6267366367
  C         9.4541940168        3.7707401172        5.7453894788
  C        -4.7411973184        3.1281740726        7.4352036410
  C         4.7718978733       -3.3262397279        7.5703378599
  C        -0.0563935737       10.0851881865        5.6274492501
  C         9.1841016181        3.8133208206        7.1503544759
  C        -4.4981684332        3.0460439797        6.0484064402
  C         5.8991764820       -4.0901838412        8.0229512518
  C        -1.1456425499       10.8673169939        5.1836355328
  C         0.1911117381        9.9056833119        6.9834799587
  C         4.5325577758       -3.1836615156        6.1856745025
  C        10.6149372080        3.1111221056        5.2765812256
  C        -5.8653202720        3.7858880657        7.9286809171
  C         2.9158307623        4.1934113949        6.6631037171
  C         1.8438391548        2.5131037973        8.6233221106
  C         6.4779776997        9.5095811271        4.6136856885
  C        -1.8664859547       -2.8755521512        6.5122979816
  C         8.7729232996        1.2626503435        0.0622100606
  C         2.3127971484       13.0578450142        0.0862901209
  C        11.2298687345        7.0492719615       -0.0561247865
  C        -2.1308498863        8.5882011614       -0.0702795429
  C         3.4874783769        5.0874558730        5.6273101573
  C        -1.2600819289       -1.9823735423        7.5282936533
  C         8.6212536103        2.7208490039        0.0400760454
  C         2.2088166646       11.6215145825        0.0493862082
  C         9.9330891877        6.4222989596       -0.0129694019
  C        -0.7210917639        8.9929129001       -0.0433078014
  C         1.5906728653        4.3776248158        7.1013694543
  C         3.1610141157        2.3202634699        8.1876597056
  C         5.7798099708       10.6421946384        5.0516064732
  C        -1.1716817539       -4.0178701413        6.0709727403
  C         8.8290032052        0.5966612480        1.2911538826
  C        -2.3316804140        6.6957166044       11.9444408167
  C        11.8804879142        7.3255342327        1.1787766686
  C        -7.3957649787        1.2989478547       11.7954538903
  C         7.7397560558        9.2049722302        5.1402872599
  C        -3.1368970336       -2.5776988676        5.9824092889
  C         3.6982581337        3.1577633405        7.2096447705
  C         1.0581659179        3.5376609721        8.0805237206
  C         7.2879027650        0.2559384290       11.8071624143
  C        -2.8290692028        8.3614865471        1.1409315487
  C         4.1530954390       -6.5411964738       11.9463617343
  C         2.3407257461       13.8066470029        1.3152165293
  N         2.4151120988       13.2070696634        2.5500470842
  N         6.7094400078        0.0786599325       10.5691459637
  N         8.0789050375        4.4220872253        7.6758429023
  N         6.2242784772       -4.2527572121        9.3413041643
  O         7.3721219114        4.7608633530        5.1137857029
  O        -3.0320780911        1.5579833782        8.0029322254
  O         4.1965613867       -2.6044331920        9.7407921891
  O         0.7558492178        9.8528647782        3.4233823272
  O         1.6005630086        8.4769996423        5.0159847496
  O         2.6617298523       -2.3380855926        8.1000706483
  O         8.9603140639        4.4438827721        3.5344693582
  O        -3.8720319560        2.9088644222        9.6186515529
  O         6.2803096116        4.1787175474        2.5409650311
  O        -1.3623174342        2.0409625486       10.1236813939
  O         7.2191630290        6.4656490108        2.9879147086
  O        -3.1171864699        0.3112063249       10.5840425368
  O         1.4818137218       -2.8786110589       10.6791867006
  O         3.2671672998        8.9980959995        2.9124523365
  O         2.4522467017       -0.6208371125       10.2342350688
  O         1.5539381740        7.2421764273        2.4197680185
  O         4.7061369518        4.9006688784        5.2673136825
  O        -1.9277678101       -0.9566218158        7.9155908093
  O         3.8519957310       -3.7581074996       11.9944060164
  O         2.1246691857       10.9272213952        1.1468099750
  O         4.6662638811       -0.9536770511       11.9886158703
  O        -0.1358420033        9.0859484716        1.1006889399
  O        -0.0929743067       -2.2662506267        7.9792191050
  O         2.7490878764        6.0130927292        5.1376164345
  O         9.3978003768        6.1223168244        1.1340336793
  O        -4.7586639035        2.1537493163       11.9348746603
  O         8.6092166878        3.3540564779        1.1608891831
  O        -2.4749989354        3.9375417605       12.0001079345
  O         4.4785664534        6.5750730974        3.0609498763
  O        -0.2134685166       -0.4077423942        9.9966140632
  O         6.9175633451        5.3464339858        0.1104567066
  O         2.3583478029        8.4278069515       -0.0543582423
     124
 i =       32, E =     -1301.9380930014
 Ti        -2.8626838719        2.2018096133       11.2585687264
 Ti         7.9551671618        5.0971135551        1.8884402813
 Ti         1.2412877928       -1.7039037803        9.4170959277
 Ti         2.7443908114        7.4430277618        3.6734247313
 Ti         1.7518872236        9.1116645084        1.7622061181
 Ti         3.1075319316       -1.9732917896       11.3838698579
 Ti        -1.9152976099        0.4882133296        9.3503730425
 Ti         5.9778363277        5.3923181405        3.7418173231
  H         3.7551028479        1.5171635857        8.6209302624
  H        -0.1902478619       -4.2314822346        6.4891092695
  H         4.8022466808       10.8649829932        4.6271842282
  H        -2.3469443793        6.1054138198       11.0317118106
  H         8.8184265376        1.1879603950        2.2048776247
  H        -6.8330253133        1.4805838511       10.8816602160
  H        11.3298965533        7.1197136118        2.0931941084
  H         4.1041796338       -6.0130870264       10.9983257377
  H        -2.3268055295        8.5457097390        2.0866257575
  H         4.7184559980        3.0261309874        6.8559963510
  H         0.0366024444        3.6695200051        8.4342681417
  H        -3.6564393964       -1.6883759663        6.3322288431
  H         2.2290008567        7.4616167689       -0.1115219533
  H         6.0749679861        4.8595525990        0.1908359586
  H         3.6602333890       -2.6084049597        5.8833443466
  H         1.0335641973        9.2888165321        7.2896398390
  H        -6.0177725302        3.8320140312        9.0055231046
  H        10.7820135057        3.0965540120        4.2021070728
  H        -3.6233330484        2.5159813553        5.6830033791
  H        -1.3174874900       10.9923767546        4.1181875707
  H         2.2034672625       12.2142727099        2.6059068977
  H         8.7029612878       -0.8365253468        3.4125332545
  H         4.8369272095        7.1207697150        2.3368474866
  H         0.1622018287        0.1499862858       10.7018701332
  H         7.3396545670       -0.0017668034        9.7794916820
  H         5.8584092541       -0.4769348422       10.5301553390
  H         7.8818328041        4.3231828084        8.6638129516
  H         7.3364122171        4.7047986493        7.0407898572
  H         6.8829238500       -4.9782096336        9.5945152422
  H         5.5952123227       -3.8868836997       10.0527560468
  H         1.4301707806        1.8631214323        9.3923225695
  H         1.0004713783        5.1817362611        6.6671959762
  H         6.0417806970        8.8661288457        3.8514689819
  H        -7.7319969415        8.8790535567        4.6940302346
  C         8.5532877525        4.3628704257        4.7482926844
  C        -3.8145502668        2.4962846168        8.4112337197
  C         3.8270812521       -2.7171475977        8.5142474854
  C         0.8273661239        9.4335120996        4.6267793047
  C         9.4539133320        3.7705328100        5.7454918979
  C        -4.7412053681        3.1280510842        7.4352816958
  C         4.7717294654       -3.3261848602        7.5701913409
  C        -0.0565663822       10.0851702560        5.6274440714
  C         9.1835929294        3.8127061561        7.1504167133
  C        -4.4981922003        3.0462208625        6.0484459306
  C         5.8988912803       -4.0902199092        8.0228602961
  C        -1.1458432166       10.8671483919        5.1834458408
  C         0.1908497527        9.9055706502        6.9834889418
  C         4.5324334926       -3.1836723076        6.1855298836
  C        10.6148495810        3.1112679026        5.2766425977
  C        -5.8656655184        3.7853218757        7.9286834381
  C         2.9158494541        4.1934455830        6.6633772128
  C         1.8437222261        2.5131321771        8.6234672363
  C         6.4780932074        9.5095885894        4.6137685863
  C        -1.8663806070       -2.8755216893        6.5120974063
  C         8.7728485028        1.2625961465        0.0624547167
  C         2.3124702306       13.0577346540        0.0863562864
  C        11.2299541981        7.0491242003       -0.0561140931
  C        -2.1306656861        8.5878857783       -0.0702249687
  C         3.4875437489        5.0874522176        5.6276097764
  C        -1.2599755821       -1.9822664202        7.5279492605
  C         8.6213609816        2.7208695437        0.0403920751
  C         2.2087314680       11.6214565862        0.0493966442
  C         9.9332064687        6.4221663701       -0.0130095978
  C        -0.7208881197        8.9927059649       -0.0433724297
  C         1.5907915676        4.3778398393        7.1017629176
  C         3.1608709305        2.3201545047        8.1877459277
  C         5.7799664730       10.6423089036        5.0514815074
  C        -1.1715543826       -4.0178515087        6.0709101814
  C         8.8292941354        0.5965369200        1.2913233484
  C        -2.3322074092        6.6956649770       11.9445139008
  C        11.8805748362        7.3252664812        1.1787994266
  C        -7.3956348732        1.2986327092       11.7955492006
  C         7.7398943198        9.2049542846        5.1402775683
  C        -3.1367072574       -2.5775264454        5.9821839505
  C         3.6981826382        3.1577778085        7.2098981709
  C         1.0581441833        3.5378253863        8.0807750466
  C         7.2879432411        0.2560102527       11.8071718387
  C        -2.8290133048        8.3611978526        1.1408983172
  C         4.1526739516       -6.5412819619       11.9466357947
  C         2.3407351569       13.8065531342        1.3153532888
  N         2.4154146012       13.2068070628        2.5500825309
  N         6.7094542970        0.0787198756       10.5691537927
  N         8.0781196545        4.4209244493        7.6759598040
  N         6.2239582389       -4.2529220992        9.3411812421
  O         7.3720020462        4.7606910509        5.1139478342
  O        -3.0319016918        1.5579030037        8.0030156555
  O         4.1962985768       -2.6046474737        9.7406528911
  O         0.7555752632        9.8525478493        3.4233993399
  O         1.6004574369        8.4768958120        5.0160742872
  O         2.6614287832       -2.3380217524        8.0999547325
  O         8.9602500878        4.4435832858        3.5345875456
  O        -3.8721006892        2.9086261158        9.6186788177
  O         6.2802698275        4.1786871658        2.5408904581
  O        -1.3623562650        2.0408044195       10.1238764352
  O         7.2191219269        6.4656321906        2.9877677277
  O        -3.1173542209        0.3112037760       10.5841783626
  O         1.4820630610       -2.8789821404       10.6791312495
  O         3.2669037201        8.9982355260        2.9128801029
  O         2.4520701101       -0.6211016577       10.2343406569
  O         1.5541503382        7.2420474599        2.4197490876
  O         4.7062461000        4.9008133577        5.2677306146
  O        -1.9277186703       -0.9566842915        7.9155222490
  O         3.8523012354       -3.7580227813       11.9946980935
  O         2.1246944766       10.9270392265        1.1467400030
  O         4.6662628384       -0.9534990667       11.9886006108
  O        -0.1355218685        9.0858038394        1.1005624735
  O        -0.0928610823       -2.2660092687        7.9789736541
  O         2.7491101961        6.0130230169        5.1378000908
  O         9.3978467515        6.1222201439        1.1339991812
  O        -4.7586203533        2.1534988412       11.9347036158
  O         8.6092467159        3.3539244412        1.1613117017
  O        -2.4752151101        3.9375805585       12.0000639903
  O         4.4785616840        6.5749267416        3.0611049544
  O        -0.2142150912       -0.4086652213        9.9972538944
  O         6.9176371454        5.3462706421        0.1104290050
  O         2.3583978509        8.4277774287       -0.0543117595
     124
 i =       33, E =     -1301.9380957943
 Ti        -2.8628873276        2.2014189017       11.2587941910
 Ti         7.9550180928        5.0969475379        1.8885313038
 Ti         1.2407987667       -1.7048706185        9.4174473734
 Ti         2.7442445994        7.4428122223        3.6741732635
 Ti         1.7520960815        9.1111560598        1.7625655941
 Ti         3.1075432532       -1.9735405938       11.3839428066
 Ti        -1.9156460934        0.4875863832        9.3508633079
 Ti         5.9777434558        5.3919170230        3.7420065583
  H         3.7544507726        1.5164946861        8.6211755545
  H        -0.1901709568       -4.2313795112        6.4892075230
  H         4.8028321814       10.8654017904        4.6264520652
  H        -2.3490438950        6.1056029702       11.0317812171
  H         8.8198694549        1.1872675135        2.2058251532
  H        -6.8324952938        1.4795779109       10.8817949002
  H        11.3303902516        7.1183721018        2.0934439530
  H         4.1014306458       -6.0132906345       10.9992118578
  H        -2.3269188791        8.5446137092        2.0869289634
  H         4.7181320386        3.0257198860        6.8566661477
  H         0.0367518239        3.6703536130        8.4354069106
  H        -3.6554187741       -1.6874868146        6.3310985135
  H         2.2272840436        7.4616087709       -0.1113184257
  H         6.0754048368        4.8587719604        0.1910006615
  H         3.6605456384       -2.6074133071        5.8831202776
  H         1.0328231831        9.2888822474        7.2901128202
  H        -6.0199563953        3.8291372141        9.0056879347
  H        10.7826257795        3.0979130496        4.2024754924
  H        -3.6223901371        2.5178400350        5.6832042283
  H        -1.3179799902       10.9916228343        4.1178772422
  H         2.2056363938       12.2131522318        2.6052486128
  H         8.7046578912       -0.8380175289        3.4130931403
  H         4.8374113050        7.1202818375        2.3377938009
  H         0.1595400006        0.1467711760       10.7043858075
  H         7.3395442527       -0.0017556501        9.7797520846
  H         5.8581917378       -0.4762730293       10.5306771652
  H         7.8793973004        4.3182277150        8.6641296823
  H         7.3337310436        4.7008851412        7.0412961538
  H         6.8828312619       -4.9780862310        9.5944532717
  H         5.5938428603       -3.8882525060       10.0528249846
  H         1.4294891005        1.8629305058        9.3926701145
  H         1.0011649955        5.1825526083        6.6686023332
  H         6.0420192256        8.8660430948        3.8515893157
  H        -7.7318141927        8.8788191578        4.6940027203
  C         8.5529997685        4.3623454150        4.7486474004
  C        -3.8148120395        2.4957989961        8.4113749882
  C         3.8265807607       -2.7172340195        8.5139188493
  C         0.8267809009        9.4330470725        4.6269588335
  C         9.4532818953        3.7698490498        5.7457987819
  C        -4.7413552752        3.1277900631        7.4355499008
  C         4.7713006394       -3.3260925232        7.5699014653
  C        -0.0569795610       10.0849351691        5.6274615320
  C         9.1822354397        3.8107747948        7.1506186102
  C        -4.4978016396        3.0471013550        6.0487110547
  C         5.8981796034       -4.0903701306        8.0228487332
  C        -1.1462227370       10.8668609087        5.1832428047
  C         0.1902553026        9.9055075457        6.9836104792
  C         4.5322561724       -3.1833945936        6.1852445025
  C        10.6150453358        3.1119623204        5.2770157803
  C        -5.8668804749        3.7834375408        7.9289356488
  C         2.9158776518        4.1933937211        6.6643295358
  C         1.8432935930        2.5130226643        8.6240358170
  C         6.4784750589        9.5097106285        4.6135804585
  C        -1.8658815952       -2.8752218735        6.5113983217
  C         8.7727561122        1.2621386404        0.0632575046
  C         2.3118059729       13.0573188449        0.0865830243
  C        11.2300433951        7.0487254582       -0.0559949923
  C        -2.1304526637        8.5869255671       -0.0699796180
  C         3.4877578202        5.0875235105        5.6287120244
  C        -1.2598233839       -1.9820465020        7.5274937212
  C         8.6215815484        2.7205853654        0.0412916369
  C         2.2082163195       11.6211372320        0.0495065212
  C         9.9332081789        6.4220438150       -0.0130841305
  C        -0.7206056201        8.9919299441       -0.0433474780
  C         1.5910483155        4.3782596548        7.1029604984
  C         3.1604100721        2.3197936989        8.1883158059
  C         5.7803775005       10.6425759919        5.0510153684
  C        -1.1712413149       -4.0177742050        6.0706086444
  C         8.8297648383        0.5960238201        1.2919665670
  C        -2.3336420184        6.6954637360       11.9447863230
  C        11.8807982112        7.3243591482        1.1789697012
  C        -7.3953715436        1.2979468643       11.7957739067
  C         7.7401073599        9.2047703617        5.1402717693
  C        -3.1359736919       -2.5770042027        5.9812821871
  C         3.6979040717        3.1575098956        7.2106582350
  C         1.0581381246        3.5382760313        8.0818268728
  C         7.2881358020        0.2558435192       11.8073434174
  C        -2.8288807290        8.3603805530        1.1411263689
  C         4.1512426574       -6.5415571421       11.9473228517
  C         2.3414393932       13.8061285540        1.3157091084
  N         2.4168385553       13.2058828111        2.5501313403
  N         6.7092962636        0.0792802730       10.5693135756
  N         8.0756177537        4.4168497325        7.6763068927
  N         6.2229670259       -4.2534300578        9.3411335547
  O         7.3716160680        4.7601097604        5.1140297283
  O        -3.0316383408        1.5578629125        8.0031814482
  O         4.1956045718       -2.6052581479        9.7403888368
  O         0.7549163803        9.8517139419        3.4234916774
  O         1.6001433092        8.4765864306        5.0163268492
  O         2.6609091675       -2.3377999794        8.0996955731
  O         8.9598359284        4.4429971382        3.5349794424
  O        -3.8724570711        2.9079846657        9.6188323351
  O         6.2801645060        4.1785234074        2.5409291331
  O        -1.3625648423        2.0400506449       10.1246091715
  O         7.2189267305        6.4652520271        2.9875445969
  O        -3.1178372215        0.3110377165       10.5844957648
  O         1.4825904016       -2.8801023192       10.6790383016
  O         3.2663209462        8.9983258377        2.9138591259
  O         2.4514176629       -0.6217511403       10.2348068419
  O         1.5547062155        7.2417415633        2.4198425288
  O         4.7063538149        4.9007333390        5.2687288366
  O        -1.9278475569       -0.9567664833        7.9151400030
  O         3.8529152276       -3.7580651132       11.9956026923
  O         2.1248864281       10.9264836491        1.1467571835
  O         4.6662422094       -0.9534768352       11.9885387653
  O        -0.1349869873        9.0852435645        1.1004543417
  O        -0.0925419631       -2.2655006890        7.9783322896
  O         2.7490718516        6.0126754510        5.1383589658
  O         9.3978623520        6.1217735370        1.1339884771
  O        -4.7587063757        2.1529139671       11.9345189645
  O         8.6092187113        3.3533540712        1.1624193511
  O        -2.4755308779        3.9373990259       12.0000147763
  O         4.4784215057        6.5745804245        3.0617849768
  O        -0.2162002223       -0.4111373913        9.9988218758
  O         6.9177391891        5.3458259658        0.1103407248
  O         2.3583656041        8.4275080043       -0.0541491784
     124
 i =       34, E =     -1301.9380971369
 Ti        -2.8629720956        2.2011156211       11.2589053362
 Ti         7.9548929432        5.0968392676        1.8886597558
 Ti         1.2405001819       -1.7054162648        9.4176986347
 Ti         2.7441053097        7.4426568211        3.6746392057
 Ti         1.7522732559        9.1108189967        1.7627635392
 Ti         3.1075285284       -1.9737976689       11.3840465679
 Ti        -1.9159623890        0.4871736628        9.3511038551
 Ti         5.9777041060        5.3915908662        3.7422548769
  H         3.7538908136        1.5159480955        8.6214360241
  H        -0.1900237792       -4.2313981852        6.4891482520
  H         4.8032863289       10.8656131742        4.6258729446
  H        -2.3507168755        6.1055747024       11.0319096217
  H         8.8209325333        1.1867704898        2.2063879513
  H        -6.8321842540        1.4788824879       10.8819886564
  H        11.3305665728        7.1174447108        2.0935908525
  H         4.0995642928       -6.0132001453       10.9998509982
  H        -2.3267769458        8.5438802601        2.0871327596
  H         4.7179344121        3.0252770738        6.8571984637
  H         0.0368285131        3.6709182596        8.4363646070
  H        -3.6547260142       -1.6868721913        6.3301314908
  H         2.2261069580        7.4614123952       -0.1111362837
  H         6.0755856657        4.8582048052        0.1910537240
  H         3.6607109985       -2.6069228620        5.8828224635
  H         1.0324121643        9.2888509406        7.2903903663
  H        -6.0214233693        3.8268421604        9.0058135124
  H        10.7831164073        3.0990380752        4.2028837950
  H        -3.6216369238        2.5193310370        5.6833451220
  H        -1.3181924065       10.9912307309        4.1177717969
  H         2.2072777058       12.2123560921        2.6049778877
  H         8.7060158644       -0.8391861932        3.4134462667
  H         4.8374983527        7.1200243847        2.3384499194
  H         0.1575973569        0.1443246175       10.7062626286
  H         7.3393766930       -0.0017373166        9.7798830658
  H         5.8580626729       -0.4757772161       10.5308646096
  H         7.8774202378        4.3144083808        8.6642439413
  H         7.3319170288        4.6978463172        7.0416078839
  H         6.8826273669       -4.9780271723        9.5943125841
  H         5.5928564501       -3.8891511153       10.0529306606
  H         1.4289414424        1.8626855270        9.3930193721
  H         1.0015167524        5.1831565852        6.6697213371
  H         6.0421247390        8.8658711644        3.8515003789
  H        -7.7318408294        8.8786483098        4.6941231296
  C         8.5527210848        4.3619549112        4.7488081692
  C        -3.8149126124        2.4956063673        8.4115310359
  C         3.8262517044       -2.7172117002        8.5138124676
  C         0.8262534121        9.4325892786        4.6270128361
  C         9.4528045603        3.7693415686        5.7459726297
  C        -4.7416185687        3.1274312635        7.4357908891
  C         4.7708501319       -3.3261626782        7.5698277277
  C        -0.0572515061       10.0847545361        5.6274825841
  C         9.1811727325        3.8090658821        7.1507339546
  C        -4.4974943293        3.0477756771        6.0489936114
  C         5.8977430202       -4.0904511689        8.0228430602
  C        -1.1465049303       10.8666772267        5.1831997144
  C         0.1898698350        9.9053962307        6.9836946910
  C         4.5321772583       -3.1831796196        6.1851239085
  C        10.6152637551        3.1125333890        5.2773770092
  C        -5.8677523377        3.7820840462        7.9291053428
  C         2.9159175898        4.1933930254        6.6650396432
  C         1.8430278154        2.5130384544        8.6247256515
  C         6.4785655975        9.5095118733        4.6135138819
  C        -1.8655667588       -2.8749595664        6.5108424747
  C         8.7723356957        1.2618181748        0.0638720926
  C         2.3116516307       13.0570868468        0.0867237465
  C        11.2301047759        7.0484480071       -0.0558632439
  C        -2.1303190260        8.5863102381       -0.0698301346
  C         3.4878156876        5.0873939971        5.6291909533
  C        -1.2596167158       -1.9817237438        7.5270131030
  C         8.6216584202        2.7203437044        0.0419199358
  C         2.2082908929       11.6208980977        0.0496173035
  C         9.9333050086        6.4216770653       -0.0131071440
  C        -0.7205611687        8.9915836149       -0.0432160114
  C         1.5912704268        4.3787265268        7.1040107772
  C         3.1599530146        2.3193558690        8.1886004367
  C         5.7808983788       10.6428960775        5.0503109690
  C        -1.1710680013       -4.0177732420        6.0705184492
  C         8.8303673032        0.5955831585        1.2924549511
  C        -2.3348270510        6.6953584149       11.9449723387
  C        11.8809518707        7.3236977453        1.1791582622
  C        -7.3951525581        1.2972510514       11.7959236286
  C         7.7403320415        9.2049025988        5.1400201766
  C        -3.1355873997       -2.5766999042        5.9806716604
  C         3.6978037358        3.1573963773        7.2113727722
  C         1.0580729706        3.5384324005        8.0824837952
  C         7.2881838176        0.2557400110       11.8074968367
  C        -2.8286543189        8.3595463627        1.1413160152
  C         4.1501749943       -6.5416605059       11.9477804846
  C         2.3415297281       13.8056796800        1.3159856210
  N         2.4181893729       13.2051588502        2.5501849552
  N         6.7091737864        0.0797701733       10.5694256424
  N         8.0738011568        4.4136508391        7.6765141464
  N         6.2221564006       -4.2538732804        9.3411639942
  O         7.3713565386        4.7597138608        5.1141800818
  O        -3.0316732266        1.5578013711        8.0032670240
  O         4.1952231829       -2.6056572606        9.7403397878
  O         0.7546019891        9.8513398868        3.4235591672
  O         1.5999042753        8.4764332699        5.0165391064
  O         2.6606675388       -2.3375909889        8.0996276022
  O         8.9597122681        4.4427284314        3.5352159369
  O        -3.8727491665        2.9076867239        9.6190065982
  O         6.2800060972        4.1783681798        2.5410460297
  O        -1.3625585123        2.0393931513       10.1250723128
  O         7.2187646002        6.4650131758        2.9876137164
  O        -3.1182841339        0.3107708469       10.5845808132
  O         1.4828092794       -2.8808686735       10.6789839277
  O         3.2662438132        8.9982148293        2.9143352539
  O         2.4508646412       -0.6220651760       10.2352246332
  O         1.5549039132        7.2414720976        2.4199527987
  O         4.7064189528        4.9006490464        5.2693662523
  O        -1.9280021668       -0.9568257231        7.9149524809
  O         3.8532685453       -3.7581950691       11.9962417336
  O         2.1249540978       10.9261519596        1.1468448221
  O         4.6661440964       -0.9534685379       11.9884851191
  O        -0.1348058056        9.0847142467        1.1005276236
  O        -0.0924920708       -2.2653732352        7.9781392624
  O         2.7491021378        6.0125254242        5.1387622907
  O         9.3976722103        6.1215931237        1.1339785115
  O        -4.7587326023        2.1526579647       11.9346043765
  O         8.6091154129        3.3529446560        1.1631551207
  O        -2.4757267865        3.9371633089       12.0000618788
  O         4.4783931940        6.5744292961        3.0624505469
  O        -0.2175113144       -0.4128073516        9.9997527484
  O         6.9177717373        5.3455118307        0.1104162420
  O         2.3582291932        8.4271631831       -0.0540522584
     124
 i =       35, E =     -1301.9380988166
 Ti        -2.8630483996        2.2008517242       11.2590551040
 Ti         7.9547575832        5.0967907975        1.8888387359
 Ti         1.2401257833       -1.7060185118        9.4180794181
 Ti         2.7439258174        7.4424908320        3.6750667989
 Ti         1.7524682585        9.1104914532        1.7628923748
 Ti         3.1075615280       -1.9741108433       11.3842097706
 Ti        -1.9163407526        0.4866544370        9.3513386255
 Ti         5.9776679737        5.3911591145        3.7425527077
  H         3.7531999192        1.5152769916        8.6216930756
  H        -0.1898442766       -4.2314415568        6.4889492342
  H         4.8037288050       10.8658641948        4.6250993305
  H        -2.3528614647        6.1054967055       11.0321180750
  H         8.8220913660        1.1861904422        2.2069796828
  H        -6.8318871965        1.4780036004       10.8822600423
  H        11.3307426749        7.1163753472        2.0936963600
  H         4.0975377117       -6.0128720603       11.0006412121
  H        -2.3263886536        8.5430302515        2.0872597001
  H         4.7177127524        3.0247720086        6.8578556591
  H         0.0368584685        3.6715718485        8.4374517124
  H        -3.6540036048       -1.6862516257        6.3289138282
  H         2.2248958350        7.4611251031       -0.1109382311
  H         6.0756617912        4.8576688901        0.1909550432
  H         3.6607892973       -2.6065396350        5.8824277804
  H         1.0320316702        9.2887313553        7.2906668804
  H        -6.0229710420        3.8241477125        9.0059072194
  H        10.7837195936        3.1003570758        4.2033293794
  H        -3.6207519750        2.5210820565        5.6835195277
  H        -1.3183937488       10.9908932375        4.1177526068
  H         2.2092224765       12.2114789584        2.6049002381
  H         8.7075779944       -0.8404708914        3.4138201342
  H         4.8373497355        7.1198117877        2.3392250801
  H         0.1553886281        0.1414100611       10.7083647011
  H         7.3392192953       -0.0016334215        9.7800136254
  H         5.8579916626       -0.4753177069       10.5309051793
  H         7.8751338662        4.3098177814        8.6643775351
  H         7.3298462781        4.6941556646        7.0419111138
  H         6.8821240735       -4.9780895825        9.5942175248
  H         5.5917276610       -3.8900185621       10.0529921600
  H         1.4283180140        1.8624402459        9.3933942340
  H         1.0018980830        5.1839483940        6.6711104267
  H         6.0422063194        8.8656092612        3.8514420257
  H        -7.7318763540        8.8783870834        4.6943101066
  C         8.5524246652        4.3615419748        4.7489866941
  C        -3.8151676374        2.4953089644        8.4117567689
  C         3.8257973923       -2.7173864666        8.5138260149
  C         0.8259739907        9.4323968481        4.6271229343
  C         9.4522641189        3.7687213845        5.7462291364
  C        -4.7418948108        3.1270737148        7.4360126371
  C         4.7704190641       -3.3260511953        7.5697805633
  C        -0.0577152509       10.0843254772        5.6275501430
  C         9.1798846750        3.8069933339        7.1509184881
  C        -4.4971718343        3.0485609311        6.0492773809
  C         5.8971054438       -4.0907333488        8.0228457753
  C        -1.1467772590       10.8665407651        5.1832160576
  C         0.1895011603        9.9052644762        6.9838184088
  C         4.5319114942       -3.1831919616        6.1850141937
  C        10.6154331052        3.1130986741        5.2777311652
  C        -5.8687826262        3.7804208921        7.9292365005
  C         2.9159854776        4.1935300502        6.6658851533
  C         1.8425995786        2.5128181025        8.6251731190
  C         6.4788381385        9.5095407473        4.6131137825
  C        -1.8652144260       -2.8746244776        6.5100996592
  C         8.7719845284        1.2615466887        0.0645462873
  C         2.3113509147       13.0568678377        0.0869131170
  C        11.2302117616        7.0479925605       -0.0557768331
  C        -2.1300314806        8.5854655129       -0.0696729496
  C         3.4879739875        5.0874754833        5.6298773070
  C        -1.2596613981       -1.9816882330        7.5268840093
  C         8.6213984114        2.7200628607        0.0426568660
  C         2.2083366447       11.6206453210        0.0497508301
  C         9.9333220975        6.4213935781       -0.0131076563
  C        -0.7204866379        8.9911631055       -0.0430456970
  C         1.5914406892        4.3791728069        7.1050703182
  C         3.1595727028        2.3191185802        8.1891993804
  C         5.7812799923       10.6430815412        5.0496408286
  C        -1.1707961175       -4.0176270684        6.0701446718
  C         8.8305387597        0.5951058128        1.2929957679
  C        -2.3361064592        6.6952518172       11.9452234246
  C        11.8811927138        7.3227411336        1.1793236295
  C        -7.3949425345        1.2965333445       11.7961099679
  C         7.7404335969        9.2048083499        5.1399267243
  C        -3.1350889767       -2.5762362373        5.9796934521
  C         3.6976037953        3.1571586008        7.2120005326
  C         1.0581135793        3.5389100704        8.0835563770
  C         7.2882695831        0.2554428945       11.8076153650
  C        -2.8284022163        8.3586509815        1.1414847279
  C         4.1486142928       -6.5417474152       11.9483069701
  C         2.3420802226       13.8051658963        1.3162864729
  N         2.4198183802       13.2043544875        2.5502697131
  N         6.7089863305        0.0804255496       10.5694838676
  N         8.0716355921        4.4098260008        7.6767629705
  N         6.2212492450       -4.2543521443        9.3412218734
  O         7.3710687534        4.7592525911        5.1143664707
  O        -3.0318941854        1.5576067904        8.0034365517
  O         4.1948949794       -2.6059653191        9.7403494683
  O         0.7542551367        9.8510316507        3.4236160678
  O         1.5995025087        8.4761832345        5.0166779964
  O         2.6604190929       -2.3373111996        8.0997263202
  O         8.9596398504        4.4424797984        3.5354661444
  O        -3.8729611478        2.9074778957        9.6192023304
  O         6.2797651463        4.1781155824        2.5411941818
  O        -1.3625641468        2.0386144987       10.1254379840
  O         7.2185728616        6.4647836394        2.9878528689
  O        -3.1188431373        0.3104596117       10.5846359635
  O         1.4829984936       -2.8817646842       10.6790387581
  O         3.2663784787        8.9979586449        2.9146223758
  O         2.4501628287       -0.6223897617       10.2357366414
  O         1.5549428074        7.2412239142        2.4200588659
  O         4.7063719984        4.9003142325        5.2697639550
  O        -1.9280261152       -0.9567348923        7.9145994846
  O         3.8536755323       -3.7583716760       11.9969809318
  O         2.1252314153       10.9258520715        1.1470025990
  O         4.6661096869       -0.9536125183       11.9883968719
  O        -0.1347659763        9.0842277712        1.1006912229
  O        -0.0924912562       -2.2652212181        7.9779813832
  O         2.7491560345        6.0123547522        5.1390672258
  O         9.3974767252        6.1213709451        1.1339952120
  O        -4.7587905276        2.1525953550       11.9347603727
  O         8.6090226511        3.3525436110        1.1639597575
  O        -2.4757142025        3.9368829158       12.0001369601
  O         4.4783454936        6.5742569017        3.0633105371
  O        -0.2189011091       -0.4146516483       10.0005968369
  O         6.9177902995        5.3451951524        0.1105707229
  O         2.3580642312        8.4267410257       -0.0539455591
     124
 i =       36, E =     -1301.9381003459
 Ti        -2.8631975699        2.2007278315       11.2592414226
 Ti         7.9546330099        5.0968030236        1.8889366851
 Ti         1.2397175595       -1.7066470478        9.4185469877
 Ti         2.7437269764        7.4422461487        3.6753654613
 Ti         1.7525348519        9.1102447005        1.7628826543
 Ti         3.1076080414       -1.9744183481       11.3844016698
 Ti        -1.9167765284        0.4860903682        9.3514643492
 Ti         5.9773732549        5.3906068865        3.7428090793
  H         3.7525834992        1.5147078274        8.6219380915
  H        -0.1897299447       -4.2314494004        6.4885607657
  H         4.8040193861       10.8660388696        4.6241159962
  H        -2.3550585028        6.1053922709       11.0324577592
  H         8.8228841326        1.1856199551        2.2075574533
  H        -6.8317201465        1.4771183222       10.8824668083
  H        11.3308882310        7.1153617776        2.0936862531
  H         4.0957957718       -6.0123797458       11.0014116730
  H        -2.3258577734        8.5422711170        2.0873334256
  H         4.7174692111        3.0243037892        6.8584617280
  H         0.0368810493        3.6721937298        8.4385825800
  H        -3.6534799450       -1.6857915774        6.3274863171
  H         2.2240266346        7.4607964868       -0.1107420680
  H         6.0754836710        4.8574724178        0.1906164448
  H         3.6606950718       -2.6064436484        5.8820903163
  H         1.0318045653        9.2885928738        7.2909751592
  H        -6.0243086472        3.8215316664        9.0060208622
  H        10.7844359625        3.1018966229        4.2037199142
  H        -3.6196645878        2.5230146339        5.6836488186
  H        -1.3183387357       10.9908633251        4.1180019272
  H         2.2114186740       12.2107542093        2.6051398033
  H         8.7092662407       -0.8414668698        3.4141203162
  H         4.8368663160        7.1197237614        2.3400680524
  H         0.1535923307        0.1388503057       10.7099530207
  H         7.3391045043       -0.0012190182        9.7801550868
  H         5.8580102249       -0.4750615360       10.5307083286
  H         7.8728845815        4.3050121967        8.6645187616
  H         7.3277794269        4.6902392299        7.0421810715
  H         6.8811662944       -4.9784895851        9.5944510196
  H         5.5906853716       -3.8904569155       10.0530252128
  H         1.4277674353        1.8621422626        9.3936453805
  H         1.0021771510        5.1847702159        6.6725734833
  H         6.0423111084        8.8652849754        3.8513108107
  H        -7.7319560816        8.8779318658        4.6946204930
  C         8.5520644607        4.3608836993        4.7491855201
  C        -3.8153605846        2.4952098052        8.4118974802
  C         3.8255608322       -2.7173146292        8.5139094051
  C         0.8257151330        9.4321553707        4.6271831000
  C         9.4519388652        3.7681641341        5.7465358531
  C        -4.7422271961        3.1267672609        7.4361353781
  C         4.7699165455       -3.3262688751        7.5698469141
  C        -0.0578217607       10.0842116515        5.6277243251
  C         9.1786824337        3.8049760789        7.1511274719
  C        -4.4966607830        3.0494738904        6.0495036513
  C         5.8966324746       -4.0909585513        8.0229930014
  C        -1.1470431823       10.8662594923        5.1834550381
  C         0.1890880717        9.9049234849        6.9840392223
  C         4.5316677669       -3.1831787285        6.1850206220
  C        10.6156717404        3.1136101491        5.2780122972
  C        -5.8698382590        3.7787039327        7.9293717485
  C         2.9160265988        4.1937558548        6.6667608859
  C         1.8422739797        2.5127611294        8.6257001785
  C         6.4790258722        9.5095644802        4.6126827776
  C        -1.8649117931       -2.8743426334        6.5093901179
  C         8.7711055706        1.2612389241        0.0651844025
  C         2.3113487932       13.0566334668        0.0871556099
  C        11.2302965315        7.0473188692       -0.0557447233
  C        -2.1298273170        8.5846517007       -0.0695389294
  C         3.4879225404        5.0872570017        5.6302012088
  C        -1.2596356737       -1.9815550302        7.5265953114
  C         8.6212486937        2.7197536228        0.0433027179
  C         2.2081886891       11.6203919571        0.0499085558
  C         9.9331757177        6.4212270938       -0.0130678887
  C        -0.7204921340        8.9905907277       -0.0428226719
  C         1.5915741691        4.3796757008        7.1061580480
  C         3.1592031189        2.3188733689        8.1896970545
  C         5.7815820712       10.6433515192        5.0487169801
  C        -1.1706535364       -4.0175200389        6.0696379232
  C         8.8304907774        0.5946863889        1.2935626417
  C        -2.3375064245        6.6951643782       11.9455777267
  C        11.8814466334        7.3217536575        1.1793859089
  C        -7.3948169074        1.2959192048       11.7962276772
  C         7.7405271036        9.2046696667        5.1396272957
  C        -3.1346240515       -2.5758572006        5.9785985602
  C         3.6974033422        3.1569684172        7.2125926683
  C         1.0581031476        3.5393415500        8.0845488717
  C         7.2883249460        0.2550093408       11.8077165282
  C        -2.8281631601        8.3577963153        1.1416617422
  C         4.1472752818       -6.5417978828       11.9487862652
  C         2.3428496797       13.8046762291        1.3165590356
  N         2.4217342218       13.2036941878        2.5504197147
  N         6.7086912887        0.0811960379       10.5694850436
  N         8.0694309000        4.4058205139        7.6770193420
  N         6.2204733965       -4.2547381729        9.3414546893
  O         7.3707613729        4.7588613503        5.1143839987
  O        -3.0325651437        1.5571198437        8.0036969784
  O         4.1946572559       -2.6062134745        9.7405322588
  O         0.7543097189        9.8511375686        3.4237701202
  O         1.5993100058        8.4760224110        5.0167264461
  O         2.6601762448       -2.3373398569        8.1000714218
  O         8.9594758117        4.4425020772        3.5357347419
  O        -3.8731061304        2.9073408980        9.6193858483
  O         6.2795051053        4.1777665017        2.5413497797
  O        -1.3627234086        2.0378778812       10.1255107858
  O         7.2183401929        6.4643835995        2.9883027492
  O        -3.1193761494        0.3101597504       10.5847112503
  O         1.4830240338       -2.8826238688       10.6793255551
  O         3.2666339195        8.9974685004        2.9145516798
  O         2.4494173243       -0.6227088182       10.2361906830
  O         1.5547010980        7.2411444523        2.4201719672
  O         4.7060642967        4.8994897975        5.2697221497
  O        -1.9281206622       -0.9566639236        7.9142420263
  O         3.8536753140       -3.7586472723       11.9976807091
  O         2.1258486259       10.9256185781        1.1472269173
  O         4.6661201077       -0.9540546407       11.9883328363
  O        -0.1350070045        9.0840758755        1.1009491981
  O        -0.0927323942       -2.2654274757        7.9781595937
  O         2.7492735367        6.0123232551        5.1394425491
  O         9.3973467761        6.1211027570        1.1340684550
  O        -4.7589411635        2.1527588181       11.9350523898
  O         8.6087466641        3.3521609984        1.1646124992
  O        -2.4754092859        3.9365942150       12.0002618579
  O         4.4781175199        6.5740366274        3.0641801526
  O        -0.2199486842       -0.4161440434       10.0009828220
  O         6.9177435266        5.3449735309        0.1107345227
  O         2.3578340651        8.4263485551       -0.0538230735
     124
 i =       37, E =     -1301.9381015441
 Ti        -2.8632572123        2.2008159257       11.2591858442
 Ti         7.9545610868        5.0968791767        1.8889870680
 Ti         1.2394468622       -1.7069793608        9.4188296872
 Ti         2.7435888115        7.4420889252        3.6753380983
 Ti         1.7525161012        9.1101729886        1.7627784735
 Ti         3.1076629174       -1.9745468613       11.3844913341
 Ti        -1.9170985924        0.4858025811        9.3514207302
 Ti         5.9770810116        5.3902711145        3.7428970827
  H         3.7523351442        1.5146081506        8.6219551702
  H        -0.1896591983       -4.2314078599        6.4881888916
  H         4.8041359438       10.8660490158        4.6235254026
  H        -2.3562588300        6.1053869397       11.0327157434
  H         8.8227427015        1.1854122561        2.2078089750
  H        -6.8317093450        1.4767484616       10.8823810749
  H        11.3310074505        7.1148641205        2.0936152016
  H         4.0951780297       -6.0120888000       11.0017415802
  H        -2.3254913629        8.5419083605        2.0872605130
  H         4.7173329925        3.0242034935        6.8586415928
  H         0.0369250865        3.6725236072        8.4390817094
  H        -3.6534689527       -1.6856284968        6.3267003576
  H         2.2240274882        7.4606366711       -0.1107217071
  H         6.0751948636        4.8577605273        0.1902926282
  H         3.6604179657       -2.6068251519        5.8820667139
  H         1.0317454189        9.2884211156        7.2911092944
  H        -6.0247317495        3.8203994134        9.0060882279
  H        10.7847354132        3.1026611776        4.2038459455
  H        -3.6190486407        2.5239316528        5.6836988295
  H        -1.3182100818       10.9910531910        4.1182566402
  H         2.2126303710       12.2106431760        2.6055092107
  H         8.7101067983       -0.8415296648        3.4142094265
  H         4.8363619241        7.1198371353        2.3404463735
  H         0.1531569417        0.1379876863       10.7103012475
  H         7.3391519470       -0.0007145837        9.7801189984
  H         5.8581397550       -0.4752032327       10.5303291627
  H         7.8718582200        4.3025980983        8.6645263060
  H         7.3268000044        4.6882498208        7.0422995078
  H         6.8801898062       -4.9790916380        9.5948607674
  H         5.5903110439       -3.8901989982       10.0529853868
  H         1.4275451956        1.8619912663        9.3935786558
  H         1.0022575062        5.1852912857        6.6733081167
  H         6.0422700929        8.8650062810        3.8511091371
  H        -7.7321338482        8.8776481428        4.6948368462
  C         8.5519325127        4.3608298599        4.7492800225
  C        -3.8155983774        2.4949946218        8.4120144535
  C         3.8253555572       -2.7176485633        8.5141524661
  C         0.8260933014        9.4325245661        4.6272847070
  C         9.4517127349        3.7677052375        5.7465826454
  C        -4.7422803313        3.1266939306        7.4361316338
  C         4.7698507528       -3.3263222571        7.5700016863
  C        -0.0580563784       10.0838782357        5.6278627975
  C         9.1782315693        3.8039439124        7.1511550810
  C        -4.4964118555        3.0497506724        6.0495564690
  C         5.8963671638       -4.0913118908        8.0231571584
  C        -1.1470134422       10.8663167209        5.1836657746
  C         0.1890507325        9.9048450807        6.9841563222
  C         4.5313923051       -3.1834933535        6.1851634246
  C        10.6158973949        3.1139269589        5.2781082414
  C        -5.8702376296        3.7778845848        7.9294221475
  C         2.9159729106        4.1939190037        6.6670988570
  C         1.8421546258        2.5128784113        8.6259238710
  C         6.4789968959        9.5094427014        4.6123683779
  C        -1.8648047788       -2.8741555433        6.5089100891
  C         8.7706809213        1.2611712696        0.0654747094
  C         2.3112039790       13.0566181925        0.0872883402
  C        11.2303687506        7.0469363821       -0.0557573100
  C        -2.1297512012        8.5842884076       -0.0695863041
  C         3.4877324251        5.0870122551        5.6301563125
  C        -1.2596939860       -1.9816319792        7.5264736121
  C         8.6206386732        2.7196300560        0.0435621520
  C         2.2087339868       11.6202929769        0.0500030476
  C         9.9332372267        6.4208729191       -0.0130322345
  C        -0.7206217078        8.9906728925       -0.0427004964
  C         1.5916112035        4.3800665858        7.1066907556
  C         3.1590172965        2.3188623705        8.1898149333
  C         5.7817520165       10.6434646070        5.0481058652
  C        -1.1706538242       -4.0174894374        6.0693646908
  C         8.8302844814        0.5945703777        1.2938344056
  C        -2.3381363106        6.6952092075       11.9457893533
  C        11.8816247607        7.3212997993        1.1793608605
  C        -7.3947152505        1.2954976279       11.7961370429
  C         7.7405102518        9.2046636289        5.1393874612
  C        -3.1345455044       -2.5757277910        5.9780477688
  C         3.6973135131        3.1570059368        7.2128275187
  C         1.0580915347        3.5396086796        8.0849327277
  C         7.2883058482        0.2548118583       11.8077188975
  C        -2.8279402875        8.3572597537        1.1416549548
  C         4.1465392900       -6.5417342451       11.9490281562
  C         2.3430662228       13.8045094053        1.3166972183
  N         2.4228443129       13.2036070293        2.5505949967
  N         6.7085708048        0.0814636405       10.5693904906
  N         8.0684561320        4.4037630021        7.6770721376
  N         6.2202271796       -4.2547959409        9.3416708937
  O         7.3705349507        4.7586126224        5.1144069441
  O        -3.0332373810        1.5565956867        8.0037726199
  O         4.1947248344       -2.6060008359        9.7407096676
  O         0.7546273531        9.8514976545        3.4238709450
  O         1.5992427674        8.4759662517        5.0166431379
  O         2.6600738685       -2.3375002034        8.1003289423
  O         8.9593971040        4.4426409630        3.5358208523
  O        -3.8729850645        2.9075871817        9.6193873560
  O         6.2793221583        4.1775397823        2.5414061099
  O        -1.3628551187        2.0376256365       10.1251503303
  O         7.2181904450        6.4641554658        2.9886331758
  O        -3.1195851146        0.3099971396       10.5848274514
  O         1.4828661690       -2.8829048527       10.6797076762
  O         3.2668509720        8.9970663699        2.9142088211
  O         2.4490704213       -0.6228991490       10.2362737366
  O         1.5542814421        7.2412346616        2.4202412272
  O         4.7056401432        4.8986058794        5.2692082051
  O        -1.9281295655       -0.9566107174        7.9139594957
  O         3.8534965886       -3.7587432522       11.9979377816
  O         2.1262259364       10.9255883105        1.1472991891
  O         4.6660442493       -0.9542838087       11.9883829193
  O        -0.1352120231        9.0842686098        1.1010895556
  O        -0.0930214120       -2.2658576206        7.9783967110
  O         2.7493513963        6.0124055018        5.1396156657
  O         9.3972263033        6.1210716885        1.1340660729
  O        -4.7589361911        2.1528971068       11.9352534875
  O         8.6086306314        3.3520884312        1.1648085776
  O        -2.4753098515        3.9365245037       12.0003899932
  O         4.4778409248        6.5738707474        3.0644574138
  O        -0.2201700956       -0.4165215071       10.0008625227
  O         6.9176652908        5.3450201834        0.1108288310
  O         2.3576312932        8.4262378563       -0.0538338155
     124
 i =       38, E =     -1301.9381028462
 Ti        -2.8631682395        2.2010313857       11.2589579503
 Ti         7.9544839999        5.0971283389        1.8891589160
 Ti         1.2391795039       -1.7071715902        9.4190775025
 Ti         2.7434138885        7.4419799784        3.6751641727
 Ti         1.7524963716        9.1101796624        1.7626741517
 Ti         3.1077455849       -1.9744757091       11.3845110127
 Ti        -1.9173617793        0.4855506168        9.3513584518
 Ti         5.9769028343        5.3900881110        3.7429441750
  H         3.7520995819        1.5146715615        8.6217844935
  H        -0.1896142584       -4.2313186806        6.4877504830
  H         4.8041989732       10.8660681698        4.6230341659
  H        -2.3573694749        6.1055737337       11.0328902558
  H         8.8221279463        1.1853891907        2.2080063675
  H        -6.8316610769        1.4764907806       10.8821224610
  H        11.3313564558        7.1143996676        2.0935286317
  H         4.0945571983       -6.0119300703       11.0019493400
  H        -2.3251149947        8.5413983170        2.0869635067
  H         4.7171753144        3.0243432575        6.8586851288
  H         0.0369531769        3.6729366617        8.4393252883
  H        -3.6536523936       -1.6855234673        6.3261559567
  H         2.2243248656        7.4605702378       -0.1108971014
  H         6.0749305563        4.8582650776        0.1900923064
  H         3.6598527123       -2.6076886252        5.8822715095
  H         1.0316478706        9.2881705736        7.2910687220
  H        -6.0249160340        3.8197010639        9.0060689599
  H        10.7848143980        3.1029366047        4.2038342596
  H        -3.6187980000        2.5241847707        5.6838045988
  H        -1.3182819538       10.9912237815        4.1183657670
  H         2.2134265481       12.2108115812        2.6058961900
  H         8.7105914037       -0.8411825947        3.4142795503
  H         4.8359089798        7.1200784332        2.3405478067
  H         0.1529840577        0.1375096057       10.7105443966
  H         7.3393452382       -0.0001839216        9.7798977959
  H         5.8583874766       -0.4755206551       10.5297861239
  H         7.8711515395        4.3007997668        8.6644650222
  H         7.3261125539        4.6868401253        7.0422544369
  H         6.8790837907       -4.9799514080        9.5953132085
  H         5.5901766577       -3.8897270250       10.0528584500
  H         1.4273108396        1.8619718854        9.3933036694
  H         1.0023897009        5.1859492035        6.6738776485
  H         6.0420758127        8.8646984348        3.8509509821
  H        -7.7323496460        8.8774241731        4.6948773504
  C         8.5517972949        4.3607939332        4.7492625937
  C        -3.8156689316        2.4947989372        8.4120265207
  C         3.8252623847       -2.7176429037        8.5143027119
  C         0.8261853802        9.4327013522        4.6272220940
  C         9.4515153533        3.7673613651        5.7465328569
  C        -4.7424022309        3.1263386934        7.4360775330
  C         4.7695333124       -3.3268605833        7.5701748739
  C        -0.0580779541       10.0839481299        5.6279359528
  C         9.1778064635        3.8029385861        7.1510778278
  C        -4.4963762147        3.0496874725        6.0495157742
  C         5.8962720267       -4.0915034503        8.0232136649
  C        -1.1471880473       10.8661232916        5.1837229508
  C         0.1888389601        9.9044769094        6.9841746838
  C         4.5311301743       -3.1839243897        6.1853235651
  C        10.6158745302        3.1139050070        5.2780918123
  C        -5.8703955647        3.7773548378        7.9293722528
  C         2.9158956405        4.1942227661        6.6673110030
  C         1.8419563256        2.5129554975        8.6257892969
  C         6.4789834113        9.5093609699        4.6119243893
  C        -1.8649012190       -2.8741298768        6.5085997569
  C         8.7701652607        1.2613279400        0.0656580821
  C         2.3110713199       13.0567545330        0.0873985530
  C        11.2306172932        7.0465435819       -0.0558496444
  C        -2.1295223567        8.5840668673       -0.0697728855
  C         3.4875201074        5.0869046693        5.6301110875
  C        -1.2597649783       -1.9818430093        7.5263010781
  C         8.6202247282        2.7198077563        0.0437612224
  C         2.2091639540       11.6203396807        0.0500181260
  C         9.9333698000        6.4207053795       -0.0130200805
  C        -0.7205343027        8.9909336264       -0.0427724883
  C         1.5915931371        4.3804947651        7.1070070284
  C         3.1589083274        2.3191347293        8.1899077955
  C         5.7817332332       10.6433341649        5.0477882965
  C        -1.1705938526       -4.0173285306        6.0689076296
  C         8.8298989672        0.5946610052        1.2939854239
  C        -2.3387888187        6.6953557409       11.9459495872
  C        11.8819280959        7.3208215445        1.1792556337
  C        -7.3945016269        1.2950820920       11.7959656119
  C         7.7403312655        9.2045036674        5.1393634825
  C        -3.1345433046       -2.5755360842        5.9774550631
  C         3.6971583861        3.1571549522        7.2128565456
  C         1.0581291274        3.5401041487        8.0852855247
  C         7.2884363807        0.2545287721       11.8075974002
  C        -2.8276377666        8.3567500504        1.1414022074
  C         4.1458469588       -6.5415771565       11.9492649632
  C         2.3429469193       13.8045847645        1.3168197651
  N         2.4234989407       13.2038065874        2.5507865773
  N         6.7087106606        0.0812820826       10.5692198924
  N         8.0677637605        4.4021944256        7.6770185779
  N         6.2200211956       -4.2549155257        9.3417661099
  O         7.3704295822        4.7585403889        5.1145883482
  O        -3.0339727596        1.5558491545        8.0038420663
  O         4.1948134551       -2.6057470106        9.7408565934
  O         0.7552499946        9.8522025967        3.4239895670
  O         1.5994216997        8.4761845657        5.0166049468
  O         2.6598486767       -2.3378811453        8.1005080829
  O         8.9595031681        4.4429468825        3.5358955386
  O        -3.8726218938        2.9080274204        9.6192307113
  O         6.2791840792        4.1774421459        2.5414095173
  O        -1.3629356172        2.0375854867       10.1245165391
  O         7.2180573164        6.4642091925        2.9888722933
  O        -3.1196955612        0.3099569097       10.5849494306
  O         1.4826984175       -2.8828826800       10.6801456924
  O         3.2669659257        8.9967483575        2.9138042984
  O         2.4489059331       -0.6230071532       10.2361334529
  O         1.5537835599        7.2413657025        2.4202855912
  O         4.7051814482        4.8977628351        5.2685321856
  O        -1.9280049605       -0.9565632301        7.9136244628
  O         3.8531528422       -3.7585914100       11.9980929703
  O         2.1267272638       10.9256048718        1.1472288826
  O         4.6660473509       -0.9543050317       11.9884510123
  O        -0.1352333362        9.0847418930        1.1010811901
  O        -0.0932756065       -2.2663387818        7.9785140578
  O         2.7493420308        6.0124851539        5.1396494809
  O         9.3972376250        6.1210692413        1.1339819537
  O        -4.7587605744        2.1531328168       11.9352150481
  O         8.6084121674        3.3522268820        1.1649970140
  O        -2.4750878246        3.9366283916       12.0004399633
  O         4.4775480517        6.5737134582        3.0643443889
  O        -0.2202694226       -0.4167411913       10.0008684840
  O         6.9175960630        5.3452240808        0.1109408164
  O         2.3575068547        8.4262432068       -0.0539264897
     124
 i =       39, E =     -1301.9381042226
 Ti        -2.8631742724        2.2010871353       11.2588007164
 Ti         7.9542840262        5.0973536136        1.8894448703
 Ti         1.2387552700       -1.7074797647        9.4194036825
 Ti         2.7431386191        7.4417971409        3.6751584678
 Ti         1.7523675353        9.1100734302        1.7627433368
 Ti         3.1076967564       -1.9744469494       11.3845601027
 Ti        -1.9176052985        0.4850748957        9.3514324095
 Ti         5.9765478167        5.3898018276        3.7429994201
  H         3.7517410204        1.5146219921        8.6217123030
  H        -0.1897055685       -4.2311625286        6.4872931908
  H         4.8044263834       10.8662519922        4.6220875792
  H        -2.3589906252        6.1058015307       11.0331060278
  H         8.8217484894        1.1852554843        2.2083840905
  H        -6.8316528872        1.4761861715       10.8819140294
  H        11.3318367107        7.1135813274        2.0935438050
  H         4.0931031366       -6.0121109060       11.0022546907
  H        -2.3249038588        8.5403790738        2.0867522961
  H         4.7168091117        3.0243631972        6.8587129060
  H         0.0369792890        3.6736129137        8.4399880751
  H        -3.6536512624       -1.6852817065        6.3251895256
  H         2.2245321297        7.4604114874       -0.1111155644
  H         6.0746716049        4.8586726862        0.1901804872
  H         3.6591877728       -2.6085769672        5.8827306683
  H         1.0313098892        9.2877851997        7.2910532621
  H        -6.0257163520        3.8181545160        9.0060494098
  H        10.7853802607        3.1039020980        4.2038327056
  H        -3.6181253232        2.5250391026        5.6840127557
  H        -1.3183890556       10.9914381176        4.1184601644
  H         2.2148681190       12.2108470610        2.6062961909
  H         8.7119648237       -0.8410055920        3.4145529445
  H         4.8355929403        7.1203049789        2.3406979940
  H         0.1525400762        0.1367753139       10.7112169927
  H         7.3394209861        0.0005644865        9.7796299403
  H         5.8585115484       -0.4757522505       10.5292796238
  H         7.8695569641        4.2972907703        8.6644433501
  H         7.3247450104        4.6843241960        7.0420802811
  H         6.8776643100       -4.9812101213        9.5959132625
  H         5.5899880609       -3.8893125344       10.0527650181
  H         1.4269071876        1.8619313637        9.3931828601
  H         1.0026228757        5.1868331124        6.6748281972
  H         6.0420565043        8.8644411926        3.8507611611
  H        -7.7324668083        8.8770463406        4.6948481240
  C         8.5516780787        4.3606694402        4.7494143379
  C        -3.8157941159        2.4944373243        8.4119909968
  C         3.8250029402       -2.7179448719        8.5144513767
  C         0.8265415718        9.4331232849        4.6273385766
  C         9.4511576437        3.7666854167        5.7465975541
  C        -4.7425136358        3.1259610542        7.4360559344
  C         4.7693537000       -3.3272459167        7.5703325641
  C        -0.0581800774       10.0839418404        5.6280521449
  C         9.1769988918        3.8014809506        7.1510579389
  C        -4.4961923337        3.0498606742        6.0494978661
  C         5.8959398521       -4.0919739527        8.0233588031
  C        -1.1472927544       10.8660398174        5.1837891122
  C         0.1885645920        9.9041528191        6.9842513725
  C         4.5307389438       -3.1845110352        6.1855211513
  C        10.6160416491        3.1141892527        5.2780825551
  C        -5.8710751435        3.7759876188        7.9293440210
  C         2.9157027351        4.1944480335        6.6676628098
  C         1.8417503126        2.5132278479        8.6260817313
  C         6.4789375871        9.5091456383        4.6116837151
  C        -1.8648965297       -2.8740460999        6.5080642222
  C         8.7694844325        1.2613864114        0.0659317661
  C         2.3109054019       13.0567078043        0.0875858460
  C        11.2307880861        7.0459665777       -0.0558980069
  C        -2.1293168006        8.5836782693       -0.0698714091
  C         3.4871188132        5.0864965111        5.6300551159
  C        -1.2596939129       -1.9819588527        7.5257728440
  C         8.6199859867        2.7199804287        0.0441270768
  C         2.2090787275       11.6202355615        0.0500247446
  C         9.9332968865        6.4206015302       -0.0129811909
  C        -0.7203481906        8.9908829803       -0.0428450269
  C         1.5916306579        4.3811643566        7.1078179233
  C         3.1585919625        2.3191618471        8.1899470682
  C         5.7818848652       10.6434688396        5.0469775170
  C        -1.1706993284       -4.0173608900        6.0684813955
  C         8.8295392539        0.5946677481        1.2942070337
  C        -2.3398307732        6.6953781595       11.9462275546
  C        11.8822181777        7.3200143681        1.1791655202
  C        -7.3943999253        1.2947269337       11.7958998851
  C         7.7403391946        9.2043446388        5.1390291591
  C        -3.1344828500       -2.5754326042        5.9767233434
  C         3.6968999253        3.1573500980        7.2131589550
  C         1.0580240911        3.5405587754        8.0857727489
  C         7.2886007553        0.2539742834       11.8075343878
  C        -2.8274399437        8.3560933587        1.1411803345
  C         4.1448961388       -6.5415672689       11.9496376878
  C         2.3432700147       13.8046280192        1.3169896405
  N         2.4245800479       13.2039070866        2.5509802709
  N         6.7088894588        0.0808913885       10.5691394789
  N         8.0661436714        4.3991898230        7.6770266315
  N         6.2197333278       -4.2551745583        9.3419108082
  O         7.3702253279        4.7582454826        5.1147391613
  O        -3.0346891616        1.5549169151        8.0040661546
  O         4.1947586385       -2.6054908997        9.7409488134
  O         0.7557516783        9.8528033423        3.4241971804
  O         1.5995172715        8.4763316387        5.0167296631
  O         2.6594608622       -2.3384645423        8.1006654573
  O         8.9595217103        4.4432567629        3.5361364193
  O        -3.8721455244        2.9082863356        9.6190396654
  O         6.2790476177        4.1773104123        2.5414160698
  O        -1.3631709773        2.0374290024       10.1239359610
  O         7.2177330000        6.4642101384        2.9890632572
  O        -3.1199133492        0.3098959318       10.5850706225
  O         1.4824970694       -2.8828919513       10.6806340258
  O         3.2668203198        8.9963839027        2.9136124763
  O         2.4487158538       -0.6232556361       10.2358988496
  O         1.5532293151        7.2413696471        2.4205506273
  O         4.7045526887        4.8965451188        5.2678765463
  O        -1.9278216661       -0.9565780746        7.9132186020
  O         3.8525837477       -3.7584338828       11.9984048762
  O         2.1272817430       10.9254237229        1.1471532212
  O         4.6660275016       -0.9543379754       11.9884978380
  O        -0.1351976624        9.0852239944        1.1011136900
  O        -0.0935333322       -2.2668746737        7.9785465610
  O         2.7492938759        6.0125513695        5.1400027468
  O         9.3973305988        6.1208415475        1.1339816789
  O        -4.7586325356        2.1532947661       11.9351356388
  O         8.6079857875        3.3522703389        1.1654077194
  O        -2.4748812629        3.9367147949       12.0004013451
  O         4.4771219338        6.5734603938        3.0640773780
  O        -0.2206767932       -0.4174003670       10.0014468858
  O         6.9174194725        5.3454059996        0.1111093441
  O         2.3573512783        8.4261259063       -0.0539244889
     124
 i =       40, E =     -1301.9381051187
 Ti        -2.8632941011        2.2008825065       11.2587897026
 Ti         7.9540845726        5.0973408272        1.8895944578
 Ti         1.2384443654       -1.7077640543        9.4195900362
 Ti         2.7429441014        7.4416284800        3.6753619778
 Ti         1.7522383218        9.1099100410        1.7629182537
 Ti         3.1074556458       -1.9745373475       11.3846632745
 Ti        -1.9177472329        0.4846673628        9.3515554649
 Ti         5.9761307469        5.3895314082        3.7430246730
  H         3.7514070546        1.5143950179        8.6218190457
  H        -0.1898242596       -4.2311223854        6.4871398887
  H         4.8048184327       10.8665071229        4.6210543330
  H        -2.3602612866        6.1058392575       11.0332645662
  H         8.8219039452        1.1850882200        2.2087089709
  H        -6.8316934339        1.4760447175       10.8819161247
  H        11.3321458548        7.1127607707        2.0936068841
  H         4.0915121390       -6.0124629904       11.0024597757
  H        -2.3249583872        8.5394578104        2.0869154655
  H         4.7164087249        3.0241589984        6.8587310413
  H         0.0369517142        3.6741312104        8.4408398660
  H        -3.6534089102       -1.6849719851        6.3242435170
  H         2.2244613252        7.4602408882       -0.1112045224
  H         6.0745744510        4.8587602558        0.1905516136
  H         3.6588500526       -2.6089206743        5.8831099478
  H         1.0309835769        9.2875028564        7.2911809602
  H        -6.0268666379        3.8163139721        9.0060670737
  H        10.7862239070        3.1053158448        4.2039942444
  H        -3.6172811019        2.5262963988        5.6841067415
  H        -1.3183438025       10.9915684634        4.1185758792
  H         2.2163820767       12.2106581912        2.6064558034
  H         8.7137444762       -0.8412131997        3.4149092084
  H         4.8356140132        7.1203003600        2.3408763923
  H         0.1520506933        0.1362003576       10.7118955692
  H         7.3392764464        0.0011418038        9.7794748132
  H         5.8584095562       -0.4757258871       10.5291688556
  H         7.8676599045        4.2936307598        8.6643558109
  H         7.3233019655        4.6817764727        7.0419736072
  H         6.8766996952       -4.9821755401        9.5962979242
  H         5.5897701450       -3.8892998335       10.0528582622
  H         1.4265620466        1.8618935299        9.3934616252
  H         1.0027617060        5.1874549173        6.6757603379
  H         6.0421691012        8.8642440174        3.8505647441
  H        -7.7324461632        8.8768003291        4.6947314203
  C         8.5514930739        4.3603670530        4.7496030097
  C        -3.8159357214        2.4941134833        8.4119715167
  C         3.8248270478       -2.7181762197        8.5144821351
  C         0.8265377849        9.4331727764        4.6275343270
  C         9.4509341184        3.7663089175        5.7467101780
  C        -4.7426716475        3.1256171734        7.4361118690
  C         4.7691982805       -3.3275779941        7.5704357987
  C        -0.0580393025       10.0841858673        5.6282100949
  C         9.1760458638        3.7998682460        7.1510725866
  C        -4.4957838476        3.0504316964        6.0495735045
  C         5.8957488475       -4.0922252640        8.0235657494
  C        -1.1473621440       10.8659821289        5.1839411626
  C         0.1882940038        9.9038917075        6.9844357302
  C         4.5305927076       -3.1846397541        6.1856834902
  C        10.6163387648        3.1146778727        5.2782048492
  C        -5.8718327678        3.7746393678        7.9293992025
  C         2.9154967534        4.1944417843        6.6681241097
  C         1.8415067860        2.5133119879        8.6265125643
  C         6.4790301636        9.5090851955        4.6113571708
  C        -1.8648308865       -2.8740230627        6.5076158426
  C         8.7691908419        1.2612136328        0.0662048014
  C         2.3106051164       13.0565124711        0.0877403472
  C        11.2307689452        7.0455272678       -0.0558465395
  C        -2.1293683354        8.5832624795       -0.0698170110
  C         3.4868016412        5.0861608069        5.6302792470
  C        -1.2596543037       -1.9820168157        7.5253842376
  C         8.6193909549        2.7198527485        0.0444751530
  C         2.2091601246       11.6200009367        0.0501053111
  C         9.9332574529        6.4201826729       -0.0129621065
  C        -0.7204295279        8.9908417623       -0.0428229126
  C         1.5915781647        4.3815186752        7.1085421591
  C         3.1582896032        2.3190535044        8.1902256802
  C         5.7820699151       10.6435985513        5.0463186366
  C        -1.1707453603       -4.0174607790        6.0681736624
  C         8.8296689107        0.5944924685        1.2944482560
  C        -2.3405938643        6.6952727089       11.9464534488
  C        11.8823039604        7.3194698880        1.1791520893
  C        -7.3944409099        1.2944551776       11.7959388237
  C         7.7403401219        9.2041417465        5.1388036745
  C        -3.1342621946       -2.5752637175        5.9760089085
  C         3.6965822404        3.1572013720        7.2134154298
  C         1.0579152711        3.5409084156        8.0864595490
  C         7.2885821262        0.2536941092       11.8075814522
  C        -2.8273526887        8.3554671204        1.1412701031
  C         4.1440732860       -6.5416947691       11.9498852298
  C         2.3436498052       13.8044976809        1.3171729347
  N         2.4257545809       13.2037707558        2.5510978838
  N         6.7089789838        0.0805387078       10.5692164603
  N         8.0644210191        4.3961152435        7.6770381013
  N         6.2194535177       -4.2555075646        9.3421255920
  O         7.3699350148        4.7578884331        5.1146840542
  O        -3.0350406221        1.5543712549        8.0042155845
  O         4.1945182449       -2.6056101134        9.7409826814
  O         0.7558774769        9.8528930368        3.4244130717
  O         1.5995972049        8.4764184850        5.0169228531
  O         2.6591059599       -2.3391547876        8.1007621031
  O         8.9593939519        4.4433858015        3.5364017158
  O        -3.8720492092        2.9081565431        9.6189751055
  O         6.2790127160        4.1772204212        2.5414357580
  O        -1.3633664724        2.0371218169       10.1238345667
  O         7.2173625957        6.4640261218        2.9890914074
  O        -3.1200947840        0.3097881547       10.5851557026
  O         1.4823168185       -2.8829927386       10.6808747362
  O         3.2665325742        8.9961907275        2.9138395569
  O         2.4485533110       -0.6234878642       10.2357428376
  O         1.5529236593        7.2412520809        2.4209456170
  O         4.7039754109        4.8954957068        5.2675069359
  O        -1.9277454369       -0.9566413726        7.9129213770
  O         3.8523661439       -3.7584028444       11.9987207180
  O         2.1272805599       10.9252015441        1.1472189275
  O         4.6658347541       -0.9542868273       11.9885041849
  O        -0.1351260202        9.0852672737        1.1011159950
  O        -0.0936090715       -2.2670678916        7.9783838386
  O         2.7492245394        6.0124787727        5.1404001872
  O         9.3972638429        6.1207108000        1.1340710455
  O        -4.7586578106        2.1531142770       11.9351399450
  O         8.6077899012        3.3521272510        1.1657623838
  O        -2.4751301982        3.9366784008       12.0003799845
  O         4.4768125669        6.5732173835        3.0639089520
  O        -0.2212078654       -0.4181118294       10.0022242520
  O         6.9172452660        5.3455219120        0.1112530064
  O         2.3572381294        8.4259360640       -0.0538671947
     124
 i =       41, E =     -1301.9381059839
 Ti        -2.8632837398        2.2007582928       11.2586782289
 Ti         7.9539588785        5.0974787875        1.8897344989
 Ti         1.2382547842       -1.7079169139        9.4196587743
 Ti         2.7427814981        7.4416171686        3.6754944021
 Ti         1.7521917760        9.1099425466        1.7629849997
 Ti         3.1071988643       -1.9744701490       11.3847503983
 Ti        -1.9178001272        0.4843923156        9.3516132423
 Ti         5.9759052283        5.3894024962        3.7429541319
  H         3.7510044398        1.5141903778        8.6218804219
  H        -0.1898958213       -4.2311857900        6.4869735339
  H         4.8051718687       10.8667049245        4.6202114365
  H        -2.3613535915        6.1059065318       11.0333347713
  H         8.8219048898        1.1851306779        2.2088653378
  H        -6.8316217265        1.4759982936       10.8818865585
  H        11.3325598823        7.1118868431        2.0935866882
  H         4.0898130409       -6.0126269316       11.0025803847
  H        -2.3248084576        8.5385375576        2.0870023950
  H         4.7159837824        3.0239973740        6.8586601960
  H         0.0368302185        3.6747181545        8.4416048102
  H        -3.6531389802       -1.6847086184        6.3234928717
  H         2.2244561543        7.4602806312       -0.1113979098
  H         6.0746498427        4.8589672028        0.1910702915
  H         3.6584108727       -2.6094637898        5.8833979016
  H         1.0306780112        9.2871592000        7.2912515680
  H        -6.0278837696        3.8146788525        9.0059905185
  H        10.7867904990        3.1062841525        4.2041805688
  H        -3.6169063368        2.5269860886        5.6840545998
  H        -1.3184735329       10.9914382156        4.1186036443
  H         2.2174131620       12.2106040634        2.6065751012
  H         8.7152254049       -0.8413087524        3.4152186682
  H         4.8357550927        7.1202355372        2.3408382218
  H         0.1515893150        0.1358303511       10.7125186002
  H         7.3392304004        0.0014911530        9.7791988026
  H         5.8584147423       -0.4758219132       10.5290567554
  H         7.8658873264        4.2905281657        8.6640896050
  H         7.3221320637        4.6797193100        7.0418199894
  H         6.8758272248       -4.9831105567        9.5964279502
  H         5.5896262260       -3.8894636364       10.0529753787
  H         1.4261505408        1.8619649894        9.3937208769
  H         1.0028487762        5.1881397253        6.6765550696
  H         6.0421217681        8.8640352018        3.8503576277
  H        -7.7325149086        8.8767126676        4.6944596061
  C         8.5513082348        4.3602408248        4.7496389812
  C        -3.8161045760        2.4937267953        8.4119364755
  C         3.8245004518       -2.7186927300        8.5145612281
  C         0.8264786954        9.4332764089        4.6276618216
  C         9.4505274753        3.7658748355        5.7466817560
  C        -4.7428946947        3.1251140939        7.4361357147
  C         4.7689821979       -3.3278784198        7.5705297392
  C        -0.0581309789       10.0841541649        5.6282807504
  C         9.1752183679        3.7983818778        7.1509947337
  C        -4.4957028144        3.0506277875        6.0496095786
  C         5.8955110581       -4.0925686509        8.0236572953
  C        -1.1474701413       10.8659734443        5.1840224287
  C         0.1881278315        9.9037103779        6.9845457574
  C         4.5303291365       -3.1849744854        6.1858239000
  C        10.6164986176        3.1150523702        5.2783287349
  C        -5.8724981490        3.7734193030        7.9293724635
  C         2.9152397636        4.1944973204        6.6684464823
  C         1.8411929937        2.5134105115        8.6268106235
  C         6.4790513005        9.5089620214        4.6110232068
  C        -1.8648148706       -2.8740100571        6.5071765855
  C         8.7685063311        1.2611773091        0.0663742781
  C         2.3105310115       13.0565228400        0.0878469431
  C        11.2309870142        7.0450879087       -0.0559041521
  C        -2.1292654859        8.5830413957       -0.0698703686
  C         3.4865571692        5.0860471429        5.6304473946
  C        -1.2596856187       -1.9821224377        7.5251616390
  C         8.6193089844        2.7198989061        0.0447208262
  C         2.2088268421       11.6200319230        0.0501822100
  C         9.9333124667        6.4200755727       -0.0130246497
  C        -0.7203164571        8.9907409193       -0.0430253321
  C         1.5914709786        4.3819358505        7.1091513901
  C         3.1579493238        2.3190005910        8.1904368059
  C         5.7822308048       10.6436346820        5.0457895678
  C        -1.1707650465       -4.0175470646        6.0679329404
  C         8.8297363543        0.5944649777        1.2945868390
  C        -2.3414222661        6.6952862443       11.9465662930
  C        11.8825727697        7.3188308760        1.1790886773
  C        -7.3943274712        1.2942259006       11.7959092964
  C         7.7402740615        9.2040183976        5.1386150193
  C        -3.1341388906       -2.5751430281        5.9754360914
  C         3.6962366854        3.1571289137        7.2135716095
  C         1.0577513503        3.5413291158        8.0870759314
  C         7.2887673863        0.2533249367       11.8074654033
  C        -2.8270946731        8.3548484714        1.1412724637
  C         4.1432091971       -6.5416970553       11.9500023343
  C         2.3436145048       13.8045071884        1.3173549815
  N         2.4265046624       13.2037465656        2.5511624757
  N         6.7092288533        0.0799930252       10.5692112495
  N         8.0629615594        4.3934277667        7.6768976293
  N         6.2191306173       -4.2559565059        9.3422430830
  O         7.3697042295        4.7577104842        5.1146519032
  O        -3.0353522911        1.5538721318        8.0042036920
  O         4.1943239063       -2.6058079320        9.7409438933
  O         0.7557409300        9.8528370993        3.4244762142
  O         1.5996091570        8.4765708929        5.0170160377
  O         2.6587317671       -2.3399404592        8.1007998825
  O         8.9594135277        4.4434735806        3.5365447323
  O        -3.8720473356        2.9080943626        9.6188314073
  O         6.2790925540        4.1772474159        2.5413705278
  O        -1.3633660987        2.0368534361       10.1237396339
  O         7.2170380637        6.4640854176        2.9890381246
  O        -3.1201124802        0.3097818406       10.5852488021
  O         1.4821753032       -2.8829292035       10.6810557187
  O         3.2663343622        8.9961695198        2.9140705452
  O         2.4484654831       -0.6235393351       10.2355019451
  O         1.5526941182        7.2412558480        2.4212647281
  O         4.7034789690        4.8948238032        5.2671386643
  O        -1.9276954236       -0.9567197212        7.9126791662
  O         3.8521635610       -3.7582544210       11.9989854181
  O         2.1273072897       10.9251621051        1.1473096237
  O         4.6657662942       -0.9541585670       11.9884464508
  O        -0.1349304113        9.0854295761        1.1008927639
  O        -0.0935777248       -2.2670640695        7.9780916513
  O         2.7491146138        6.0124384197        5.1405593176
  O         9.3972554334        6.1207072271        1.1340772226
  O        -4.7586691909        2.1530712193       11.9348776511
  O         8.6074633575        3.3520744312        1.1660650475
  O        -2.4752310677        3.9366490586       12.0004149593
  O         4.4766498220        6.5730294759        3.0636381409
  O        -0.2217152609       -0.4187103384       10.0030162782
  O         6.9172367264        5.3457995914        0.1113952903
  O         2.3573321936        8.4259337781       -0.0539311529
     124
 i =       42, E =     -1301.9381068260
 Ti        -2.8632007410        2.2006438084       11.2586059385
 Ti         7.9539340941        5.0976446534        1.8898208396
 Ti         1.2381601030       -1.7079820340        9.4196367281
 Ti         2.7426015512        7.4417561558        3.6755722574
 Ti         1.7521163998        9.1101381561        1.7630138504
 Ti         3.1069111484       -1.9743801832       11.3849126600
 Ti        -1.9177715620        0.4842474796        9.3516888016
 Ti         5.9757517669        5.3892627813        3.7427972650
  H         3.7505293179        1.5140397680        8.6219594944
  H        -0.1899970724       -4.2314034131        6.4868330680
  H         4.8054455564       10.8668940324        4.6193839078
  H        -2.3622588437        6.1058442936       11.0333890575
  H         8.8219237940        1.1853120488        2.2087945950
  H        -6.8315947298        1.4761561576       10.8819035767
  H        11.3328832323        7.1109521714        2.0934895744
  H         4.0881880573       -6.0126307981       11.0026253115
  H        -2.3245228154        8.5376574949        2.0870154068
  H         4.7154294820        3.0237377125        6.8584456058
  H         0.0366799743        3.6753125779        8.4424315164
  H        -3.6528576722       -1.6845479594        6.3227967184
  H         2.2246970283        7.4604218020       -0.1116174541
  H         6.0747274071        4.8593414972        0.1916934614
  H         3.6579465255       -2.6101641292        5.8836623231
  H         1.0304765046        9.2867523664        7.2913450630
  H        -6.0288871151        3.8129684337        9.0058200259
  H        10.7874107824        3.1072880451        4.2043388599
  H        -3.6166987700        2.5275548557        5.6838968500
  H        -1.3185758042       10.9913307229        4.1187300237
  H         2.2181981116       12.2106815117        2.6068148389
  H         8.7168497211       -0.8412606816        3.4154729785
  H         4.8358675222        7.1200691710        2.3406804044
  H         0.1513864739        0.1359028440       10.7127277072
  H         7.3391300338        0.0017215653        9.7788714926
  H         5.8585027268       -0.4761269496       10.5289377522
  H         7.8640429682        4.2874881370        8.6637225982
  H         7.3211186666        4.6778482273        7.0414670297
  H         6.8749264764       -4.9841887217        9.5964815022
  H         5.5895949650       -3.8896893576       10.0531556247
  H         1.4257679461        1.8621503092        9.3940932941
  H         1.0027890208        5.1887520705        6.6772800413
  H         6.0420802390        8.8639047863        3.8500408208
  H        -7.7326005033        8.8766172935        4.6941250102
  C         8.5511149596        4.3600526056        4.7495757778
  C        -3.8163328241        2.4933429394        8.4118480054
  C         3.8241801285       -2.7193516725        8.5147631563
  C         0.8262817544        9.4332692797        4.6276910668
  C         9.4501839015        3.7655310030        5.7466241828
  C        -4.7432605351        3.1245088662        7.4360813476
  C         4.7686881649       -3.3283490225        7.5707099788
  C        -0.0581614263       10.0841077852        5.6283500204
  C         9.1743576791        3.7969656824        7.1508680186
  C        -4.4956944278        3.0508178209        6.0495868605
  C         5.8953856638       -4.0929069335        8.0237585774
  C        -1.1475785696       10.8659118669        5.1841722314
  C         0.1880257392        9.9034691248        6.9846637907
  C         4.5301274302       -3.1853207113        6.1860279547
  C        10.6166155892        3.1153911556        5.2783741198
  C        -5.8732470233        3.7721807498        7.9292436434
  C         2.9148928124        4.1945729353        6.6686274465
  C         1.8408828087        2.5135971141        8.6271846431
  C         6.4790091869        9.5087956301        4.6107563265
  C        -1.8648367053       -2.8740571296        6.5068552856
  C         8.7682186112        1.2612842503        0.0663882734
  C         2.3101906355       13.0566005000        0.0879067156
  C        11.2312093206        7.0447270454       -0.0559963371
  C        -2.1290798457        8.5828443996       -0.0699698633
  C         3.4862154512        5.0858393159        5.6302531530
  C        -1.2596833497       -1.9820771271        7.5249381618
  C         8.6187723151        2.7199468645        0.0448493886
  C         2.2086040696       11.6201357046        0.0502872530
  C         9.9333873253        6.4200771881       -0.0131274661
  C        -0.7202217415        8.9907566401       -0.0433114636
  C         1.5912997024        4.3823662414        7.1097294700
  C         3.1575225054        2.3189212496        8.1905398604
  C         5.7824058938       10.6437516414        5.0451315013
  C        -1.1708551010       -4.0177010928        6.0677751493
  C         8.8292975843        0.5945420017        1.2945810717
  C        -2.3420226127        6.6953115554       11.9465955463
  C        11.8829147613        7.3180144189        1.1790257504
  C        -7.3942566700        1.2941955655       11.7958590614
  C         7.7402640252        9.2039623955        5.1382796716
  C        -3.1340640338       -2.5751357512        5.9749596936
  C         3.6958101790        3.1570848395        7.2136454226
  C         1.0575234465        3.5416978950        8.0876223929
  C         7.2890125385        0.2528321510       11.8073133976
  C        -2.8268474018        8.3543318726        1.1412169781
  C         4.1419924221       -6.5416848747       11.9500085083
  C         2.3438931113       13.8046059908        1.3174324536
  N         2.4270699960       13.2038285403        2.5511330204
  N         6.7094789429        0.0793975443       10.5692026139
  N         8.0614789485        4.3908211063        7.6766744522
  N         6.2188924635       -4.2564718525        9.3424010222
  O         7.3695616169        4.7576860728        5.1146005502
  O        -3.0356485247        1.5534269096        8.0041479359
  O         4.1941684643       -2.6061291895        9.7409957894
  O         0.7554329081        9.8527954798        3.4244656773
  O         1.5996472744        8.4768129112        5.0171195441
  O         2.6583365283       -2.3410336508        8.1009732265
  O         8.9595085969        4.4436084457        3.5366017352
  O        -3.8721659631        2.9078938826        9.6186745230
  O         6.2792243617        4.1772609287        2.5411879094
  O        -1.3632833277        2.0367033281       10.1236160895
  O         7.2167403523        6.4641911439        2.9889788230
  O        -3.1200760528        0.3098032123       10.5853641649
  O         1.4819707717       -2.8827255012       10.6812811127
  O         3.2663128041        8.9962227283        2.9141705752
  O         2.4484460745       -0.6235376220       10.2352094483
  O         1.5524267087        7.2413545436        2.4215455496
  O         4.7029430141        4.8941707787        5.2666463706
  O        -1.9277770096       -0.9568339011        7.9126026326
  O         3.8520337438       -3.7581387657       11.9991109914
  O         2.1271700650       10.9252902120        1.1474960353
  O         4.6657609276       -0.9540991294       11.9883511208
  O        -0.1347764169        9.0855743140        1.1005642374
  O        -0.0935514980       -2.2669816714        7.9778447056
  O         2.7489806033        6.0125202736        5.1406298737
  O         9.3972403445        6.1207784901        1.1340508022
  O        -4.7587205542        2.1530105582       11.9345161600
  O         8.6072438647        3.3520712892        1.1662294533
  O        -2.4754072112        3.9365883731       12.0005205936
  O         4.4765367241        6.5728393451        3.0633777400
  O        -0.2219845619       -0.4189718233       10.0035004285
  O         6.9172903666        5.3461940196        0.1115526437
  O         2.3575193121        8.4260574519       -0.0539747329
     124
 i =       43, E =     -1301.9381076594
 Ti        -2.8632181284        2.2005429655       11.2587147448
 Ti         7.9540339010        5.0976830979        1.8898074800
 Ti         1.2381132910       -1.7080703441        9.4196377303
 Ti         2.7425183664        7.4419063332        3.6756199808
 Ti         1.7519690278        9.1103052297        1.7630391925
 Ti         3.1066532488       -1.9743999858       11.3851039462
 Ti        -1.9177255035        0.4842167355        9.3517660570
 Ti         5.9755705339        5.3890663942        3.7426417642
  H         3.7501092528        1.5139345211        8.6220558199
  H        -0.1901193297       -4.2317241307        6.4868601412
  H         4.8056824423       10.8671109681        4.6186773932
  H        -2.3628119123        6.1055996765       11.0334730767
  H         8.8221213789        1.1854378826        2.2085954707
  H        -6.8317220789        1.4765120295       10.8819724105
  H        11.3329407646        7.1101640151        2.0933738691
  H         4.0870697475       -6.0125608336       11.0025773322
  H        -2.3242725071        8.5371016560        2.0870561277
  H         4.7148840528        3.0233115516        6.8581685353
  H         0.0366136831        3.6757066342        8.4431915896
  H        -3.6526366397       -1.6844688997        6.3222483754
  H         2.2251058174        7.4604950404       -0.1116436988
  H         6.0746731390        4.8596590488        0.1921668860
  H         3.6577117298       -2.6105533149        5.8838400921
  H         1.0304268528        9.2864293746        7.2914796197
  H        -6.0298450235        3.8112976528        9.0056884605
  H        10.7881300537        3.1084856945        4.2044268603
  H        -3.6163294878        2.5283250632        5.6837628512
  H        -1.3185198434       10.9914571110        4.1190192640
  H         2.2188107740       12.2107786606        2.6070567032
  H         8.7185634326       -0.8411222765        3.4155903575
  H         4.8358168775        7.1198015358        2.3406110291
  H         0.1514978357        0.1362643160       10.7124355876
  H         7.3389240406        0.0018111747        9.7787090316
  H         5.8585508448       -0.4765402767       10.5289409974
  H         7.8623973732        4.2848128629        8.6634043839
  H         7.3202885934        4.6762987441        7.0410178693
  H         6.8742800468       -4.9851305748        9.5965713926
  H         5.5896129676       -3.8899454205       10.0533372722
  H         1.4255986068        1.8624042194        9.3946235864
  H         1.0025645568        5.1890434556        6.6778362515
  H         6.0422000064        8.8639219562        3.8496762941
  H        -7.7325940404        8.8765187848        4.6939399496
  C         8.5510688256        4.3600125156        4.7495859187
  C        -3.8166081466        2.4930218558        8.4117909517
  C         3.8240024628       -2.7200266810        8.5150622523
  C         0.8262343764        9.4333043724        4.6277660031
  C         9.4500448864        3.7652889522        5.7466278114
  C        -4.7436171300        3.1240978940        7.4359889773
  C         4.7686162454       -3.3286749671        7.5709267290
  C        -0.0581976034       10.0839846418        5.6284828459
  C         9.1736019432        3.7958508566        7.1507828316
  C        -4.4955413424        3.0511664032        6.0495486536
  C         5.8953342523       -4.0932737721        8.0239598989
  C        -1.1475744278       10.8659155938        5.1844280775
  C         0.1880310122        9.9032884221        6.9848118399
  C         4.5300071555       -3.1855399190        6.1862646292
  C        10.6168446792        3.1158100492        5.2783562703
  C        -5.8740191476        3.7710372155        7.9291272196
  C         2.9145391580        4.1945129350        6.6686555919
  C         1.8406178846        2.5137112568        8.6275318827
  C         6.4791356704        9.5089002727        4.6103483713
  C        -1.8647935967       -2.8741160494        6.5066964366
  C         8.7676061855        1.2612386166        0.0663118244
  C         2.3101630566       13.0565586412        0.0879062085
  C        11.2312447979        7.0443555373       -0.0560160327
  C        -2.1291420693        8.5828068157       -0.0699969147
  C         3.4859344428        5.0856750324        5.6300656199
  C        -1.2597867719       -1.9820868990        7.5249988790
  C         8.6184660861        2.7198551936        0.0447945593
  C         2.2084959793       11.6201419334        0.0503981698
  C         9.9333935388        6.4198865506       -0.0131976418
  C        -0.7203604553        8.9906965571       -0.0434090536
  C         1.5910682224        4.3825318139        7.1100554924
  C         3.1571703586        2.3189163050        8.1907212760
  C         5.7825222557       10.6438552752        5.0446748624
  C        -1.1709115214       -4.0178365398        6.0676648039
  C         8.8293879853        0.5945621440        1.2945231266
  C        -2.3426921048        6.6952566072       11.9465824083
  C        11.8830190952        7.3175252060        1.1790095438
  C        -7.3943222460        1.2941949154       11.7958200935
  C         7.7402503682        9.2038446441        5.1380810725
  C        -3.1338930907       -2.5750853273        5.9745421846
  C         3.6953604979        3.1568546388        7.2135413486
  C         1.0573966664        3.5420190714        8.0881749104
  C         7.2889816440        0.2526784503       11.8073080898
  C        -2.8267184757        8.3538211179        1.1412576593
  C         4.1413899737       -6.5417294710       11.9498983847
  C         2.3438838553       13.8045900384        1.3173856695
  N         2.4277598492       13.2038924997        2.5510417886
  N         6.7094873505        0.0790733557       10.5692574301
  N         8.0601338756        4.3886240336        7.6764780741
  N         6.2189039612       -4.2568450376        9.3426347067
  O         7.3694471504        4.7576399432        5.1144539695
  O        -3.0357665182        1.5532314762        8.0041029254
  O         4.1940714972       -2.6064374848        9.7411908092
  O         0.7550776364        9.8526477153        3.4244603192
  O         1.5996374684        8.4768975026        5.0171588173
  O         2.6580596441       -2.3420585527        8.1013364173
  O         8.9594894180        4.4436705941        3.5365977777
  O        -3.8724404044        2.9074972952        9.6186288221
  O         6.2793106614        4.1771649749        2.5409767316
  O        -1.3632989874        2.0366704188       10.1235850210
  O         7.2165701192        6.4640936492        2.9890192426
  O        -3.1200501859        0.3097839877       10.5854939409
  O         1.4817224145       -2.8826200156       10.6815742772
  O         3.2664253833        8.9962666987        2.9141064922
  O         2.4484374201       -0.6236014032       10.2350011741
  O         1.5522027282        7.2414518319        2.4217731749
  O         4.7024248720        4.8933974169        5.2661088699
  O        -1.9279339242       -0.9569067685        7.9126243043
  O         3.8517393233       -3.7582449164       11.9991056772
  O         2.1268924739       10.9254167059        1.1477211743
  O         4.6656949789       -0.9541928522       11.9882799246
  O        -0.1348405799        9.0855192034        1.1003767402
  O        -0.0935350052       -2.2668061651        7.9777277896
  O         2.7488640632        6.0126030969        5.1406521967
  O         9.3971603073        6.1208431312        1.1340588269
  O        -4.7588694829        2.1528706343       11.9344324385
  O         8.6070705542        3.3519859677        1.1661693950
  O        -2.4756491376        3.9364757631       12.0006625743
  O         4.4764475149        6.5726616453        3.0633695387
  O        -0.2219332696       -0.4188179105       10.0034078869
  O         6.9173029617        5.3464130749        0.1116761086
  O         2.3576214311        8.4261717043       -0.0539215938
     124
 i =       44, E =     -1301.9381085744
 Ti        -2.8632075869        2.2006834819       11.2587620955
 Ti         7.9542992008        5.0978181309        1.8898120843
 Ti         1.2380445851       -1.7082302075        9.4197207490
 Ti         2.7425970879        7.4420581685        3.6755385493
 Ti         1.7518593962        9.1105451639        1.7629492744
 Ti         3.1065189752       -1.9743574141       11.3852239677
 Ti        -1.9177171920        0.4842882356        9.3517473996
 Ti         5.9754866153        5.3889852151        3.7424857380
  H         3.7495461200        1.5139101850        8.6220140518
  H        -0.1901743984       -4.2321224052        6.4869161221
  H         4.8059186142       10.8673459107        4.6182339971
  H        -2.3636150193        6.1054700518       11.0334888956
  H         8.8223361851        1.1856278363        2.2083551345
  H        -6.8317747807        1.4768767283       10.8818582260
  H        11.3332250459        7.1092164708        2.0931846484
  H         4.0858706613       -6.0123145574       11.0024689649
  H        -2.3237168216        8.5364640496        2.0869064478
  H         4.7142506817        3.0228209879        6.8578131758
  H         0.0365812378        3.6763471666        8.4438882794
  H        -3.6524660276       -1.6843273589        6.3218665981
  H         2.2256554696        7.4607228963       -0.1116031407
  H         6.0746820716        4.8600655111        0.1925307002
  H         3.6573810604       -2.6110298160        5.8839617285
  H         1.0304021914        9.2861009170        7.2914761127
  H        -6.0309278736        3.8094549719        9.0055466000
  H        10.7885486630        3.1094332699        4.2044634699
  H        -3.6161735896        2.5287305278        5.6836577744
  H        -1.3187173846       10.9914677058        4.1192741990
  H         2.2190743411       12.2109843730        2.6072116255
  H         8.7201367034       -0.8406977156        3.4156136255
  H         4.8356425474        7.1194963650        2.3404605633
  H         0.1515550509        0.1364472108       10.7121245992
  H         7.3389318976        0.0016204732        9.7785721218
  H         5.8587376560       -0.4772137532       10.5289605551
  H         7.8606949362        4.2821915453        8.6629268626
  H         7.3194108903        4.6748769708        7.0404991663
  H         6.8737225531       -4.9861559898        9.5965858083
  H         5.5895405266       -3.8904996142       10.0534216246
  H         1.4253852526        1.8628710394        9.3950555296
  H         1.0023021681        5.1894510042        6.6783355935
  H         6.0423040279        8.8640415406        3.8492138753
  H        -7.7326385311        8.8764956754        4.6938051888
  C         8.5509866714        4.3600545679        4.7495064498
  C        -3.8168557410        2.4926146790        8.4117349804
  C         3.8238194701       -2.7206746107        8.5153909094
  C         0.8260735483        9.4332345474        4.6277572277
  C         9.4498192092        3.7650136169        5.7465332202
  C        -4.7440722181        3.1234636751        7.4358472147
  C         4.7684222773       -3.3291932537        7.5711378837
  C        -0.0584379492       10.0837347211        5.6285631910
  C         9.1728375602        3.7945638151        7.1506183135
  C        -4.4956284430        3.0511110309        6.0494551850
  C         5.8952027112       -4.0937562581        8.0240761063
  C        -1.1477993221       10.8657015425        5.1846151911
  C         0.1878992075        9.9028989139        6.9848513239
  C         4.5296849700       -3.1859795854        6.1864827683
  C        10.6169344507        3.1160968035        5.2783273698
  C        -5.8748414603        3.7697132660        7.9289891062
  C         2.9141499731        4.1945350940        6.6686221568
  C         1.8403398705        2.5140795335        8.6278685832
  C         6.4792478660        9.5090185789        4.6099120941
  C        -1.8647466053       -2.8741778774        6.5066020607
  C         8.7669748749        1.2612565285        0.0661691683
  C         2.3097340854       13.0566779902        0.0878550668
  C        11.2314533383        7.0439214827       -0.0561631977
  C        -2.1290904849        8.5826151590       -0.0701260359
  C         3.4856491400        5.0855201978        5.6298018615
  C        -1.2598378385       -1.9820681911        7.5249971712
  C         8.6181677248        2.7198363182        0.0446715949
  C         2.2083061245       11.6202917005        0.0504432288
  C         9.9335143591        6.4197638302       -0.0133195862
  C        -0.7204091458        8.9905770647       -0.0435571111
  C         1.5908014061        4.3828209299        7.1102926990
  C         3.1567031716        2.3189707613        8.1907449966
  C         5.7827245617       10.6439887281        5.0443079401
  C        -1.1708949725       -4.0179428217        6.0676252778
  C         8.8292609077        0.5946843028        1.2944097538
  C        -2.3433701810        6.6953084114       11.9464819127
  C        11.8833019096        7.3169166191        1.1788972279
  C        -7.3943149205        1.2942496406       11.7956466966
  C         7.7402502538        9.2038670283        5.1379013034
  C        -3.1337445716       -2.5749761522        5.9742432505
  C         3.6948355820        3.1566553810        7.2133272559
  C         1.0572305201        3.5424860155        8.0886204954
  C         7.2890749116        0.2524216409       11.8071667845
  C        -2.8264490440        8.3532647532        1.1411917396
  C         4.1404135173       -6.5416718291       11.9497263949
  C         2.3438153961       13.8046730417        1.3172861696
  N         2.4281888016       13.2040639286        2.5509359629
  N         6.7094762232        0.0787752882       10.5691534087
  N         8.0588402901        4.3864549740        7.6761221371
  N         6.2189254471       -4.2573274391        9.3427469157
  O         7.3693602253        4.7577632487        5.1143499140
  O        -3.0358578712        1.5530064235        8.0039308385
  O         4.1940490008       -2.6067348317        9.7414236069
  O         0.7548239803        9.8524639637        3.4244032043
  O         1.5996510522        8.4769206699        5.0169990881
  O         2.6577079520       -2.3431165988        8.1017521718
  O         8.9595487043        4.4438095990        3.5365327839
  O        -3.8728117836        2.9071854575        9.6185092824
  O         6.2793756210        4.1771356587        2.5407341291
  O        -1.3633115082        2.0367696327       10.1234515611
  O         7.2165938873        6.4640633260        2.9891342493
  O        -3.1198867339        0.3098369745       10.5857198785
  O         1.4814922682       -2.8825329681       10.6820620841
  O         3.2665518749        8.9964044443        2.9138964376
  O         2.4484328004       -0.6236903669       10.2347538631
  O         1.5521328728        7.2416741162        2.4218244941
  O         4.7019838455        4.8928455730        5.2656213120
  O        -1.9281711558       -0.9570646241        7.9127169196
  O         3.8514674814       -3.7582288334       11.9990648143
  O         2.1267314055       10.9256297036        1.1478352833
  O         4.6657042130       -0.9542784601       11.9882221757
  O        -0.1348678097        9.0855169754        1.1001336643
  O        -0.0935452767       -2.2666436893        7.9777124211
  O         2.7488033552        6.0127411879        5.1405606200
  O         9.3971926307        6.1208909484        1.1339492534
  O        -4.7589497937        2.1529130955       11.9343374150
  O         8.6070460218        3.3520477027        1.1660028255
  O        -2.4756755863        3.9364679181       12.0008005033
  O         4.4764410951        6.5725350122        3.0634235942
  O        -0.2218559892       -0.4185479495       10.0030351503
  O         6.9174167948        5.3466330863        0.1117679323
  O         2.3577791801        8.4264774034       -0.0539655990
     124
 i =       45, E =     -1301.9381096469
 Ti        -2.8631743051        2.2008481801       11.2588059019
 Ti         7.9546625382        5.0979822486        1.8898887140
 Ti         1.2378484657       -1.7085587489        9.4197962531
 Ti         2.7426766708        7.4422360082        3.6754644845
 Ti         1.7517405717        9.1107834454        1.7629931294
 Ti         3.1064075155       -1.9743674711       11.3853426902
 Ti        -1.9177779212        0.4843718041        9.3517292504
 Ti         5.9753784442        5.3888483787        3.7423362627
  H         3.7486422408        1.5137697514        8.6219284812
  H        -0.1903651923       -4.2326657496        6.4870208722
  H         4.8062492250       10.8677624117        4.6176138252
  H        -2.3649528569        6.1054189880       11.0334378427
  H         8.8228453323        1.1858211102        2.2081063105
  H        -6.8318533763        1.4773349060       10.8816228301
  H        11.3337640404        7.1077920692        2.0929992477
  H         4.0839622581       -6.0121132739       11.0023746864
  H        -2.3229823348        8.5353922556        2.0865438608
  H         4.7132291904        3.0219697661        6.8572564945
  H         0.0365187684        3.6774375278        8.4449736992
  H        -3.6521447565       -1.6841039277        6.3212601660
  H         2.2262963246        7.4610811036       -0.1114548002
  H         6.0747177041        4.8605999682        0.1929298431
  H         3.6570251097       -2.6116497604        5.8842683834
  H         1.0303178054        9.2856955737        7.2913939177
  H        -6.0328094992        3.8064621795        9.0053324641
  H        10.7891515328        3.1109064593        4.2044278511
  H        -3.6158601921        2.5294174121        5.6836191444
  H        -1.3190729044       10.9913769229        4.1196008372
  H         2.2195683404       12.2112374552        2.6073788474
  H         8.7224944786       -0.8401603373        3.4156359739
  H         4.8353817516        7.1190597532        2.3402466216
  H         0.1515314557        0.1365570229       10.7117139539
  H         7.3389827044        0.0011558314        9.7784286435
  H         5.8590405609       -0.4781474207       10.5289909229
  H         7.8579616960        4.2780303204        8.6622592682
  H         7.3179175751        4.6725467726        7.0396744412
  H         6.8731105612       -4.9875301642        9.5965947402
  H         5.5892581469       -3.8917081789       10.0535701918
  H         1.4250071250        1.8636676848        9.3958093635
  H         1.0019492228        5.1900389675        6.6790541096
  H         6.0425813336        8.8643821685        3.8485603184
  H        -7.7326571268        8.8763889454        4.6936357121
  C         8.5508802752        4.3600342031        4.7494553141
  C        -3.8172918632        2.4920046635        8.4116115559
  C         3.8235461502       -2.7215747341        8.5158311215
  C         0.8259027820        9.4329637162        4.6276755823
  C         9.4494411802        3.7644971684        5.7464214855
  C        -4.7448751467        3.1224490369        7.4356429658
  C         4.7680670922       -3.3301036039        7.5714569549
  C        -0.0587893450       10.0831850594        5.6286045279
  C         9.1715523864        3.7926086928        7.1503666375
  C        -4.4957078068        3.0511396078        6.0493203721
  C         5.8949455185       -4.0945461962        8.0242071467
  C        -1.1481489252       10.8651914376        5.1848515998
  C         0.1876405517        9.9022967048        6.9848312050
  C         4.5293134234       -3.1866368691        6.1868000817
  C        10.6170175621        3.1164765629        5.2782340081
  C        -5.8762788844        3.7675495745        7.9287828190
  C         2.9135484081        4.1945051832        6.6685217439
  C         1.8398685843        2.5146218247        8.6283910026
  C         6.4794921376        9.5092616060        4.6093576989
  C        -1.8646179343       -2.8742103245        6.5064566983
  C         8.7661442705        1.2613587514        0.0659755443
  C         2.3090776231       13.0568438579        0.0877579698
  C        11.2318013900        7.0432976763       -0.0563455135
  C        -2.1289021631        8.5822630908       -0.0703542668
  C         3.4852333638        5.0852359626        5.6294970186
  C        -1.2599358012       -1.9820935974        7.5249768630
  C         8.6176912317        2.7199329912        0.0445463705
  C         2.2081004582       11.6204566525        0.0504251110
  C         9.9337017721        6.4195577607       -0.0134780703
  C        -0.7203540038        8.9905205087       -0.0437033649
  C         1.5904353189        4.3832798918        7.1107343070
  C         3.1559605069        2.3190039254        8.1907991204
  C         5.7830183272       10.6442563013        5.0437171142
  C        -1.1708906772       -4.0180596094        6.0674909309
  C         8.8290840593        0.5948734070        1.2941969773
  C        -2.3446996892        6.6953839918       11.9463198789
  C        11.8837647150        7.3159258398        1.1787729178
  C        -7.3942513266        1.2941638584       11.7954154151
  C         7.7403196081        9.2038445054        5.1376416253
  C        -3.1334395306       -2.5748223997        5.9737302814
  C         3.6939996763        3.1563510173        7.2130787142
  C         1.0569560964        3.5432381327        8.0893546291
  C         7.2891821381        0.2521733573       11.8069789928
  C        -2.8260419529        8.3523965657        1.1409454095
  C         4.1389992527       -6.5415962058       11.9495756414
  C         2.3437193393       13.8048455417        1.3171073532
  N         2.4288847860       13.2042698967        2.5507215227
  N         6.7094265253        0.0784703187       10.5689609862
  N         8.0567035966        4.3830573864        7.6756415356
  N         6.2188287077       -4.2581537423        9.3428477136
  O         7.3692429553        4.7578054294        5.1142537618
  O        -3.0358931079        1.5527625418        8.0037452762
  O         4.1940225595       -2.6071036319        9.7417419202
  O         0.7545442218        9.8522786540        3.4243641519
  O         1.5997032889        8.4768584460        5.0169875358
  O         2.6572352487       -2.3444775929        8.1022184119
  O         8.9596226994        4.4440522606        3.5365156112
  O        -3.8732653689        2.9067023566        9.6182990229
  O         6.2793577334        4.1771010149        2.5404309908
  O        -1.3634519859        2.0370491938       10.1231730852
  O         7.2166622514        6.4639919504        2.9893011424
  O        -3.1197178106        0.3098353764       10.5859939224
  O         1.4811282897       -2.8823882401       10.6827896034
  O         3.2666914111        8.9965939293        2.9136602343
  O         2.4484023854       -0.6239961092       10.2344102618
  O         1.5522339558        7.2418384410        2.4217254482
  O         4.7014536722        4.8920942602        5.2651671221
  O        -1.9286003187       -0.9573782202        7.9129078828
  O         3.8510089419       -3.7582548444       11.9989273053
  O         2.1265380641       10.9258499122        1.1478680354
  O         4.6657554983       -0.9544299768       11.9881641569
  O        -0.1348538058        9.0853913746        1.0999623781
  O        -0.0936023960       -2.2665566000        7.9776524023
  O         2.7486897420        6.0128550716        5.1404952089
  O         9.3973241301        6.1208113469        1.1337810012
  O        -4.7589272912        2.1529666807       11.9342181284
  O         8.6071464507        3.3521966406        1.1658595658
  O        -2.4757214884        3.9364968927       12.0008953927
  O         4.4763950408        6.5724584071        3.0635612022
  O        -0.2217663054       -0.4182090329       10.0024122147
  O         6.9175396087        5.3469492480        0.1118722606
  O         2.3578892233        8.4269304487       -0.0539383433
     124
 i =       46, E =     -1301.9381106470
 Ti        -2.8631254006        2.2010531549       11.2587172288
 Ti         7.9549531615        5.0982030072        1.8900330831
 Ti         1.2375961185       -1.7089588834        9.4199577552
 Ti         2.7428396291        7.4422613110        3.6753532647
 Ti         1.7517499648        9.1109384188        1.7630283150
 Ti         3.1062613228       -1.9743064654       11.3853633965
 Ti        -1.9178780337        0.4844174386        9.3516237632
 Ti         5.9752942049        5.3887094672        3.7422857596
  H         3.7476150415        1.5135733736        8.6217650160
  H        -0.1905167032       -4.2331209802        6.4871975752
  H         4.8066537245       10.8682352737        4.6170044534
  H        -2.3667202172        6.1055793347       11.0332980156
  H         8.8234558606        1.1860350666        2.2079533827
  H        -6.8318841022        1.4776606727       10.8812252757
  H        11.3345947883        7.1062662636        2.0928237166
  H         4.0818101623       -6.0120146841       11.0022477045
  H        -2.3222384794        8.5341238259        2.0861453744
  H         4.7121196202        3.0210478504        6.8565876641
  H         0.0364510974        3.6788017772        8.4461248959
  H        -3.6517971741       -1.6837457515        6.3206883050
  H         2.2268042035        7.4614700381       -0.1112756998
  H         6.0747973301        4.8611096111        0.1931681247
  H         3.6566899796       -2.6122426908        5.8846893943
  H         1.0302505102        9.2852446685        7.2912495434
  H        -6.0350279356        3.8030887530        9.0050346026
  H        10.7896944777        3.1123513448        4.2044001668
  H        -3.6155589950        2.5301608931        5.6836492042
  H        -1.3195906337       10.9910659108        4.1197522502
  H         2.2201443794       12.2115430218        2.6074467619
  H         8.7248277269       -0.8396683596        3.4156711866
  H         4.8351626490        7.1187049136        2.3399535089
  H         0.1514557626        0.1364944605       10.7113926554
  H         7.3391128085        0.0004683181        9.7783277074
  H         5.8594581572       -0.4790190295       10.5289719254
  H         7.8549533540        4.2734590519        8.6615459397
  H         7.3161711527        4.6698734717        7.0388251715
  H         6.8726770519       -4.9889006778        9.5965242481
  H         5.5887519610       -3.8932985225       10.0536904396
  H         1.4244799656        1.8645951776        9.3966462135
  H         1.0016705044        5.1907814590        6.6797212668
  H         6.0429121086        8.8647826677        3.8478413169
  H        -7.7326732083        8.8763049892        4.6934997922
  C         8.5507408052        4.3599077446        4.7494332339
  C        -3.8177598651        2.4913503156        8.4114310910
  C         3.8232919057       -2.7224232710        8.5161146974
  C         0.8256676689        9.4326678771        4.6276998888
  C         9.4489158700        3.7638496791        5.7463276337
  C        -4.7457439951        3.1213097877        7.4354559533
  C         4.7676934142       -3.3311443445        7.5717077840
  C        -0.0592544737       10.0826164651        5.6286899477
  C         9.1699886669        3.7903270305        7.1501078827
  C        -4.4959094426        3.0511025963        6.0491946539
  C         5.8945756353       -4.0955227479        8.0243357546
  C        -1.1486669341       10.8645156348        5.1849585517
  C         0.1873069651        9.9015239100        6.9848388199
  C         4.5288527795       -3.1874716518        6.1870768447
  C        10.6170200143        3.1168329284        5.2781504412
  C        -5.8779092479        3.7651055941        7.9285265342
  C         2.9129575003        4.1944705182        6.6684556955
  C         1.8393234171        2.5152895706        8.6290222846
  C         6.4797451594        9.5095200032        4.6087875774
  C        -1.8645085541       -2.8742336855        6.5061964655
  C         8.7653522770        1.2614391301        0.0658706141
  C         2.3081943098       13.0570084316        0.0875974441
  C        11.2321186605        7.0427580220       -0.0565621753
  C        -2.1286860106        8.5818713107       -0.0706570174
  C         3.4848340164        5.0849542700        5.6293421344
  C        -1.2600685996       -1.9822667832        7.5248915669
  C         8.6174071510        2.7200739214        0.0444546948
  C         2.2078545375       11.6205793812        0.0503428086
  C         9.9339417310        6.4191635903       -0.0136334113
  C        -0.7201695059        8.9903058418       -0.0438555035
  C         1.5900795308        4.3838466728        7.1111699181
  C         3.1550918085        2.3190013978        8.1908076850
  C         5.7833717850       10.6445796384        5.0431329535
  C        -1.1708448081       -4.0182056396        6.0673956164
  C         8.8289248866        0.5950252612        1.2940499170
  C        -2.3461102920        6.6955415547       11.9461559190
  C        11.8843573747        7.3148143633        1.1785513855
  C        -7.3941250749        1.2940688043       11.7950925104
  C         7.7404112790        9.2038955327        5.1373613239
  C        -3.1331558881       -2.5745587451        5.9732069025
  C         3.6931023768        3.1559782259        7.2127994488
  C         1.0566550691        3.5441242494        8.0900899563
  C         7.2894438319        0.2517298725       11.8067770116
  C        -2.8255060685        8.3513659689        1.1406407646
  C         4.1373059142       -6.5414550810       11.9494508858
  C         2.3436113150       13.8050213494        1.3169014846
  N         2.4295958863       13.2045196548        2.5504808101
  N         6.7094451630        0.0782475689       10.5687367420
  N         8.0543239134        4.3793912811        7.6751470433
  N         6.2186158132       -4.2591891804        9.3429315739
  O         7.3690962364        4.7576870473        5.1141707276
  O        -3.0359811724        1.5524260202        8.0035705691
  O         4.1939177003       -2.6074118199        9.7419337540
  O         0.7544509461        9.8520235951        3.4244170051
  O         1.5997421266        8.4767309759        5.0169039598
  O         2.6567765568       -2.3457288790        8.1025998824
  O         8.9596866938        4.4442923876        3.5365637263
  O        -3.8737370221        2.9062503575        9.6180088123
  O         6.2793049621        4.1771355853        2.5402437391
  O        -1.3636699632        2.0373795504       10.1227842041
  O         7.2166755860        6.4639815546        2.9894269158
  O        -3.1195142672        0.3098527011       10.5861766138
  O         1.4807060483       -2.8823187401       10.6835386031
  O         3.2666742123        8.9967905871        2.9136027601
  O         2.4483866325       -0.6242731569       10.2340005140
  O         1.5525271634        7.2419381593        2.4214694988
  O         4.7009866501        4.8914068060        5.2648854457
  O        -1.9290007737       -0.9578254768        7.9131243507
  O         3.8505007147       -3.7581833980       11.9988148219
  O         2.1264107867       10.9260534092        1.1478375755
  O         4.6657730840       -0.9545235473       11.9880881448
  O        -0.1347604522        9.0853151984        1.0998577344
  O        -0.0937242702       -2.2665966061        7.9776476907
  O         2.7485693351        6.0128597160        5.1404390117
  O         9.3975318838        6.1207260618        1.1336827125
  O        -4.7587755047        2.1532007715       11.9341310425
  O         8.6072936721        3.3524697320        1.1656992248
  O        -2.4757377276        3.9366416563       12.0008234445
  O         4.4763982538        6.5724433860        3.0636132477
  O        -0.2217360636       -0.4179781031       10.0018286358
  O         6.9176603413        5.3473071990        0.1119792906
  O         2.3579961307        8.4273832156       -0.0539885402
     124
 i =       47, E =     -1301.9381115916
 Ti        -2.8631424855        2.2011587760       11.2585292234
 Ti         7.9550813468        5.0983649876        1.8902081504
 Ti         1.2372881485       -1.7094253475        9.4200471738
 Ti         2.7429659176        7.4421724467        3.6752995665
 Ti         1.7518421202        9.1109549545        1.7631695838
 Ti         3.1061210130       -1.9743240696       11.3853579744
 Ti        -1.9180460017        0.4843708469        9.3514068430
 Ti         5.9751294724        5.3884905411        3.7423049111
  H         3.7464629519        1.5131804918        8.6216169271
  H        -0.1907425932       -4.2334756474        6.4875011206
  H         4.8071700225       10.8688155060        4.6162147330
  H        -2.3690044370        6.1058450658       11.0330547033
  H         8.8243760882        1.1861184684        2.2078701308
  H        -6.8320196368        1.4778644351       10.8808270375
  H        11.3355518919        7.1046007527        2.0927422033
  H         4.0793552122       -6.0120633525       11.0021780533
  H        -2.3215822183        8.5325517067        2.0857687518
  H         4.7108520976        3.0198906980        6.8557804403
  H         0.0363243714        3.6804587235        8.4474778378
  H        -3.6513147114       -1.6833176971        6.3200253524
  H         2.2271311717        7.4617892103       -0.1110455699
  H         6.0748758674        4.8614867480        0.1932455013
  H         3.6564344832       -2.6127365557        5.8852754347
  H         1.0300985171        9.2847213300        7.2910549050
  H        -6.0378115391        3.7989779004        9.0047760440
  H        10.7904166994        3.1141200307        4.2044960913
  H        -3.6149440804        2.5313351505        5.6837263652
  H        -1.3201204169       10.9905488886        4.1199267875
  H         2.2210184067       12.2117490945        2.6074885552
  H         8.7274325200       -0.8393219856        3.4156789771
  H         4.8350053085        7.1184045201        2.3397032620
  H         0.1514113176        0.1363776325       10.7111168667
  H         7.3393069547       -0.0004124304        9.7782975787
  H         5.8598250687       -0.4797874105       10.5289737823
  H         7.8513577038        4.2679952746        8.6607504764
  H         7.3139951828        4.6664910903        7.0380081381
  H         6.8723637321       -4.9902334094        9.5964488229
  H         5.5880605075       -3.8953155481       10.0538997631
  H         1.4238416669        1.8657325193        9.3977169649
  H         1.0014962378        5.1916010841        6.6803708395
  H         6.0434182775        8.8653256969        3.8470333693
  H        -7.7326499947        8.8761993959        4.6934139189
  C         8.5504712455        4.3596134034        4.7494252525
  C        -3.8183637285        2.4906401732        8.4112433334
  C         3.8229999703       -2.7232680027        8.5163515715
  C         0.8255291700        9.4322602475        4.6277167336
  C         9.4482117563        3.7630347356        5.7462172250
  C        -4.7467488368        3.1200444765        7.4353200341
  C         4.7672798384       -3.3322529609        7.5719736008
  C        -0.0596453092       10.0819215029        5.6287052348
  C         9.1681467054        3.7875731584        7.1498290224
  C        -4.4959576642        3.0512736959        6.0491398195
  C         5.8941243321       -4.0966420772        8.0244618718
  C        -1.1491986890       10.8637042206        5.1851272436
  C         0.1868848863        9.9006604638        6.9848261236
  C         4.5284123575       -3.1883453562        6.1873855951
  C        10.6170698213        3.1172689023        5.2781784986
  C        -5.8798908580        3.7621794734        7.9283416328
  C         2.9123270617        4.1943352928        6.6684267254
  C         1.8387105471        2.5160347430        8.6297717686
  C         6.4801126821        9.5098698862        4.6081913378
  C        -1.8643651367       -2.8741812533        6.5059179029
  C         8.7646964665        1.2615192351        0.0657708831
  C         2.3074412660       13.0571495889        0.0874508054
  C        11.2325594790        7.0418935980       -0.0567552384
  C        -2.1283681445        8.5811737029       -0.0709333156
  C         3.4844273121        5.0845597350        5.6293080374
  C        -1.2602060378       -1.9825192078        7.5248572502
  C         8.6169217768        2.7202040391        0.0444429076
  C         2.2073244390       11.6206732108        0.0501891559
  C         9.9340346751        6.4189393807       -0.0137157465
  C        -0.7200288098        8.9903520915       -0.0439018383
  C         1.5897227145        4.3844546098        7.1117059232
  C         3.1541310941        2.3188652122        8.1908674795
  C         5.7838222725       10.6450472881        5.0423873095
  C        -1.1708246280       -4.0183163356        6.0673147721
  C         8.8289964039        0.5951263869        1.2938772377
  C        -2.3479027130        6.6956318385       11.9460033383
  C        11.8849022177        7.3136614801        1.1783447541
  C        -7.3940183948        1.2938551462       11.7948232158
  C         7.7405710664        9.2039547294        5.1370879156
  C        -3.1328082856       -2.5742720507        5.9726329882
  C         3.6921048138        3.1554623967        7.2125398722
  C         1.0562879515        3.5451497744        8.0909854113
  C         7.2895725585        0.2515439965       11.8065575224
  C        -2.8250123643        8.3502626469        1.1403191881
  C         4.1355943968       -6.5413868746       11.9493686736
  C         2.3435783062       13.8051740618        1.3167508366
  N         2.4306381741       13.2046469189        2.5502206770
  N         6.7094298659        0.0780723457       10.5684671609
  N         8.0515127495        4.3749830488        7.6746323342
  N         6.2182075610       -4.2604880766        9.3430282275
  O         7.3688193827        4.7573915464        5.1140777419
  O        -3.0361774489        1.5520528807        8.0033595003
  O         4.1938440876       -2.6077452765        9.7420517301
  O         0.7543904543        9.8518497964        3.4245328440
  O         1.5997439848        8.4764356118        5.0169573098
  O         2.6564002573       -2.3468514332        8.1027825502
  O         8.9597125330        4.4444995474        3.5366755275
  O        -3.8743176499        2.9057584480        9.6177192584
  O         6.2792048127        4.1771047686        2.5402423879
  O        -1.3639997381        2.0376348456       10.1223789625
  O         7.2165823477        6.4639192855        2.9895321598
  O        -3.1193546280        0.3097831955       10.5861899659
  O         1.4801963579       -2.8822449490       10.6842059126
  O         3.2665784872        8.9969232762        2.9137483525
  O         2.4482747836       -0.6246432165       10.2336703801
  O         1.5529647392        7.2418450241        2.4210948325
  O         4.7005465481        4.8906629779        5.2647442724
  O        -1.9294091287       -0.9583508094        7.9133675227
  O         3.8500358100       -3.7581886643       11.9986898056
  O         2.1263499787       10.9261332860        1.1476755702
  O         4.6657916173       -0.9547639736       11.9880843427
  O        -0.1346688380        9.0849933494        1.0999290398
  O        -0.0938969989       -2.2668921145        7.9776949281
  O         2.7484898988        6.0127373273        5.1404439260
  O         9.3977685006        6.1204907151        1.1336688487
  O        -4.7585582292        2.1533048987       11.9341115339
  O         8.6075866091        3.3527836998        1.1655829803
  O        -2.4757583269        3.9367518449       12.0006529295
  O         4.4763282557        6.5724830780        3.0636549418
  O        -0.2217442991       -0.4178788873       10.0013811347
  O         6.9177203184        5.3476590706        0.1120827993
  O         2.3580400897        8.4277364925       -0.0540176862
     124
 i =       48, E =     -1301.9381123417
 Ti        -2.8631102455        2.2011863729       11.2582425833
 Ti         7.9550435739        5.0985206209        1.8902720882
 Ti         1.2371115520       -1.7096338593        9.4200525291
 Ti         2.7430292526        7.4420364233        3.6752085062
 Ti         1.7520520054        9.1109071600        1.7631919271
 Ti         3.1060942053       -1.9742441515       11.3853057598
 Ti        -1.9181566244        0.4843119081        9.3511741797
 Ti         5.9750184786        5.3883666082        3.7423734007
  H         3.7456165691        1.5128408887        8.6214347325
  H        -0.1909047101       -4.2335426324        6.4877903398
  H         4.8074946133       10.8692368350        4.6156960707
  H        -2.3708775844        6.1061630875       11.0328266791
  H         8.8250121185        1.1862033183        2.2078168839
  H        -6.8321132519        1.4778793650       10.8805160912
  H        11.3362836122        7.1035917111        2.0926847526
  H         4.0777636018       -6.0121102407       11.0021048702
  H        -2.3211748505        8.5314274239        2.0855209051
  H         4.7099954765        3.0190559028        6.8550779318
  H         0.0362165140        3.6817671417        8.4482742866
  H        -3.6510137670       -1.6830705358        6.3197637229
  H         2.2272184098        7.4619796116       -0.1109843323
  H         6.0749229936        4.8616777612        0.1930339849
  H         3.6562470387       -2.6131361770        5.8857098961
  H         1.0299751603        9.2842437964        7.2908668934
  H        -6.0398016260        3.7961318763        9.0045569697
  H        10.7908064707        3.1150325807        4.2045731429
  H        -3.6146062724        2.5320913986        5.6837858607
  H        -1.3205822562       10.9898840608        4.1199342741
  H         2.2214966200       12.2119339333        2.6074832976
  H         8.7287482615       -0.8391352233        3.4156047350
  H         4.8350229672        7.1183623719        2.3394755736
  H         0.1516069348        0.1364733524       10.7108264414
  H         7.3395902880       -0.0012425016        9.7783114868
  H         5.8601198058       -0.4801709648       10.5289048801
  H         7.8490065681        4.2644944925        8.6602349071
  H         7.3125242583        4.6642064708        7.0375187994
  H         6.8723779849       -4.9909668836        9.5963237768
  H         5.5875121537       -3.8968959503       10.0540718217
  H         1.4233401449        1.8666992931        9.3984718249
  H         1.0015297737        5.1922115671        6.6805219186
  H         6.0438206812        8.8658049122        3.8465067681
  H        -7.7326081455        8.8761754933        4.6933724227
  C         8.5502401549        4.3592776089        4.7494182387
  C        -3.8188875265        2.4901425320        8.4110786636
  C         3.8228298295       -2.7237270444        8.5163757671
  C         0.8254394384        9.4319483868        4.6276651209
  C         9.4476335902        3.7623170280        5.7461414820
  C        -4.7475095373        3.1191284293        7.4352572435
  C         4.7669719106       -3.3330470666        7.5720753949
  C        -0.0598913008       10.0813393533        5.6286537047
  C         9.1668301423        3.7857085665        7.1496341710
  C        -4.4960653490        3.0513658803        6.0491376238
  C         5.8937718964       -4.0975081235        8.0244873438
  C        -1.1495833481       10.8630278532        5.1851646950
  C         0.1866370246        9.9000565143        6.9847915430
  C         4.5281458784       -3.1889973050        6.1875257992
  C        10.6169924708        3.1173533047        5.2781828359
  C        -5.8813069529        3.7601836255        7.9281941177
  C         2.9119666588        4.1942290927        6.6683122073
  C         1.8382498702        2.5165934098        8.6301778429
  C         6.4803881922        9.5101901055        4.6078478098
  C        -1.8643269620       -2.8741573909        6.5058010341
  C         8.7643056101        1.2616693356        0.0657187606
  C         2.3067265140       13.0572695033        0.0872690232
  C        11.2327192914        7.0417299091       -0.0568809250
  C        -2.1281440232        8.5809811101       -0.0711747600
  C         3.4842289911        5.0843393403        5.6292948603
  C        -1.2603414712       -1.9828235698        7.5249694776
  C         8.6169540926        2.7204107011        0.0443972850
  C         2.2072076909       11.6207170035        0.0500132993
  C         9.9342912747        6.4184620387       -0.0137427825
  C        -0.7197143011        8.9899693090       -0.0439824290
  C         1.5895439158        4.3849201899        7.1119282782
  C         3.1534659545        2.3187726905        8.1908544325
  C         5.7840749969       10.6454057083        5.0419497601
  C        -1.1708369103       -4.0183585874        6.0673031455
  C         8.8291057000        0.5952237184        1.2937545231
  C        -2.3491199219        6.6957825789       11.9458792984
  C        11.8853816579        7.3127567919        1.1781648856
  C        -7.3939065731        1.2936735006       11.7946198573
  C         7.7406952319        9.2040233155        5.1369358266
  C        -3.1326219868       -2.5740777379        5.9723457719
  C         3.6914552759        3.1550820990        7.2122769253
  C         1.0560477618        3.5459777310        8.0914968700
  C         7.2897951846        0.2511333022       11.8063815544
  C        -2.8245947188        8.3494807514        1.1400447707
  C         4.1345746382       -6.5412505620       11.9493158407
  C         2.3437130474       13.8053115845        1.3165969798
  N         2.4311908537       13.2047715480        2.5499972200
  N         6.7095107956        0.0780003724       10.5682385476
  N         8.0496529036        4.3721633551        7.6743131911
  N         6.2177671614       -4.2615758832        9.3430598007
  O         7.3686097244        4.7571480353        5.1139845651
  O        -3.0364918457        1.5516962965        8.0032186365
  O         4.1938111496       -2.6079156635        9.7419862300
  O         0.7544810211        9.8518590382        3.4245890947
  O         1.5996763321        8.4761619612        5.0169735859
  O         2.6562845370       -2.3473083166        8.1027284356
  O         8.9596877533        4.4445872630        3.5367720495
  O        -3.8746511047        2.9054785376        9.6174805864
  O         6.2791939769        4.1771154060        2.5404082378
  O        -1.3642183451        2.0378378564       10.1219701891
  O         7.2164405497        6.4639233353        2.9895189231
  O        -3.1192844207        0.3097385572       10.5859969144
  O         1.4798813689       -2.8821225577       10.6844612734
  O         3.2664644723        8.9969890100        2.9139859910
  O         2.4482346482       -0.6247924831       10.2334960534
  O         1.5533703719        7.2417015142        2.4206478710
  O         4.7003863743        4.8903398907        5.2647787655
  O        -1.9295529169       -0.9587054497        7.9135854446
  O         3.8497266670       -3.7581744642       11.9985314027
  O         2.1262756484       10.9261926603        1.1474685987
  O         4.6657334297       -0.9547564328       11.9881096767
  O        -0.1345863943        9.0849455981        1.1000095675
  O        -0.0940540084       -2.2672790621        7.9778268344
  O         2.7484435526        6.0125719291        5.1403582797
  O         9.3978636615        6.1205668223        1.1337266846
  O        -4.7583485817        2.1535814241       11.9340885018
  O         8.6077302175        3.3530483723        1.1654783360
  O        -2.4759039593        3.9368717268       12.0004092965
  O         4.4762663362        6.5725829805        3.0635071942
  O        -0.2216844807       -0.4178237315       10.0011981939
  O         6.9177357987        5.3479188396        0.1121144984
  O         2.3581400862        8.4279081169       -0.0541139895
     124
 i =       49, E =     -1301.9381130987
 Ti        -2.8630839180        2.2011719277       11.2579729761
 Ti         7.9548288726        5.0986071742        1.8902140860
 Ti         1.2371344429       -1.7095486906        9.4200287032
 Ti         2.7430509270        7.4418666929        3.6750599711
 Ti         1.7522698287        9.1108648596        1.7630542200
 Ti         3.1060856193       -1.9740762861       11.3852235970
 Ti        -1.9181912206        0.4842570279        9.3509951918
 Ti         5.9749796410        5.3882489481        3.7424209730
  H         3.7451759514        1.5126454254        8.6212955177
  H        -0.1909575093       -4.2334288009        6.4880396777
  H         4.8076690020       10.8694529803        4.6154053318
  H        -2.3719369732        6.1063524089       11.0326988914
  H         8.8252854016        1.1862834688        2.2077560360
  H        -6.8321630135        1.4778003922       10.8803635218
  H        11.3365746951        7.1032816250        2.0926286079
  H         4.0773546816       -6.0121134539       11.0020032908
  H        -2.3210595550        8.5309564833        2.0855089087
  H         4.7096343646        3.0185739772        6.8545631444
  H         0.0361944430        3.6824696332        8.4484913951
  H        -3.6510016630       -1.6830042183        6.3198730982
  H         2.2271771838        7.4619733927       -0.1110824833
  H         6.0748485241        4.8617371218        0.1926244556
  H         3.6562219896       -2.6133924728        5.8858703747
  H         1.0299761353        9.2838628242        7.2908468326
  H        -6.0407652937        3.7948428392        9.0044023841
  H        10.7909676538        3.1152309483        4.2046331126
  H        -3.6144317629        2.5326023962        5.6838297294
  H        -1.3207794342       10.9893135238        4.1198363592
  H         2.2216639807       12.2120740984        2.6074369871
  H         8.7288764280       -0.8390761733        3.4154608134
  H         4.8351672591        7.1185231102        2.3393758466
  H         0.1521947756        0.1370435342       10.7102738816
  H         7.3398081548       -0.0017998063        9.7783630960
  H         5.8602387384       -0.4801759617       10.5287583057
  H         7.8481280037        4.2631968866        8.6600590838
  H         7.3118780243        4.6632167188        7.0373741835
  H         6.8726261759       -4.9911565608        9.5962687121
  H         5.5872331581       -3.8976962110       10.0541895367
  H         1.4231014651        1.8673247060        9.3988716024
  H         1.0016686774        5.1924634760        6.6802329470
  H         6.0440591115        8.8660950709        3.8462100470
  H        -7.7325764490        8.8762582984        4.6933820294
  C         8.5500652681        4.3589882582        4.7493706630
  C        -3.8192239344        2.4899031438        8.4109776801
  C         3.8228470085       -2.7238346614        8.5162497415
  C         0.8254135555        9.4318726744        4.6277027588
  C         9.4472724858        3.7618764193        5.7461157930
  C        -4.7478664808        3.1187564632        7.4352631240
  C         4.7669376195       -3.3333851909        7.5720509759
  C        -0.0599397701       10.0811041921        5.6286929350
  C         9.1661736089        3.7849080384        7.1495561832
  C        -4.4961744302        3.0514599872        6.0491715853
  C         5.8936689465       -4.0979697352        8.0245135408
  C        -1.1497009786       10.8626952770        5.1851061556
  C         0.1866511962        9.8997433802        6.9848507058
  C         4.5281171811       -3.1893352107        6.1875378606
  C        10.6169012439        3.1173188546        5.2781758238
  C        -5.8819707699        3.7593496706        7.9280907975
  C         2.9118731926        4.1941136629        6.6681420196
  C         1.8380461149        2.5169405160        8.6303375368
  C         6.4805159363        9.5103742489        4.6077019919
  C        -1.8644393887       -2.8742309083        6.5058386677
  C         8.7645186822        1.2617607778        0.0656830289
  C         2.3066777964       13.0572815488        0.0870995404
  C        11.2327804928        7.0415437570       -0.0568931785
  C        -2.1280157494        8.5808349187       -0.0712685070
  C         3.4841827290        5.0842210439        5.6292030914
  C        -1.2604359151       -1.9830988065        7.5251235225
  C         8.6169808318        2.7204793123        0.0442843328
  C         2.2069777950       11.6207170449        0.0498754520
  C         9.9342089741        6.4185420471       -0.0136937709
  C        -0.7196669661        8.9900717927       -0.0440056041
  C         1.5895112916        4.3851136558        7.1117994864
  C         3.1531431365        2.3187086419        8.1907551362
  C         5.7841765180       10.6455927002        5.0417974643
  C        -1.1708722932       -4.0184000265        6.0674258627
  C         8.8293206695        0.5952606260        1.2937067001
  C        -2.3495878034        6.6958952225       11.9458061370
  C        11.8855254345        7.3125812978        1.1780573065
  C        -7.3938355530        1.2936151164       11.7945181713
  C         7.7407575616        9.2041386235        5.1368832457
  C        -3.1326659943       -2.5739866753        5.9723642024
  C         3.6912060421        3.1548116405        7.2120051928
  C         1.0559718713        3.5464130953        8.0915579451
  C         7.2898779165        0.2510548598       11.8063674492
  C        -2.8244072733        8.3491888237        1.1399678900
  C         4.1342691550       -6.5411385076       11.9492383611
  C         2.3437252221       13.8053419931        1.3164638365
  N         2.4314382505       13.2048736565        2.5498667396
  N         6.7096562971        0.0779253167       10.5681839184
  N         8.0488909701        4.3711416487        7.6742143996
  N         6.2174564418       -4.2622794332        9.3431210616
  O         7.3684642604        4.7569566338        5.1139245686
  O        -3.0368931405        1.5513560647        8.0031667926
  O         4.1937705759       -2.6079469309        9.7418390230
  O         0.7546791734        9.8519147379        3.4246451731
  O         1.5995604951        8.4759548372        5.0168490809
  O         2.6564128393       -2.3472137661        8.1026110149
  O         8.9595946411        4.4444913629        3.5367784908
  O        -3.8748206806        2.9053423345        9.6173629179
  O         6.2792211856        4.1770531868        2.5405771993
  O        -1.3643263372        2.0379506420       10.1216436392
  O         7.2162556995        6.4639584388        2.9894171782
  O        -3.1192957695        0.3097327172       10.5857424376
  O         1.4797682950       -2.8820398948       10.6843035921
  O         3.2663666425        8.9969713694        2.9142019804
  O         2.4483441016       -0.6246426534       10.2334421192
  O         1.5535607622        7.2416213346        2.4202856097
  O         4.7003882347        4.8902631866        5.2647896989
  O        -1.9294673022       -0.9588800979        7.9137576812
  O         3.8496767723       -3.7581366623       11.9983809896
  O         2.1263494571       10.9262201385        1.1473397811
  O         4.6657400520       -0.9548593229       11.9881342530
  O        -0.1345456321        9.0848628692        1.1000412475
  O        -0.0941885094       -2.2676144207        7.9780663026
  O         2.7484210404        6.0124223702        5.1402260835
  O         9.3978900557        6.1206544578        1.1338464985
  O        -4.7582346054        2.1535201795       11.9340689296
  O         8.6077881800        3.3532311545        1.1652745818
  O        -2.4759932007        3.9369256359       12.0001924910
  O         4.4762506507        6.5725989092        3.0632463413
  O        -0.2214655272       -0.4176271503       10.0011252849
  O         6.9176944459        5.3480025869        0.1120704184
  O         2.3582558347        8.4278721926       -0.0542655902
     124
 i =       50, E =     -1301.9381138863
 Ti        -2.8631230457        2.2011092439       11.2577262752
 Ti         7.9545053817        5.0986461207        1.8900283891
 Ti         1.2372574693       -1.7093688751        9.4198834513
 Ti         2.7429992840        7.4417328006        3.6748347619
 Ti         1.7524353606        9.1108382774        1.7628496607
 Ti         3.1061871986       -1.9738990500       11.3851509737
 Ti        -1.9182294668        0.4841446182        9.3508022805
 Ti         5.9748680446        5.3880597458        3.7423812079
  H         3.7446346157        1.5123924113        8.6211714691
  H        -0.1910628923       -4.2333427549        6.4883376648
  H         4.8079249095       10.8697427325        4.6148839020
  H        -2.3731909388        6.1063926325       11.0325718954
  H         8.8256419103        1.1863073396        2.2076095708
  H        -6.8322496739        1.4777338527       10.8803834862
  H        11.3366418451        7.1029945259        2.0925959750
  H         4.0770211980       -6.0120172973       11.0019214358
  H        -2.3209500743        8.5304910657        2.0855857143
  H         4.7092164788        3.0178904897        6.8539581978
  H         0.0361949295        3.6832759999        8.4487065204
  H        -3.6510557744       -1.6830210010        6.3199835384
  H         2.2271634543        7.4618601570       -0.1113205539
  H         6.0746191046        4.8618047773        0.1921090503
  H         3.6561838415       -2.6137685542        5.8858925416
  H         1.0298969172        9.2833682450        7.2909332050
  H        -6.0418971363        3.7933188457        9.0043267977
  H        10.7912496253        3.1156013696        4.2047995600
  H        -3.6140099889        2.5334859869        5.6838643849
  H        -1.3208370044       10.9886542526        4.1198879605
  H         2.2219822515       12.2121280051        2.6073908737
  H         8.7289822380       -0.8390311474        3.4152527023
  H         4.8353934764        7.1187019750        2.3394290815
  H         0.1531540791        0.1381004135       10.7093602113
  H         7.3400636351       -0.0023111623        9.7784308514
  H         5.8602273534       -0.4801221039       10.5286100617
  H         7.8471348256        4.2615991363        8.6598996404
  H         7.3110260428        4.6619374206        7.0373057260
  H         6.8728038850       -4.9914199242        9.5963507133
  H         5.5869977122       -3.8984157002       10.0543786814
  H         1.4228957137        1.8681291778        9.3993034196
  H         1.0018792720        5.1927014605        6.6798682552
  H         6.0443547524        8.8664122455        3.8458216036
  H        -7.7324989946        8.8763809228        4.6933420976
  C         8.5497621255        4.3586578884        4.7492371132
  C        -3.8196823902        2.4895553003        8.4109024928
  C         3.8228702080       -2.7239468732        8.5161934333
  C         0.8255236354        9.4317671615        4.6276598431
  C         9.4468430208        3.7613962795        5.7460352361
  C        -4.7482684637        3.1184004322        7.4352576099
  C         4.7669638892       -3.3336396434        7.5720639704
  C        -0.0597783604       10.0808882360        5.6286858571
  C         9.1654881950        3.7839366766        7.1494479277
  C        -4.4961404972        3.0516923357        6.0492205383
  C         5.8936126432       -4.0984337772        8.0245796869
  C        -1.1496745665       10.8623584536        5.1851844241
  C         0.1866605605        9.8994047399        6.9849073221
  C         4.5281179792       -3.1896718071        6.1875797721
  C        10.6168431460        3.1173398645        5.2782508889
  C        -5.8827488287        3.7583580667        7.9280545013
  C         2.9117654583        4.1939274711        6.6678903813
  C         1.8378699502        2.5173929836        8.6304805605
  C         6.4806940959        9.5106196101        4.6074584519
  C        -1.8645828889       -2.8743157241        6.5060335152
  C         8.7647367351        1.2618510685        0.0655262772
  C         2.3066496271       13.0573034614        0.0869921489
  C        11.2327902813        7.0414294849       -0.0568929704
  C        -2.1279586192        8.5807071396       -0.0712406450
  C         3.4841150597        5.0840373789        5.6289627730
  C        -1.2604900751       -1.9833195848        7.5254142765
  C         8.6170171210        2.7205171165        0.0441218607
  C         2.2068438057       11.6207401202        0.0497500377
  C         9.9341552140        6.4186201414       -0.0135968495
  C        -0.7196786261        8.9900055455       -0.0440245399
  C         1.5894861872        4.3852615383        7.1115898778
  C         3.1528037956        2.3186131465        8.1906323268
  C         5.7843061300       10.6458189511        5.0415563166
  C        -1.1709711239       -4.0184127566        6.0675918165
  C         8.8297014581        0.5953361451        1.2935659875
  C        -2.3500694400        6.6958924100       11.9457115235
  C        11.8855497356        7.3123915467        1.1780305380
  C        -7.3938230581        1.2935319907       11.7945389770
  C         7.7408042389        9.2042273467        5.1368676772
  C        -3.1327331545       -2.5739695442        5.9724468692
  C         3.6909141788        3.1544293869        7.2116240489
  C         1.0559001851        3.5469225896        8.0916233888
  C         7.2898873684        0.2509686796       11.8063497121
  C        -2.8243562709        8.3489548546        1.1400031684
  C         4.1341906798       -6.5411209428       11.9491039549
  C         2.3439900536       13.8053820256        1.3163679745
  N         2.4318474684       13.2049049426        2.5497533967
  N         6.7098059361        0.0777125336       10.5681433876
  N         8.0479904090        4.3697707879        7.6741033058
  N         6.2170477106       -4.2631266918        9.3432402979
  O         7.3681852919        4.7567752621        5.1138267059
  O        -3.0375531286        1.5508220560        8.0030934386
  O         4.1938174686       -2.6080699554        9.7417348861
  O         0.7547609893        9.8520201669        3.4246509130
  O         1.5994117143        8.4756000514        5.0166864827
  O         2.6566013241       -2.3470698459        8.1024392830
  O         8.9593911942        4.4442386791        3.5367075398
  O        -3.8751009500        2.9051061498        9.6172747779
  O         6.2792499921        4.1768656492        2.5406643227
  O        -1.3644604760        2.0379703247       10.1212731938
  O         7.2160250544        6.4639076134        2.9892730106
  O        -3.1193022639        0.3096850585       10.5855396530
  O         1.4797307945       -2.8818646802       10.6839979466
  O         3.2663638925        8.9969091343        2.9143110129
  O         2.4484808679       -0.6244487611       10.2334970833
  O         1.5535987619        7.2415684133        2.4199262409
  O         4.7002957762        4.8900168201        5.2645658910
  O        -1.9293970441       -0.9589899332        7.9139083056
  O         3.8496878786       -3.7581918469       11.9981897694
  O         2.1264236857       10.9261993143        1.1471914981
  O         4.6657108825       -0.9549164206       11.9882170688
  O        -0.1345358678        9.0848409120        1.0999929474
  O        -0.0942886034       -2.2680239708        7.9783488207
  O         2.7484183642        6.0122782285        5.1400036798
  O         9.3977414968        6.1208752919        1.1339476995
  O        -4.7582667460        2.1533426306       11.9340462285
  O         8.6077632789        3.3533306818        1.1650419467
  O        -2.4761819378        3.9368917679       12.0000529210
  O         4.4761753182        6.5724923073        3.0629560283
  O        -0.2210922321       -0.4172577886       10.0010454301
  O         6.9175790231        5.3479875088        0.1119324313
  O         2.3584064603        8.4277355872       -0.0544142504
     124
 i =       51, E =     -1301.9381145920
 Ti        -2.8631398349        2.2011267671       11.2574920578
 Ti         7.9542900334        5.0987121370        1.8897782535
 Ti         1.2374075131       -1.7091683861        9.4197861658
 Ti         2.7429251315        7.4416474019        3.6745253703
 Ti         1.7525583141        9.1109058093        1.7625302131
 Ti         3.1063756004       -1.9736607683       11.3850598798
 Ti        -1.9182935317        0.4840053165        9.3507374315
 Ti         5.9747337643        5.3878885314        3.7422463714
  H         3.7436756177        1.5120788623        8.6209491654
  H        -0.1912110786       -4.2334523012        6.4886151561
  H         4.8083051384       10.8702280546        4.6141378538
  H        -2.3750464476        6.1063957967       11.0324841994
  H         8.8262383216        1.1864018722        2.2073973611
  H        -6.8321999724        1.4776834518       10.8804308686
  H        11.3367683539        7.1023289373        2.0925027032
  H         4.0760850919       -6.0117767966       11.0018225945
  H        -2.3205447342        8.5296825322        2.0856029594
  H         4.7085337048        3.0168570932        6.8532129660
  H         0.0362343495        3.6845499867        8.4491237941
  H        -3.6511241396       -1.6830233504        6.3199924187
  H         2.2272398721        7.4618403646       -0.1116565602
  H         6.0744217796        4.8619250772        0.1916325076
  H         3.6559525587       -2.6145640524        5.8858012543
  H         1.0296935972        9.2826088005        7.2909995483
  H        -6.0436044179        3.7908665072        9.0041609643
  H        10.7915859721        3.1162226711        4.2048889825
  H        -3.6135595633        2.5345497466        5.6839645543
  H        -1.3210837123       10.9878449524        4.1199582235
  H         2.2223707311       12.2122399446        2.6072769549
  H         8.7294354811       -0.8389087027        3.4150263430
  H         4.8356257800        7.1188261178        2.3395165079
  H         0.1540332638        0.1392134883       10.7084181791
  H         7.3404275189       -0.0030031928        9.7784328108
  H         5.8602757464       -0.4802496854       10.5284548238
  H         7.8453888350        4.2587461937        8.6596252167
  H         7.3096323827        4.6599075874        7.0370405209
  H         6.8727793256       -4.9920867133        9.5963993221
  H         5.5866754743       -3.8994171280       10.0545487510
  H         1.4225159093        1.8692635006        9.3998804932
  H         1.0020933884        5.1932301049        6.6796791275
  H         6.0447185735        8.8668499451        3.8452382213
  H        -7.7323906747        8.8765215418        4.6932100104
  C         8.5494306319        4.3582780535        4.7491001966
  C        -3.8202775554        2.4888924828        8.4108772622
  C         3.8228682689       -2.7241607133        8.5161851723
  C         0.8254530777        9.4315355084        4.6274945075
  C         9.4462632948        3.7606127035        5.7459548378
  C        -4.7489542352        3.1176108771        7.4352496437
  C         4.7668080812       -3.3341650829        7.5720603668
  C        -0.0598103179       10.0804189439        5.6287053910
  C         9.1643384523        3.7823039619        7.1492886299
  C        -4.4962271606        3.0518460215        6.0492796120
  C         5.8933493329       -4.0991928071        8.0246098108
  C        -1.1497358289       10.8618113192        5.1852209637
  C         0.1866223767        9.8989027574        6.9849467113
  C         4.5279935295       -3.1902725793        6.1875778641
  C        10.6167488632        3.1173688037        5.2782606710
  C        -5.8839785547        3.7566517717        7.9279311288
  C         2.9115389317        4.1937513240        6.6675333363
  C         1.8374903548        2.5180416717        8.6306646732
  C         6.4809290720        9.5109226747        4.6070805326
  C        -1.8647146683       -2.8744785996        6.5062389278
  C         8.7647780615        1.2619434847        0.0653779276
  C         2.3064023556       13.0573735189        0.0867724141
  C        11.2329135542        7.0411807876       -0.0568926376
  C        -2.1278128308        8.5803941281       -0.0712586143
  C         3.4839757446        5.0837988838        5.6285349208
  C        -1.2605329040       -1.9835271556        7.5256643840
  C         8.6170397053        2.7205761197        0.0439115935
  C         2.2067104605       11.6208142643        0.0495909042
  C         9.9341818244        6.4186862104       -0.0135715335
  C        -0.7196268621        8.9898289194       -0.0441439452
  C         1.5894471236        4.3856644811        7.1114777494
  C         3.1521848471        2.3185757779        8.1904707893
  C         5.7844995888       10.6460956789        5.0411815469
  C        -1.1710664598       -4.0184916545        6.0677360574
  C         8.8300782760        0.5954104815        1.2934086807
  C        -2.3509902609        6.6959947426       11.9455256019
  C        11.8857424580        7.3119684683        1.1780362463
  C        -7.3937553934        1.2933153582       11.7945314776
  C         7.7408779231        9.2043226031        5.1367578542
  C        -3.1327293618       -2.5739093537        5.9724028932
  C         3.6904057802        3.1539713486        7.2111445373
  C         1.0557935262        3.5477691981        8.0918283800
  C         7.2899728763        0.2506690547       11.8063211460
  C        -2.8241075632        8.3484087235        1.1400184135
  C         4.1336240736       -6.5409973259       11.9489404074
  C         2.3442508906       13.8054036245        1.3161435198
  N         2.4324255701       13.2049907005        2.5495654354
  N         6.7100616304        0.0772825252       10.5680625440
  N         8.0463492608        4.3672314785        7.6738861316
  N         6.2164515777       -4.2643414809        9.3432849200
  O         7.3679158954        4.7567475366        5.1136825594
  O        -3.0383251776        1.5500329826        8.0030401713
  O         4.1938421778       -2.6082726369        9.7416919087
  O         0.7547978964        9.8520455112        3.4245553195
  O         1.5992727865        8.4752578629        5.0163863527
  O         2.6566937777       -2.3470374883        8.1024143395
  O         8.9591346687        4.4440001528        3.5366258516
  O        -3.8754425091        2.9047699847        9.6171414627
  O         6.2792838466        4.1766951404        2.5405388101
  O        -1.3646039348        2.0380530244       10.1207776076
  O         7.2158750934        6.4638176357        2.9891511026
  O        -3.1192932645        0.3096185440       10.5855854813
  O         1.4798035124       -2.8816797508       10.6837563235
  O         3.2664389572        8.9968535682        2.9142141606
  O         2.4487019225       -0.6242258806       10.2334957460
  O         1.5535685338        7.2416362059        2.4195239881
  O         4.7001239054        4.8896643712        5.2642185854
  O        -1.9293151610       -0.9590930668        7.9140749953
  O         3.8497406548       -3.7581712717       11.9979991602
  O         2.1264952166       10.9262430699        1.1470453869
  O         4.6657399686       -0.9548919276       11.9882156688
  O        -0.1344468358        9.0848385930        1.0997880345
  O        -0.0943682374       -2.2682789695        7.9786123273
  O         2.7483736047        6.0121756085        5.1396935400
  O         9.3976202529        6.1211211122        1.1339355174
  O        -4.7583291358        2.1531585405       11.9339028761
  O         8.6077363797        3.3533902533        1.1648129626
  O        -2.4763838480        3.9368659500       11.9999395367
  O         4.4761155629        6.5723292084        3.0626891909
  O        -0.2207442687       -0.4168343635       10.0009078788
  O         6.9175013133        5.3479864099        0.1117376856
  O         2.3586134122        8.4277168098       -0.0546399459
     124
 i =       52, E =     -1301.9381151885
 Ti        -2.8632238852        2.2011219005       11.2574042577
 Ti         7.9541115322        5.0986599412        1.8895714663
 Ti         1.2375930711       -1.7090009249        9.4196324931
 Ti         2.7428723053        7.4415625927        3.6741890084
 Ti         1.7525566335        9.1109851491        1.7622860206
 Ti         3.1065744279       -1.9735001896       11.3849091253
 Ti        -1.9183574896        0.4838316334        9.3507683363
 Ti         5.9746179944        5.3876573942        3.7420373018
  H         3.7425831911        1.5117162039        8.6207501603
  H        -0.1914151209       -4.2337802380        6.4888865448
  H         4.8088152590       10.8707983082        4.6132573307
  H        -2.3768756028        6.1063262652       11.0323681995
  H         8.8270907431        1.1864306297        2.2071593442
  H        -6.8320988846        1.4776516653       10.8805426518
  H        11.3368270238        7.1016450563        2.0924691975
  H         4.0749397635       -6.0115928379       11.0017268069
  H        -2.3201388673        8.5288496444        2.0856644244
  H         4.7077088672        3.0155971689        6.8524414852
  H         0.0362769282        3.6859548784        8.4497073786
  H        -3.6511715565       -1.6830262240        6.3198523507
  H         2.2273313103        7.4618540246       -0.1119833288
  H         6.0742101675        4.8620680326        0.1912235744
  H         3.6557695726       -2.6154032968        5.8856238531
  H         1.0294781412        9.2818792252        7.2911369611
  H        -6.0456129762        3.7879880461        9.0040201273
  H        10.7920454187        3.1172681604        4.2050173526
  H        -3.6128959903        2.5358988312        5.6841374693
  H        -1.3211908493       10.9871341884        4.1200665858
  H         2.2229781782       12.2122582664        2.6070828024
  H         8.7302389155       -0.8388660542        3.4147759565
  H         4.8358395068        7.1188543152        2.3397013642
  H         0.1548952445        0.1405004528       10.7073109208
  H         7.3406947212       -0.0036454335        9.7784896002
  H         5.8602742703       -0.4804020547       10.5283675849
  H         7.8432179706        4.2551829941        8.6592931229
  H         7.3079161194        4.6574542862        7.0366857234
  H         6.8726540473       -4.9929112674        9.5964729265
  H         5.5862927555       -3.9004826797       10.0547316437
  H         1.4220784791        1.8704450374        9.4005718637
  H         1.0022336735        5.1937944897        6.6796668159
  H         6.0451267739        8.8673042100        3.8445016411
  H        -7.7322626902        8.8766466810        4.6930051296
  C         8.5490472994        4.3579267774        4.7489286761
  C        -3.8209355080        2.4881477905        8.4108461586
  C         3.8228487005       -2.7245348569        8.5162158377
  C         0.8255028549        9.4312688174        4.6274034561
  C         9.4456163558        3.7598620421        5.7458425679
  C        -4.7497414963        3.1167678345        7.4351808951
  C         4.7666842982       -3.3348013377        7.5721200865
  C        -0.0598146124       10.0799856951        5.6287348741
  C         9.1629724103        3.7803178819        7.1490778191
  C        -4.4962369435        3.0520985871        6.0493058039
  C         5.8931745323       -4.0999368853        8.0246743855
  C        -1.1498430607       10.8611714153        5.1853046833
  C         0.1864479025        9.8981682877        6.9849608503
  C         4.5278667068       -3.1909026615        6.1876289842
  C        10.6166867736        3.1176125535        5.2783168955
  C        -5.8854458041        3.7546053577        7.9278177384
  C         2.9112268216        4.1935127848        6.6671773411
  C         1.8370561624        2.5187799698        8.6310175363
  C         6.4811994154        9.5112198786        4.6065596128
  C        -1.8648093941       -2.8746430238        6.5064025574
  C         8.7647241479        1.2619488426        0.0651391522
  C         2.3061052841       13.0573996389        0.0866333165
  C        11.2329699774        7.0409579467       -0.0569052086
  C        -2.1277465096        8.5800119593       -0.0711633931
  C         3.4837687579        5.0834691045        5.6280911269
  C        -1.2605745653       -1.9836826624        7.5258318978
  C         8.6170671694        2.7205905922        0.0437062764
  C         2.2066178942       11.6208428265        0.0494388138
  C         9.9341920038        6.4186762531       -0.0135465524
  C        -0.7196183528        8.9895808367       -0.0442191083
  C         1.5893412680        4.3860417485        7.1114131563
  C         3.1514236485        2.3184680923        8.1903130534
  C         5.7847870434       10.6463840033        5.0406797491
  C        -1.1711638907       -4.0186232570        6.0678540598
  C         8.8305112486        0.5954796233        1.2931661174
  C        -2.3519453490        6.6959676588       11.9453414175
  C        11.8858844486        7.3114572648        1.1780861626
  C        -7.3936559339        1.2930452182       11.7946018657
  C         7.7409359903        9.2043817119        5.1366134437
  C        -3.1326856019       -2.5738787904        5.9722768791
  C         3.6897492396        3.1533679703        7.2106224536
  C         1.0556376332        3.5486523938        8.0921402135
  C         7.2900961343        0.2503329391       11.8063471053
  C        -2.8239181535        8.3477697048        1.1401362693
  C         4.1328796114       -6.5410107140       11.9487399306
  C         2.3445981928       13.8054499996        1.3159262054
  N         2.4332286983       13.2049824083        2.5493310587
  N         6.7102675523        0.0768208055       10.5680671258
  N         8.0443164327        4.3640261686        7.6736007527
  N         6.2157805045       -4.2656560076        9.3433519300
  O         7.3675951737        4.7566393177        5.1135951383
  O        -3.0390887061        1.5492065489        8.0030948686
  O         4.1938896394       -2.6084547712        9.7416812676
  O         0.7547382071        9.8518620168        3.4245068811
  O         1.5992458685        8.4748501681        5.0161175027
  O         2.6567905820       -2.3469632755        8.1024066819
  O         8.9588690736        4.4436911216        3.5365225457
  O        -3.8758812276        2.9042669885        9.6170244684
  O         6.2791764790        4.1764910911        2.5401717230
  O        -1.3648872380        2.0381791570       10.1202712332
  O         7.2157705442        6.4636730544        2.9890254582
  O        -3.1191921312        0.3094811795       10.5858653529
  O         1.4798916115       -2.8815085605       10.6835460534
  O         3.2665457374        8.9967710135        2.9139613465
  O         2.4489780129       -0.6240743733       10.2334460993
  O         1.5534807160        7.2417170784        2.4191924738
  O         4.6998482829        4.8891085619        5.2637600064
  O        -1.9294084520       -0.9592723476        7.9142306053
  O         3.8497636758       -3.7581898127       11.9978327143
  O         2.1265498215       10.9262667189        1.1469413091
  O         4.6657672557       -0.9548652738       11.9881909072
  O        -0.1343475945        9.0848129708        1.0995985814
  O        -0.0944096356       -2.2683904796        7.9787517613
  O         2.7482944186        6.0120205547        5.1393770317
  O         9.3974717004        6.1212050610        1.1338728819
  O        -4.7584528339        2.1529400123       11.9337885826
  O         8.6077363064        3.3533861093        1.1646201526
  O        -2.4765799748        3.9368166765       11.9998538597
  O         4.4761291660        6.5721173139        3.0625794306
  O        -0.2202869158       -0.4162159656       10.0005398958
  O         6.9174315520        5.3479200996        0.1114942150
  O         2.3587009707        8.4277416487       -0.0547999943
     124
 i =       53, E =     -1301.9381155966
 Ti        -2.8632974613        2.2011876947       11.2573371048
 Ti         7.9540883126        5.0985573623        1.8893875338
 Ti         1.2377835101       -1.7088439923        9.4194599375
 Ti         2.7428369950        7.4415259813        3.6739039907
 Ti         1.7525193499        9.1110442250        1.7621213208
 Ti         3.1067994289       -1.9733893786       11.3847054997
 Ti        -1.9184041154        0.4837252073        9.3508770562
 Ti         5.9745207475        5.3875943807        3.7418128975
  H         3.7416778370        1.5114613365        8.6205109367
  H        -0.1915739004       -4.2341308557        6.4890292817
  H         4.8091817899       10.8712517431        4.6126915709
  H        -2.3781773726        6.1062967861       11.0322353130
  H         8.8278428454        1.1864817151        2.2069651441
  H        -6.8318857068        1.4774905237       10.8806773594
  H        11.3369045125        7.1012122269        2.0925012485
  H         4.0739219837       -6.0115053930       11.0016160107
  H        -2.3198065333        8.5281983399        2.0856779772
  H         4.7070480627        3.0146414931        6.8518579138
  H         0.0362939178        3.6871785239        8.4500673855
  H        -3.6512099349       -1.6830759458        6.3198002519
  H         2.2274111082        7.4619943628       -0.1122906110
  H         6.0741756266        4.8621308612        0.1909367186
  H         3.6555270219       -2.6161530631        5.8854221722
  H         1.0292275490        9.2812827163        7.2911268544
  H        -6.0471084861        3.7858178571        9.0038556313
  H        10.7922228010        3.1179652075        4.2050504286
  H        -3.6125745011        2.5366715189        5.6842969543
  H        -1.3213451142       10.9865910076        4.1200543631
  H         2.2232926697       12.2122930547        2.6067949997
  H         8.7306252696       -0.8388663455        3.4145926834
  H         4.8360308783        7.1188892942        2.3398205086
  H         0.1553629401        0.1413658582       10.7066310515
  H         7.3409583329       -0.0041385843        9.7784959685
  H         5.8603416178       -0.4805504018       10.5283682056
  H         7.8415804620        4.2524811830        8.6590362586
  H         7.3065866289        4.6556272259        7.0364174280
  H         6.8724417275       -4.9935951688        9.5964444755
  H         5.5859945594       -3.9011934872       10.0547277628
  H         1.4216495827        1.8713838508        9.4009669825
  H         1.0023846733        5.1943643130        6.6796921769
  H         6.0454134873        8.8676784914        3.8439316955
  H        -7.7321541718        8.8767341360        4.6927845577
  C         8.5487920230        4.3576538624        4.7488489429
  C        -3.8214125297        2.4874873752        8.4108849568
  C         3.8229340563       -2.7245156140        8.5161258468
  C         0.8254012308        9.4308979861        4.6272216762
  C         9.4451226057        3.7592208476        5.7457748553
  C        -4.7503658703        3.1159741076        7.4351490093
  C         4.7664734042       -3.3352801927        7.5720591155
  C        -0.0599441457       10.0794529383        5.6287252029
  C         9.1618851569        3.7787272289        7.1489134493
  C        -4.4963754790        3.0521152840        6.0493418571
  C         5.8927259447       -4.1007240782        8.0246566493
  C        -1.1499166355       10.8606367956        5.1852672961
  C         0.1863040821        9.8976942649        6.9849351669
  C         4.5276063288       -3.1916065214        6.1875303516
  C        10.6165664082        3.1176862753        5.2783220453
  C        -5.8865553584        3.7529672480        7.9276827877
  C         2.9109923684        4.1933855590        6.6668383521
  C         1.8366583378        2.5193626157        8.6311612076
  C         6.4813852575        9.5114312865        4.6061818557
  C        -1.8648259657       -2.8747639501        6.5065217830
  C         8.7646159025        1.2619460282        0.0649973653
  C         2.3058065509       13.0574671394        0.0864514745
  C        11.2331195168        7.0407509948       -0.0568803556
  C        -2.1276051018        8.5796013668       -0.0711285307
  C         3.4836332083        5.0832442605        5.6277159777
  C        -1.2605766778       -1.9837440835        7.5258932396
  C         8.6171405530        2.7206318061        0.0435634159
  C         2.2065612834       11.6209025238        0.0493262312
  C         9.9342770723        6.4186566014       -0.0135771560
  C        -0.7195333915        8.9894141548       -0.0442989934
  C         1.5892989380        4.3864516767        7.1113760683
  C         3.1507962557        2.3184270745        8.1901258781
  C         5.7849892562       10.6465769587        5.0403571974
  C        -1.1712256722       -4.0187554591        6.0679105767
  C         8.8307743019        0.5954885856        1.2929843371
  C        -2.3527421521        6.6960118956       11.9451271888
  C        11.8860597419        7.3110829464        1.1781819734
  C        -7.3935386783        1.2927162752       11.7946713000
  C         7.7409840984        9.2044132589        5.1364616969
  C        -3.1326145831       -2.5738823984        5.9721972361
  C         3.6892200705        3.1529699371        7.2102093033
  C         1.0555002514        3.5494141996        8.0923280805
  C         7.2902261284        0.2500087760       11.8063620241
  C        -2.8237028154        8.3472728403        1.1401868763
  C         4.1322052701       -6.5409633906       11.9485979862
  C         2.3447796063       13.8054679141        1.3157161463
  N         2.4337082569       13.2050008374        2.5491436745
  N         6.7105157937        0.0763857191       10.5680465680
  N         8.0426930303        4.3614182007        7.6733530517
  N         6.2152477151       -4.2666103213        9.3432679682
  O         7.3674107649        4.7566303557        5.1134838609
  O        -3.0396945573        1.5484822545        8.0031710044
  O         4.1939711949       -2.6085851485        9.7416327582
  O         0.7547134302        9.8517048982        3.4244186251
  O         1.5993781244        8.4746509950        5.0159215879
  O         2.6568444350       -2.3468481754        8.1023457375
  O         8.9586353086        4.4434873948        3.5364706685
  O        -3.8762450419        2.9039714093        9.6169239464
  O         6.2790883990        4.1764660767        2.5397614026
  O        -1.3651139491        2.0383345468       10.1198426123
  O         7.2157989357        6.4635338364        2.9889143759
  O        -3.1189789372        0.3093504762       10.5863158051
  O         1.4800930355       -2.8813861009       10.6833382837
  O         3.2666657799        8.9966945319        2.9136357187
  O         2.4491977015       -0.6239621650       10.2333871583
  O         1.5533945001        7.2417659129        2.4189660101
  O         4.6996945765        4.8887679699        5.2634394707
  O        -1.9295236604       -0.9594029684        7.9143157762
  O         3.8499714614       -3.7580829286       11.9977401706
  O         2.1266208791       10.9262958773        1.1468602228
  O         4.6658234277       -0.9547123298       11.9881133564
  O        -0.1341854780        9.0848802464        1.0994436344
  O        -0.0943670740       -2.2683276290        7.9787304925
  O         2.7482461380        6.0119023787        5.1390658014
  O         9.3974561834        6.1211773548        1.1337499371
  O        -4.7585073921        2.1528933409       11.9336589447
  O         8.6078401927        3.3533538409        1.1645338109
  O        -2.4766411787        3.9368163862       11.9998114283
  O         4.4761989544        6.5720529736        3.0625380257
  O        -0.2199486009       -0.4157088502       10.0002175971
  O         6.9174474135        5.3478723460        0.1112306569
  O         2.3587017144        8.4278950934       -0.0549720534
     124
 i =       54, E =     -1301.9381159578
 Ti        -2.8634402620        2.2011543326       11.2573774711
 Ti         7.9540962122        5.0983271489        1.8893447067
 Ti         1.2379209234       -1.7087576335        9.4193066685
 Ti         2.7428390963        7.4414489501        3.6738152477
 Ti         1.7524071762        9.1110129856        1.7621120484
 Ti         3.1069045822       -1.9734416831       11.3845463541
 Ti        -1.9184403199        0.4836402653        9.3510461006
 Ti         5.9744639684        5.3875186437        3.7416328097
  H         3.7411051914        1.5112680476        8.6203576238
  H        -0.1916594437       -4.2344427223        6.4891242624
  H         4.8094513508       10.8715531662        4.6123485748
  H        -2.3788202811        6.1062405439       11.0321348218
  H         8.8285696862        1.1864106944        2.2068799191
  H        -6.8317287921        1.4772188791       10.8808416011
  H        11.3368793714        7.1011115067        2.0926297570
  H         4.0731830748       -6.0116185014       11.0015405124
  H        -2.3197485473        8.5278431286        2.0857958054
  H         4.7066156710        3.0140123301        6.8515017234
  H         0.0362901568        3.6879868230        8.4503361132
  H        -3.6511542541       -1.6831023913        6.3197131609
  H         2.2274073351        7.4620982361       -0.1124675071
  H         6.0742406673        4.8620268268        0.1907883267
  H         3.6553880806       -2.6165421448        5.8852605705
  H         1.0290377616        9.2809294653        7.2911171657
  H        -6.0481111468        3.7843077687        9.0037698087
  H        10.7924257436        3.1186485561        4.2051146147
  H        -3.6122817732        2.5372529811        5.6844265280
  H        -1.3213295840       10.9863911557        4.1199507017
  H         2.2236227135       12.2122041956        2.6065277817
  H         8.7309471202       -0.8390623634        3.4144854193
  H         4.8361630095        7.1189249191        2.3399540531
  H         0.1554898393        0.1417489850       10.7063645709
  H         7.3410299771       -0.0043231574        9.7785763095
  H         5.8603476812       -0.4805952704       10.5284736471
  H         7.8404080420        4.2504698911        8.6589194586
  H         7.3056434754        4.6542567841        7.0362749097
  H         6.8721292938       -4.9940369595        9.5964113135
  H         5.5857791647       -3.9014643732       10.0546673312
  H         1.4213063054        1.8718854108        9.4012028952
  H         1.0025015710        5.1947952617        6.6798107615
  H         6.0456389969        8.8679333440        3.8435237330
  H        -7.7320744796        8.8767301247        4.6926436424
  C         8.5486068456        4.3574331755        4.7488488711
  C        -3.8217577555        2.4870534674        8.4109543438
  C         3.8229301935       -2.7246613382        8.5160411768
  C         0.8254754206        9.4307520154        4.6272138520
  C         9.4448009848        3.7588098244        5.7457585386
  C        -4.7507691587        3.1154627631        7.4351423895
  C         4.7662733904       -3.3356332990        7.5719666623
  C        -0.0600656256       10.0791364510        5.6287044954
  C         9.1611274434        3.7775794218        7.1488201189
  C        -4.4963787250        3.0522248506        6.0493906108
  C         5.8925509499       -4.1009860598        8.0245706493
  C        -1.1500858322       10.8601954763        5.1851736568
  C         0.1860202547        9.8971646150        6.9848882125
  C         4.5275192334       -3.1918774700        6.1874007966
  C        10.6165590362        3.1178491520        5.2783673675
  C        -5.8872965361        3.7518475759        7.9276216823
  C         2.9108369429        4.1932719873        6.6666522980
  C         1.8363520361        2.5196613869        8.6312539079
  C         6.4815370696        9.5115444867        4.6059260508
  C        -1.8647817152       -2.8748352244        6.5065078160
  C         8.7645527455        1.2618398083        0.0649251769
  C         2.3056615982       13.0574125628        0.0863578402
  C        11.2331484536        7.0406215304       -0.0567979058
  C        -2.1275602683        8.5792834261       -0.0710059837
  C         3.4835547818        5.0830266159        5.6275266924
  C        -1.2605823786       -1.9837589063        7.5258306643
  C         8.6172734247        2.7205800294        0.0435292102
  C         2.2065226934       11.6208441251        0.0492769651
  C         9.9342921084        6.4185411184       -0.0135777580
  C        -0.7195191986        8.9892725677       -0.0442475234
  C         1.5892853191        4.3867509169        7.1114301556
  C         3.1503676686        2.3183617137        8.1900194547
  C         5.7851629412       10.6466985125        5.0401082590
  C        -1.1712184683       -4.0188805577        6.0679171946
  C         8.8310270708        0.5953954453        1.2928833088
  C        -2.3531830412        6.6959480453       11.9450191540
  C        11.8860892536        7.3108873263        1.1783112259
  C        -7.3934620037        1.2924266719       11.7948071304
  C         7.7410536785        9.2044103200        5.1363278646
  C        -3.1325111677       -2.5738801250        5.9720741245
  C         3.6888792827        3.1526963402        7.2099932451
  C         1.0554034293        3.5498926356        8.0924842569
  C         7.2903038364        0.2497764661       11.8064579415
  C        -2.8236384334        8.3469561529        1.1403128680
  C         4.1317196270       -6.5410377131       11.9485206396
  C         2.3449583544       13.8054078431        1.3155941567
  N         2.4341468623       13.2048942645        2.5490050191
  N         6.7106143270        0.0761833856       10.5681307968
  N         8.0414667772        4.3593352954        7.6732223315
  N         6.2148390065       -4.2671333115        9.3431647764
  O         7.3672782454        4.7565257026        5.1134549485
  O        -3.0400862515        1.5480304208        8.0033246552
  O         4.1940743376       -2.6084640359        9.7415212665
  O         0.7546683635        9.8514691553        3.4244114015
  O         1.5995328864        8.4745526422        5.0158913195
  O         2.6569627108       -2.3465207912        8.1022294805
  O         8.9584956818        4.4433188442        3.5364825337
  O        -3.8765294144        2.9037385730        9.6169136965
  O         6.2789470592        4.1764286266        2.5394229672
  O        -1.3653520164        2.0384418268       10.1196136882
  O         7.2158338437        6.4633994515        2.9888530120
  O        -3.1188030215        0.3091831238       10.5867420348
  O         1.4802810558       -2.8814235600       10.6831117408
  O         3.2666952058        8.9965522350        2.9133924847
  O         2.4493153388       -0.6239567984       10.2333455373
  O         1.5533210811        7.2417190032        2.4189709595
  O         4.6996038695        4.8884439681        5.2632468640
  O        -1.9296257077       -0.9595127976        7.9143468613
  O         3.8501888330       -3.7580351472       11.9977458920
  O         2.1266346672       10.9262577917        1.1468448580
  O         4.6658334032       -0.9546182049       11.9880530494
  O        -0.1341337647        9.0848880171        1.0994856654
  O        -0.0942975921       -2.2681392233        7.9786008458
  O         2.7482392821        6.0117660735        5.1389337480
  O         9.3974617618        6.1209461405        1.1336905282
  O        -4.7585601614        2.1528871876       11.9336780392
  O         8.6079479271        3.3532220610        1.1645686158
  O        -2.4766826560        3.9367676605       11.9997889197
  O         4.4763051078        6.5720622746        3.0626218074
  O        -0.2197544530       -0.4154036883        9.9999849331
  O         6.9174989958        5.3477559709        0.1110572077
  O         2.3585612270        8.4280049134       -0.0550304512
     124
 i =       55, E =     -1301.9381162972
 Ti        -2.8636441393        2.2010533690       11.2574720368
 Ti         7.9540945213        5.0979953609        1.8893862303
 Ti         1.2380683367       -1.7086286347        9.4190795721
 Ti         2.7428557061        7.4413378184        3.6738172280
 Ti         1.7522809503        9.1108984092        1.7622221159
 Ti         3.1069405668       -1.9735789142       11.3843769836
 Ti        -1.9184711046        0.4835507777        9.3512014555
 Ti         5.9744256747        5.3874009261        3.7414737102
  H         3.7406528259        1.5110746343        8.6202285406
  H        -0.1917143839       -4.2347421336        6.4891994803
  H         4.8096696436       10.8717487113        4.6120796327
  H        -2.3790553711        6.1061537290       11.0320179524
  H         8.8293535238        1.1862488504        2.2068373019
  H        -6.8315944895        1.4767826019       10.8810274159
  H        11.3367849636        7.1012970794        2.0928261039
  H         4.0725655321       -6.0118832940       11.0014642855
  H        -2.3198928694        8.5276942349        2.0860157752
  H         4.7062283211        3.0135197166        6.8511991246
  H         0.0362519736        3.6886545509        8.4505878766
  H        -3.6510188959       -1.6831176716        6.3195984981
  H         2.2273460835        7.4621638627       -0.1125999625
  H         6.0743634282        4.8618301461        0.1906637221
  H         3.6553290110       -2.6167219541        5.8850974123
  H         1.0288236230        9.2806206042        7.2911137350
  H        -6.0489433828        3.7830167635        9.0037259628
  H        10.7927327755        3.1194166652        4.2052431998
  H        -3.6119588642        2.5377842314        5.6845236687
  H        -1.3211683644       10.9863151852        4.1197906042
  H         2.2240318193       12.2119929113        2.6062540500
  H         8.7312090290       -0.8394069456        3.4143904037
  H         4.8362807930        7.1190261598        2.3400877637
  H         0.1555608245        0.1419941310       10.7062020227
  H         7.3409898772       -0.0043038773        9.7787315863
  H         5.8603200652       -0.4805669208       10.5286296942
  H         7.8393762789        4.2486422330        8.6588565306
  H         7.3048191331        4.6529763205        7.0361809062
  H         6.8716839927       -4.9943922325        9.5963702902
  H         5.5855743179       -3.9014298112       10.0545554659
  H         1.4209392831        1.8721777450        9.4013098511
  H         1.0026419490        5.1952074573        6.6799800247
  H         6.0458458872        8.8681214438        3.8431264419
  H        -7.7320397738        8.8766619848        4.6925153147
  C         8.5484124058        4.3571857490        4.7488794116
  C        -3.8221075882        2.4867377740        8.4110081460
  C         3.8230442127       -2.7244836796        8.5157913168
  C         0.8255017506        9.4305454229        4.6272731011
  C         9.4445099882        3.7584931844        5.7457770474
  C        -4.7510848548        3.1151184827        7.4351319368
  C         4.7661808285       -3.3358416538        7.5718493619
  C        -0.0602191497       10.0788419313        5.6286514895
  C         9.1604407867        3.7765139718        7.1487684724
  C        -4.4963157215        3.0523826922        6.0494316048
  C         5.8922776349       -4.1013877412        8.0244904127
  C        -1.1501780825       10.8599916145        5.1850584101
  C         0.1858017891        9.8968004199        6.9848154687
  C         4.5273481035       -3.1921906223        6.1872668175
  C        10.6166143739        3.1181011740        5.2784617776
  C        -5.8879192949        3.7509183821        7.9276100646
  C         2.9107212028        4.1931703405        6.6665688647
  C         1.8360735708        2.5198782072        8.6313459140
  C         6.4816948404        9.5116180912        4.6056456599
  C        -1.8646852242       -2.8748788247        6.5064031047
  C         8.7645598952        1.2616923914        0.0648254782
  C         2.3056611592       13.0572710622        0.0863274768
  C        11.2330949158        7.0405121341       -0.0566698562
  C        -2.1275676217        8.5790200924       -0.0707881853
  C         3.4834903749        5.0827864187        5.6274374590
  C        -1.2605807975       -1.9837646559        7.5257197541
  C         8.6174189188        2.7204706885        0.0435339626
  C         2.2065232900       11.6206984456        0.0492601858
  C         9.9342497456        6.4183559403       -0.0135303956
  C        -0.7195695555        8.9891777956       -0.0440790347
  C         1.5892633868        4.3869753179        7.1114845168
  C         3.1499883475        2.3182346332        8.1899245661
  C         5.7853438506       10.6467842442        5.0398539772
  C        -1.1711753717       -4.0190130319        6.0678746058
  C         8.8313242164        0.5952687236        1.2927812689
  C        -2.3533994591        6.6957661798       11.9449701688
  C        11.8860175546        7.3107841457        1.1784539327
  C        -7.3933564359        1.2920936035       11.7950052406
  C         7.7411208565        9.2043690203        5.1361918709
  C        -3.1323887088       -2.5739043194        5.9719358434
  C         3.6885683564        3.1524090316        7.2098173774
  C         1.0552910482        3.5502630913        8.0926146471
  C         7.2903831721        0.2495828350       11.8066346325
  C        -2.8236893121        8.3467595986        1.1405192524
  C         4.1313483647       -6.5412350217       11.9484463296
  C         2.3451613689       13.8053233898        1.3155269055
  N         2.4346184860       13.2046789208        2.5488735980
  N         6.7106435201        0.0760973145       10.5683282886
  N         8.0402979958        4.3572619393        7.6731253201
  N         6.2145151239       -4.2673818464        9.3430875320
  O         7.3671290911        4.7562821887        5.1134808946
  O        -3.0405020916        1.5476322107        8.0035402871
  O         4.1941586574       -2.6083490962        9.7413177968
  O         0.7547199230        9.8512880659        3.4244969253
  O         1.5998407293        8.4745953196        5.0160193452
  O         2.6570983736       -2.3461736241        8.1020366317
  O         8.9584016231        4.4431222845        3.5365202356
  O        -3.8768437538        2.9034797485        9.6169445613
  O         6.2787865929        4.1763633338        2.5391421331
  O        -1.3656575998        2.0385368655       10.1194108471
  O         7.2158383721        6.4632531913        2.9888124252
  O        -3.1186236571        0.3090054147       10.5871314353
  O         1.4804908413       -2.8815147908       10.6827503352
  O         3.2667002795        8.9963736318        2.9132264164
  O         2.4493664499       -0.6239646119       10.2333291670
  O         1.5532212740        7.2415484209        2.4191149305
  O         4.6995042537        4.8880428596        5.2630653911
  O        -1.9297964256       -0.9596795054        7.9143576015
  O         3.8504221425       -3.7580167932       11.9977816707
  O         2.1266198925       10.9261726962        1.1468634837
  O         4.6658237450       -0.9545752737       11.9880271220
  O        -0.1341609857        9.0848898123        1.0996817606
  O        -0.0941803256       -2.2679261605        7.9783783367
  O         2.7482609283        6.0115803593        5.1388369814
  O         9.3974628743        6.1205859753        1.1337042076
  O        -4.7586200793        2.1529045329       11.9338259324
  O         8.6080523362        3.3530304746        1.1646448556
  O        -2.4767171392        3.9366903256       11.9997524901
  O         4.4764400090        6.5721335681        3.0627387203
  O        -0.2195505145       -0.4151154168        9.9997266870
  O         6.9175926749        5.3475796954        0.1109069572
  O         2.3583306435        8.4280740862       -0.0550209502
     124
 i =       56, E =     -1301.9381165417
 Ti        -2.8637262415        2.2010659680       11.2574154611
 Ti         7.9541584087        5.0978341761        1.8893752528
 Ti         1.2382217170       -1.7084471397        9.4188430298
 Ti         2.7429165505        7.4413050170        3.6738051008
 Ti         1.7523248529        9.1108485514        1.7622754970
 Ti         3.1069651482       -1.9736039281       11.3842272787
 Ti        -1.9184959229        0.4835484675        9.3511882304
 Ti         5.9744082970        5.3874135018        3.7413760750
  H         3.7403107258        1.5109451689        8.6200433277
  H        -0.1917122290       -4.2348735220        6.4892058374
  H         4.8097106171       10.8717660716        4.6120752931
  H        -2.3790477563        6.1061382293       11.0319119717
  H         8.8297809248        1.1862161586        2.2067445634
  H        -6.8314181782        1.4762998277       10.8811055962
  H        11.3367921078        7.1015495698        2.0929493448
  H         4.0721762389       -6.0120501776       11.0013478274
  H        -2.3199768255        8.5277234978        2.0861327765
  H         4.7059797592        3.0133053456        6.8509123016
  H         0.0361684939        3.6891801314        8.4506326828
  H        -3.6508831728       -1.6831832541        6.3196464313
  H         2.2273174642        7.4622673483       -0.1127338119
  H         6.0745263598        4.8616998145        0.1905160685
  H         3.6551753636       -2.6168754634        5.8849547689
  H         1.0286208363        9.2803682644        7.2909855439
  H        -6.0493673734        3.7823457645        9.0036522644
  H        10.7928155830        3.1196340922        4.2053031005
  H        -3.6120568131        2.5377352601        5.6845149506
  H        -1.3211846363       10.9861363382        4.1195698889
  H         2.2240882475       12.2119219473        2.6060081057
  H         8.7309881557       -0.8395968925        3.4143108375
  H         4.8364015215        7.1192160548        2.3400471231
  H         0.1556820920        0.1420834252       10.7061118457
  H         7.3410764745       -0.0043214675        9.7787917624
  H         5.8604092860       -0.4805916797       10.5287281954
  H         7.8388488590        4.2477889479        8.6588159062
  H         7.3043782474        4.6523486736        7.0361166044
  H         6.8713153395       -4.9946187508        9.5963013804
  H         5.5854290208       -3.9013205393       10.0543374650
  H         1.4205752037        1.8723753705        9.4011906866
  H         1.0028051175        5.1956205409        6.6799731020
  H         6.0459485743        8.8682639375        3.8428932699
  H        -7.7320716181        8.8766069921        4.6923982450
  C         8.5483016814        4.3569841215        4.7489248041
  C        -3.8223702687        2.4864935005        8.4110280439
  C         3.8230636591       -2.7243934390        8.5155636972
  C         0.8255741468        9.4305009514        4.6272907401
  C         9.4443141472        3.7582001664        5.7457882729
  C        -4.7512837053        3.1148315158        7.4351412872
  C         4.7659863064       -3.3360026216        7.5716238497
  C        -0.0603554519       10.0785568698        5.6285689523
  C         9.1600097181        3.7758540159        7.1487341620
  C        -4.4964482254        3.0522681817        6.0494533952
  C         5.8920278525       -4.1015783030        8.0243542308
  C        -1.1503419897       10.8596782078        5.1848667824
  C         0.1855096547        9.8964644622        6.9847565352
  C         4.5271915219       -3.1924164643        6.1870212022
  C        10.6165597284        3.1180380253        5.2784767711
  C        -5.8882528507        3.7504018622        7.9275601618
  C         2.9106552156        4.1931908915        6.6664544562
  C         1.8358295400        2.5200317428        8.6312351653
  C         6.4817622488        9.5116893889        4.6054901265
  C        -1.8646092754       -2.8749161495        6.5063299800
  C         8.7645645860        1.2616762092        0.0647709478
  C         2.3056803520       13.0572447399        0.0862211589
  C        11.2331822050        7.0403907858       -0.0565626658
  C        -2.1274392229        8.5788734981       -0.0707269401
  C         3.4834855254        5.0827093771        5.6273340028
  C        -1.2605750759       -1.9837981456        7.5256753910
  C         8.6175322047        2.7204497072        0.0434798674
  C         2.2065196115       11.6206719619        0.0492421582
  C         9.9342870718        6.4182865479       -0.0135139475
  C        -0.7195285291        8.9892256058       -0.0439750198
  C         1.5892571742        4.3872380154        7.1114539606
  C         3.1497219297        2.3181901071        8.1897655277
  C         5.7854057655       10.6468208834        5.0397820525
  C        -1.1711414773       -4.0190922420        6.0678177304
  C         8.8314652188        0.5952063940        1.2927136380
  C        -2.3534878142        6.6957406328       11.9448899588
  C        11.8860542486        7.3107797660        1.1785365751
  C        -7.3932129967        1.2917897646       11.7950830275
  C         7.7411581506        9.2043636167        5.1360619643
  C        -3.1323078190       -2.5739440111        5.9719036868
  C         3.6883698975        3.1523068592        7.2096342641
  C         1.0551774895        3.5505882697        8.0925858049
  C         7.2904911830        0.2493995563       11.8067198787
  C        -2.8236383615        8.3467292942        1.1405759974
  C         4.1311780988       -6.5412643120       11.9483790683
  C         2.3451907235       13.8052766578        1.3154510999
  N         2.4346229861       13.2046209971        2.5487773449
  N         6.7107654933        0.0760144749       10.5684135374
  N         8.0396057211        4.3560325263        7.6730229307
  N         6.2143021926       -4.2675262026        9.3429479042
  O         7.3670410968        4.7561410097        5.1134299609
  O        -3.0409276169        1.5472437104        8.0035876835
  O         4.1942764329       -2.6081823103        9.7410593549
  O         0.7547760887        9.8512375195        3.4245054762
  O         1.6000284628        8.4746698789        5.0160851107
  O         2.6572323252       -2.3458246850        8.1017579694
  O         8.9583240259        4.4430053008        3.5365515487
  O        -3.8771054855        2.9033801966        9.6169162612
  O         6.2788070561        4.1763987215        2.5390736449
  O        -1.3658253926        2.0386616065       10.1191357517
  O         7.2158684653        6.4631913406        2.9887877240
  O        -3.1184512382        0.3089927958       10.5873020777
  O         1.4806731742       -2.8815254125       10.6823826774
  O         3.2667313251        8.9963258999        2.9131752331
  O         2.4493889194       -0.6238503521       10.2332991298
  O         1.5532187021        7.2414319442        2.4191804358
  O         4.6995071960        4.8879126661        5.2629983526
  O        -1.9299229397       -0.9598644925        7.9144266855
  O         3.8506829738       -3.7579026675       11.9977514690
  O         2.1266670999       10.9261699910        1.1468377457
  O         4.6658623627       -0.9545226632       11.9880202233
  O        -0.1341420561        9.0849877001        1.0998243395
  O        -0.0940702430       -2.2678135366        7.9782216894
  O         2.7482852394        6.0114846027        5.1386649089
  O         9.3975409065        6.1204339211        1.1337312386
  O        -4.7585801220        2.1530099137       11.9339187236
  O         8.6081419116        3.3529529732        1.1646232310
  O        -2.4766593305        3.9366773077       11.9997124230
  O         4.4765402927        6.5722965686        3.0626768528
  O        -0.2193984906       -0.4149246325        9.9995362390
  O         6.9177267303        5.3475062088        0.1107852646
  O         2.3582394445        8.4281707914       -0.0550801449
     124
 i =       57, E =     -1301.9381167595
 Ti        -2.8638570119        2.2009653652       11.2573643452
 Ti         7.9541522196        5.0976483995        1.8893848296
 Ti         1.2383440750       -1.7082773340        9.4186360664
 Ti         2.7430009047        7.4412507068        3.6738705318
 Ti         1.7523621959        9.1107805478        1.7623145570
 Ti         3.1069372941       -1.9736752874       11.3841769571
 Ti        -1.9185690301        0.4835425028        9.3511471294
 Ti         5.9743809846        5.3872936825        3.7413014261
  H         3.7399073335        1.5107658850        8.6198784256
  H        -0.1916961543       -4.2349809638        6.4892903452
  H         4.8097923030       10.8718044698        4.6119549598
  H        -2.3790644454        6.1060000236       11.0318481767
  H         8.8302922931        1.1861385212        2.2066367053
  H        -6.8313509463        1.4758377883       10.8812285006
  H        11.3366698685        7.1017539749        2.0930703864
  H         4.0718648056       -6.0122271648       11.0012174069
  H        -2.3201520980        8.5278552774        2.0863190005
  H         4.7056554385        3.0129763179        6.8505506734
  H         0.0361057969        3.6896687717        8.4507819806
  H        -3.6507192512       -1.6831905602        6.3196421201
  H         2.2273263323        7.4622421092       -0.1127851920
  H         6.0745979115        4.8615222995        0.1903547257
  H         3.6551503288       -2.6169057466        5.8848078697
  H         1.0283980936        9.2800118391        7.2909620995
  H        -6.0499857567        3.7813826299        9.0036319490
  H        10.7931595002        3.1201456962        4.2054222681
  H        -3.6119264748        2.5379967173        5.6844953337
  H        -1.3211429020       10.9859660609        4.1194129558
  H         2.2243211958       12.2117905941        2.6058461307
  H         8.7310695483       -0.8397895773        3.4142332345
  H         4.8365078022        7.1194260389        2.3400549457
  H         0.1560310214        0.1422755133       10.7058150921
  H         7.3410829001       -0.0042989446        9.7789222158
  H         5.8604185487       -0.4806390184       10.5288337112
  H         7.8380718396        4.2465622190        8.6587702172
  H         7.3037843088        4.6514241235        7.0360237735
  H         6.8708577115       -4.9948940400        9.5963215941
  H         5.5852810833       -3.9012056446       10.0542063596
  H         1.4202372152        1.8726019317        9.4011646540
  H         1.0029339354        5.1959783322        6.6799768865
  H         6.0461482520        8.8684504946        3.8425821605
  H        -7.7320798954        8.8765346317        4.6923284073
  C         8.5481292497        4.3567162161        4.7489348349
  C        -3.8227498263        2.4861964782        8.4110333257
  C         3.8230828229       -2.7243003722        8.5153664830
  C         0.8256023688        9.4304410163        4.6273472188
  C         9.4440829004        3.7578850656        5.7457815612
  C        -4.7515527599        3.1145442763        7.4351508276
  C         4.7659026709       -3.3361144619        7.5714707754
  C        -0.0604837640       10.0783231444        5.6285017865
  C         9.1595147719        3.7750917850        7.1486902346
  C        -4.4964149762        3.0523662966        6.0494781315
  C         5.8918593551       -4.1018225110        8.0242470550
  C        -1.1504309898       10.8595142022        5.1847334104
  C         0.1853262116        9.8961759364        6.9847063407
  C         4.5271186740       -3.1925429289        6.1868686781
  C        10.6166188952        3.1181374371        5.2785332721
  C        -5.8887204045        3.7497595352        7.9275546645
  C         2.9105249613        4.1931197323        6.6663438277
  C         1.8355712329        2.5201593338        8.6311611138
  C         6.4819056471        9.5117903584        4.6052930439
  C        -1.8645471684       -2.8749877275        6.5062623507
  C         8.7646688458        1.2616054250        0.0646491186
  C         2.3057912711       13.0571348654        0.0861425352
  C        11.2331718565        7.0402591855       -0.0564334928
  C        -2.1274234167        8.5787695461       -0.0705659958
  C         3.4834384142        5.0825330487        5.6272111803
  C        -1.2605879153       -1.9838994687        7.5256975718
  C         8.6176021073        2.7203413067        0.0433623560
  C         2.2065043155       11.6205677162        0.0492088989
  C         9.9342583018        6.4181766744       -0.0134340904
  C        -0.7195833085        8.9891862060       -0.0437818152
  C         1.5892136680        4.3874694975        7.1114602395
  C         3.1494227300        2.3181114496        8.1896357099
  C         5.7855171028       10.6468892723        5.0396287140
  C        -1.1710775288       -4.0191651491        6.0677827490
  C         8.8317650735        0.5951400720        1.2926220100
  C        -2.3534802929        6.6956154008       11.9448306787
  C        11.8859601238        7.3108087227        1.1786408966
  C        -7.3931527063        1.2915491436       11.7952220665
  C         7.7412486575        9.2043643835        5.1359394693
  C        -3.1322034630       -2.5739359446        5.9718132023
  C         3.6881302438        3.1521303661        7.2094414693
  C         1.0550676591        3.5509109054        8.0926294524
  C         7.2905160173        0.2492609922       11.8068556458
  C        -2.8237250647        8.3467598937        1.1407226732
  C         4.1311046193       -6.5413849350       11.9482649641
  C         2.3453586350       13.8051960201        1.3153693312
  N         2.4348110419       13.2045104837        2.5486709123
  N         6.7107690772        0.0759835259       10.5685560340
  N         8.0387162060        4.3544629095        7.6729270334
  N         6.2141194589       -4.2676120241        9.3428888752
  O         7.3668842516        4.7559312674        5.1133975359
  O        -3.0413686182        1.5468664493        8.0035935155
  O         4.1943112107       -2.6080902368        9.7408418328
  O         0.7548635758        9.8512462339        3.4245597696
  O         1.6001450811        8.4746995025        5.0161699731
  O         2.6573353996       -2.3455713230        8.1015408105
  O         8.9582270144        4.4428223524        3.5365652973
  O        -3.8774431829        2.9031041285        9.6169180860
  O         6.2788258795        4.1762610601        2.5390937836
  O        -1.3660264554        2.0387855202       10.1188537315
  O         7.2158396737        6.4630784372        2.9887897144
  O        -3.1184246629        0.3089305989       10.5873441022
  O         1.4808073187       -2.8815488262       10.6820208370
  O         3.2667183529        8.9962921110        2.9132032525
  O         2.4494075122       -0.6237639820       10.2333282696
  O         1.5532587154        7.2413403512        2.4192794930
  O         4.6994180315        4.8876220433        5.2628380035
  O        -1.9299995142       -0.9600842354        7.9145738382
  O         3.8507607606       -3.7579689287       11.9976356261
  O         2.1266495665       10.9261179561        1.1468025473
  O         4.6658601276       -0.9546133430       11.9880981328
  O        -0.1342633800        9.0849665061        1.1000465252
  O        -0.0940007890       -2.2677913394        7.9781577193
  O         2.7483428348        6.0114201242        5.1385902184
  O         9.3974986587        6.1203211198        1.1338257241
  O        -4.7586095373        2.1529865017       11.9341176334
  O         8.6081454704        3.3528478853        1.1644988592
  O        -2.4767292915        3.9365633120       11.9996610433
  O         4.4765902261        6.5723773092        3.0625751483
  O        -0.2192218052       -0.4147223997        9.9993172769
  O         6.9177970187        5.3473584395        0.1107142681
  O         2.3581949844        8.4281471052       -0.0550824047
     124
 i =       58, E =     -1301.9381169519
 Ti        -2.8638407705        2.2010512786       11.2572268466
 Ti         7.9542431057        5.0976569779        1.8893494455
 Ti         1.2384886650       -1.7080551882        9.4184649735
 Ti         2.7431289750        7.4413285583        3.6737967037
 Ti         1.7525705761        9.1108598188        1.7622582771
 Ti         3.1069924313       -1.9736001386       11.3841034516
 Ti        -1.9186040533        0.4835219197        9.3509879501
 Ti         5.9744448856        5.3873322017        3.7412256896
  H         3.7393946930        1.5106207648        8.6195780266
  H        -0.1916513375       -4.2350338887        6.4892627326
  H         4.8097734336       10.8717620031        4.6120385017
  H        -2.3790621489        6.1059651955       11.0317580804
  H         8.8305268163        1.1862134955        2.2064409363
  H        -6.8311119682        1.4753542363       10.8812259978
  H        11.3366949181        7.1018963582        2.0930754316
  H         4.0716047491       -6.0121974498       11.0010570416
  H        -2.3201093433        8.5281057305        2.0863657075
  H         4.7053413312        3.0127485223        6.8501692601
  H         0.0360133731        3.6902462220        8.4507696827
  H        -3.6506111199       -1.6832547302        6.3197660615
  H         2.2273972111        7.4623117353       -0.1128731190
  H         6.0747227610        4.8614232504        0.1901978316
  H         3.6549692159       -2.6170934341        5.8845401552
  H         1.0280795174        9.2796250739        7.2908094369
  H        -6.0504738335        3.7806873776        9.0035570340
  H        10.7932049563        3.1201155164        4.2054451989
  H        -3.6122027826        2.5376732595        5.6844561656
  H        -1.3213743478       10.9855509863        4.1192130480
  H         2.2241391408       12.2118204273        2.6056828013
  H         8.7307138301       -0.8397673181        3.4140867053
  H         4.8366230500        7.1196831843        2.3399280231
  H         0.1563944716        0.1424336422       10.7055318405
  H         7.3412582207       -0.0044511007        9.7789529607
  H         5.8605749091       -0.4808228427       10.5288381495
  H         7.8375244942        4.2458683248        8.6586796169
  H         7.3033429294        4.6508985821        7.0358384359
  H         6.8704412962       -4.9951927525        9.5962439176
  H         5.5851114606       -3.9011687567       10.0539802563
  H         1.4198082998        1.8728741667        9.4009124776
  H         1.0030659301        5.1964636385        6.6798989524
  H         6.0462470723        8.8686316664        3.8423666412
  H        -7.7321062708        8.8765372878        4.6921847528
  C         8.5480173631        4.3565311200        4.7488886459
  C        -3.8231174457        2.4858511885        8.4109553548
  C         3.8230590682       -2.7242205958        8.5151429447
  C         0.8255675012        9.4303766113        4.6272410049
  C         9.4438303977        3.7575128561        5.7457255122
  C        -4.7519000031        3.1141226748        7.4350984648
  C         4.7657457615       -3.3362673478        7.5712275086
  C        -0.0606913030       10.0780169171        5.6283276219
  C         9.1590513500        3.7744138892        7.1486048791
  C        -4.4967007547        3.0520186396        6.0494304022
  C         5.8916436624       -4.1020689986        8.0240608805
  C        -1.1506325238       10.8592104402        5.1845341349
  C         0.1850476168        9.8958572292        6.9845546693
  C         4.5269057272       -3.1927936600        6.1866320666
  C        10.6164793959        3.1179325615        5.2785002428
  C        -5.8891289564        3.7492110816        7.9274857244
  C         2.9104353958        4.1932184870        6.6661755130
  C         1.8352619471        2.5204222080        8.6309637722
  C         6.4819789380        9.5119065617        4.6051481050
  C        -1.8644893426       -2.8750573925        6.5062605364
  C         8.7647175073        1.2616770122        0.0644615573
  C         2.3058179143       13.0571814340        0.0860233056
  C        11.2332987129        7.0401599683       -0.0563922892
  C        -2.1272839040        8.5787151905       -0.0705391760
  C         3.4834403780        5.0825886669        5.6270435643
  C        -1.2605498133       -1.9840077817        7.5257698403
  C         8.6176457850        2.7203741366        0.0431565141
  C         2.2065382693       11.6206241156        0.0491214046
  C         9.9343378842        6.4181793611       -0.0134137403
  C        -0.7195063949        8.9892147403       -0.0437270454
  C         1.5891677941        4.3877928610        7.1113157559
  C         3.1490456337        2.3180935255        8.1893642161
  C         5.7855544013       10.6469214588        5.0396175570
  C        -1.1710281101       -4.0191958910        6.0677238392
  C         8.8318867247        0.5952199438        1.2924590013
  C        -2.3534944886        6.6956275951       11.9447110505
  C        11.8860481572        7.3108357943        1.1786559432
  C        -7.3929431497        1.2912662845       11.7952281009
  C         7.7412885117        9.2043899437        5.1358274672
  C        -3.1321528402       -2.5739835691        5.9718636537
  C         3.6878593802        3.1520339091        7.2091417515
  C         1.0549154760        3.5513375890        8.0925048625
  C         7.2906852335        0.2490627211       11.8068977289
  C        -2.8236407670        8.3468399054        1.1407559046
  C         4.1310505078       -6.5413650415       11.9480985914
  C         2.3453250709       13.8052519076        1.3152447813
  N         2.4345409779       13.2045615994        2.5485400528
  N         6.7109369789        0.0758012164       10.5686003940
  N         8.0380023360        4.3532897381        7.6727476798
  N         6.2139211922       -4.2677618615        9.3427333995
  O         7.3668086805        4.7559235426        5.1133333552
  O        -3.0418250995        1.5464045895        8.0035417952
  O         4.1943268371       -2.6080190301        9.7405815455
  O         0.7549442492        9.8513358302        3.4244819250
  O         1.6001706116        8.4746991544        5.0160774460
  O         2.6573785297       -2.3452978613        8.1013156502
  O         8.9581746054        4.4426744797        3.5365293738
  O        -3.8776843662        2.9028572700        9.6168033598
  O         6.2789484838        4.1762289630        2.5391484048
  O        -1.3661715955        2.0389326052       10.1184217926
  O         7.2158996235        6.4631098307        2.9887740161
  O        -3.1183514120        0.3090490127       10.5873023785
  O         1.4809744027       -2.8814546167       10.6817342507
  O         3.2668113050        8.9964588535        2.9132096003
  O         2.4494842650       -0.6235493541       10.2333171319
  O         1.5533774814        7.2414221421        2.4192093738
  O         4.6994060051        4.8876466995        5.2627363760
  O        -1.9300890992       -0.9603409662        7.9147471310
  O         3.8508331572       -3.7579312083       11.9974224568
  O         2.1267057685       10.9261834858        1.1466940443
  O         4.6659670421       -0.9546433324       11.9881233949
  O        -0.1342196946        9.0850318745        1.1000816880
  O        -0.0939098964       -2.2678388500        7.9781443269
  O         2.7483772961        6.0114879818        5.1383619972
  O         9.3975462870        6.1204139336        1.1338798777
  O        -4.7585576233        2.1530068526       11.9341598014
  O         8.6081736778        3.3529004532        1.1642760432
  O        -2.4767140962        3.9365931541       11.9995647061
  O         4.4766600593        6.5725081913        3.0623392185
  O        -0.2190674341       -0.4145698274        9.9991456336
  O         6.9179011819        5.3473254412        0.1106192010
  O         2.3583167918        8.4282117333       -0.0551559509
     124
 i =       59, E =     -1301.9381171432
 Ti        -2.8639533402        2.2009420899       11.2571401726
 Ti         7.9542542995        5.0975378993        1.8893180039
 Ti         1.2385759815       -1.7079513470        9.4183550774
 Ti         2.7432491772        7.4413748791        3.6738443428
 Ti         1.7526922271        9.1108675191        1.7622591466
 Ti         3.1069447009       -1.9736583684       11.3840999453
 Ti        -1.9187352196        0.4834449637        9.3509049845
 Ti         5.9744218945        5.3871902671        3.7411777403
  H         3.7387899340        1.5103622316        8.6193482351
  H        -0.1916134445       -4.2351499438        6.4892664564
  H         4.8098944948       10.8718071121        4.6118475188
  H        -2.3790346033        6.1057436492       11.0317125400
  H         8.8309516783        1.1861954801        2.2062711177
  H        -6.8309933016        1.4749262768       10.8814058081
  H        11.3365001584        7.1019609598        2.0931662475
  H         4.0713720696       -6.0123080915       11.0009134242
  H        -2.3202894441        8.5284529026        2.0864964958
  H         4.7049024594        3.0122991004        6.8498233465
  H         0.0359284088        3.6907553481        8.4509796690
  H        -3.6504742007       -1.6832234298        6.3196496652
  H         2.2274543330        7.4622176370       -0.1127991575
  H         6.0747059104        4.8612363864        0.1901574610
  H         3.6550110036       -2.6170926196        5.8843104350
  H         1.0277532284        9.2791996713        7.2908021175
  H        -6.0512965785        3.7795111766        9.0035217799
  H        10.7936198997        3.1207416694        4.2055178702
  H        -3.6120406730        2.5379877489        5.6844964953
  H        -1.3214344817       10.9853217049        4.1191225634
  H         2.2243923677       12.2117268995        2.6055897752
  H         8.7310131606       -0.8398340133        3.4140222698
  H         4.8367085432        7.1198498251        2.3399599340
  H         0.1567947154        0.1426543968       10.7051052366
  H         7.3412513421       -0.0044425650        9.7790495695
  H         5.8605745013       -0.4809627587       10.5289238253
  H         7.8364743605        4.2443399739        8.6585626669
  H         7.3025412428        4.6497645027        7.0356053745
  H         6.8698994857       -4.9955963284        9.5962992338
  H         5.5848904511       -3.9011425289       10.0538386118
  H         1.4193984450        1.8730954316        9.4008605706
  H         1.0030999983        5.1968478031        6.6800312149
  H         6.0464453552        8.8687733259        3.8420431471
  H        -7.7320581942        8.8764958506        4.6920666158
  C         8.5478702273        4.3562957638        4.7488544348
  C        -3.8235005014        2.4854116370        8.4109488618
  C         3.8230114579       -2.7241647993        8.5150409392
  C         0.8255343725        9.4303087584        4.6272258506
  C         9.4435827718        3.7571657583        5.7456937622
  C        -4.7522581245        3.1136928074        7.4351119052
  C         4.7656722336       -3.3362886415        7.5710980479
  C        -0.0608195972       10.0778293687        5.6282786486
  C         9.1584136202        3.7734638770        7.1485309531
  C        -4.4967166123        3.0520541330        6.0494554252
  C         5.8914684675       -4.1022392128        8.0239778415
  C        -1.1506963182       10.8590452665        5.1844360811
  C         0.1848304195        9.8955845861        6.9845220751
  C         4.5268788579       -3.1928411978        6.1865021066
  C        10.6165277746        3.1180405029        5.2785336927
  C        -5.8897604582        3.7483303418        7.9274620511
  C         2.9102200026        4.1931788929        6.6660776331
  C         1.8349339886        2.5205654907        8.6309094111
  C         6.4821315427        9.5119831334        4.6049146725
  C        -1.8644055091       -2.8751490084        6.5061977521
  C         8.7648207811        1.2615780989        0.0642919474
  C         2.3059675514       13.0570838103        0.0859218085
  C        11.2332809233        7.0400854169       -0.0562801886
  C        -2.1273270352        8.5786582178       -0.0703641034
  C         3.4833536307        5.0824819182        5.6269323988
  C        -1.2605331106       -1.9841586371        7.5258263551
  C         8.6176020832        2.7202470038        0.0429173064
  C         2.2065618263       11.6205425606        0.0490331372
  C         9.9343284701        6.4181023363       -0.0133378647
  C        -0.7195341652        8.9890864163       -0.0435334816
  C         1.5890521217        4.3880387579        7.1113778984
  C         3.1486167799        2.3179796638        8.1891843678
  C         5.7856946660       10.6469707285        5.0394351583
  C        -1.1709504660       -4.0192709389        6.0676579765
  C         8.8321961959        0.5951628947        1.2923191961
  C        -2.3533998512        6.6954953230       11.9445934558
  C        11.8859309880        7.3108839811        1.1787925971
  C        -7.3929136238        1.2910371121       11.7953906191
  C         7.7413911567        9.2043886469        5.1356782325
  C        -3.1320248263       -2.5739682294        5.9717334778
  C         3.6874952239        3.1518210981        7.2089144334
  C         1.0547493033        3.5516639038        8.0925940790
  C         7.2906838371        0.2489162760       11.8070207137
  C        -2.8237818856        8.3469702621        1.1409024071
  C         4.1310422152       -6.5414935396       11.9479462453
  C         2.3455613349       13.8051673851        1.3151269873
  N         2.4347293148       13.2044918148        2.5484357775
  N         6.7109301102        0.0756839044       10.5687201731
  N         8.0368564436        4.3514039910        7.6725722878
  N         6.2137502075       -4.2678509976        9.3426829573
  O         7.3666579751        4.7557868447        5.1132963794
  O        -3.0421811973        1.5459854958        8.0034740949
  O         4.1942685745       -2.6080555665        9.7404662854
  O         0.7549915888        9.8513528660        3.4244808961
  O         1.6001239704        8.4746167443        5.0160499747
  O         2.6573698065       -2.3451396005        8.1011759534
  O         8.9580584728        4.4424725343        3.5365017648
  O        -3.8780876037        2.9024178895        9.6167812288
  O         6.2789444489        4.1760395145        2.5391669459
  O        -1.3663856778        2.0389987229       10.1181240286
  O         7.2158852250        6.4629742427        2.9887634652
  O        -3.1184220199        0.3089535849       10.5872912186
  O         1.4810001430       -2.8814279311       10.6815612414
  O         3.2668670080        8.9965914377        2.9132420330
  O         2.4495328328       -0.6234621697       10.2333543634
  O         1.5535080329        7.2414977331        2.4192522650
  O         4.6992430945        4.8873483581        5.2625654408
  O        -1.9301870584       -0.9606253427        7.9149372942
  O         3.8506095661       -3.7581492303       11.9971559627
  O         2.1266940568       10.9261094176        1.1466007676
  O         4.6659758850       -0.9548427378       11.9882318186
  O        -0.1342949846        9.0849095285        1.1002452815
  O        -0.0938711628       -2.2679192776        7.9781464140
  O         2.7484207554        6.0115710744        5.1383648844
  O         9.3974653002        6.1204169549        1.1339578034
  O        -4.7586112403        2.1528368119       11.9343392745
  O         8.6081359707        3.3528528455        1.1639940086
  O        -2.4768319632        3.9364476063       11.9995079857
  O         4.4766735651        6.5725237118        3.0622254114
  O        -0.2189293977       -0.4144237499        9.9989252365
  O         6.9178543772        5.3471954024        0.1105592728
  O         2.3583580423        8.4281268750       -0.0551506155
     124
 i =       60, E =     -1301.9381173385
 Ti        -2.8638778026        2.2009976542       11.2569898174
 Ti         7.9543628623        5.0976018620        1.8892460971
 Ti         1.2386253612       -1.7078408687        9.4183063343
 Ti         2.7434064406        7.4415430869        3.6737542460
 Ti         1.7529507073        9.1110443060        1.7621602479
 Ti         3.1070039142       -1.9735775146       11.3840704401
 Ti        -1.9188302106        0.4833340347        9.3508054578
 Ti         5.9744796852        5.3872684005        3.7411101808
  H         3.7381593869        1.5101698287        8.6189204707
  H        -0.1915136803       -4.2352085997        6.4890695510
  H         4.8098681413       10.8717580668        4.6119530780
  H        -2.3788195380        6.1057106439       11.0316082726
  H         8.8309589951        1.1863348992        2.2060583743
  H        -6.8306316999        1.4744346854       10.8814508634
  H        11.3365229907        7.1020807148        2.0931499528
  H         4.0713303809       -6.0122450366       11.0007408574
  H        -2.3202844266        8.5289938528        2.0864811485
  H         4.7045581486        3.0120890624        6.8495550337
  H         0.0357813919        3.6912691573        8.4509061663
  H        -3.6504160975       -1.6832855330        6.3196852138
  H         2.2275406428        7.4622697509       -0.1127791872
  H         6.0747775111        4.8611345694        0.1901612773
  H         3.6548617255       -2.6172171396        5.8839555027
  H         1.0273436296        9.2788493469        7.2906605423
  H        -6.0517749572        3.7789162861        9.0034401616
  H        10.7935299294        3.1206249637        4.2054870010
  H        -3.6123897611        2.5374876320        5.6845097818
  H        -1.3217686321       10.9849039795        4.1189206484
  H         2.2241357113       12.2118168948        2.6054860479
  H         8.7306688546       -0.8397048353        3.4138894504
  H         4.8368130332        7.1200157040        2.3398500077
  H         0.1569675803        0.1427076702       10.7049082413
  H         7.3414261630       -0.0045570756        9.7790173163
  H         5.8607585679       -0.4811963596       10.5289079728
  H         7.8359046013        4.2437190214        8.6584247491
  H         7.3020661964        4.6492350012        7.0353572587
  H         6.8693603819       -4.9959059518        9.5961707332
  H         5.5846366074       -3.9011038161       10.0535846449
  H         1.4188972376        1.8732407776        9.4004894336
  H         1.0031270572        5.1973728197        6.6801053109
  H         6.0464582021        8.8688381925        3.8419416356
  H        -7.7319943701        8.8765265167        4.6918384055
  C         8.5477948427        4.3561759275        4.7487601531
  C        -3.8238384974        2.4849796132        8.4108560026
  C         3.8229388408       -2.7240624923        8.5148614600
  C         0.8254049032        9.4301978713        4.6270319626
  C         9.4433195283        3.7567825554        5.7455876651
  C        -4.7526951816        3.1131417018        7.4350280499
  C         4.7655359248       -3.3362999974        7.5708766866
  C        -0.0610928646       10.0775865116        5.6280772520
  C         9.1579448984        3.7727811316        7.1483960270
  C        -4.4970660770        3.0515574714        6.0493924018
  C         5.8912603163       -4.1023521871        8.0237621807
  C        -1.1509319506       10.8587917812        5.1842328846
  C         0.1845367801        9.8953404576        6.9843188734
  C         4.5266845643       -3.1929644830        6.1862785906
  C        10.6163144096        3.1177448318        5.2784788860
  C        -5.8902086382        3.7477309940        7.9273783051
  C         2.9100866365        4.1933430145        6.6659362090
  C         1.8345248532        2.5207230783        8.6306080682
  C         6.4821573797        9.5119909975        4.6048452825
  C        -1.8643504598       -2.8752425241        6.5061654419
  C         8.7648287716        1.2616191269        0.0640855684
  C         2.3060367172       13.0571577352        0.0858045660
  C        11.2334075506        7.0400503315       -0.0562898632
  C        -2.1272274774        8.5786248021       -0.0703434563
  C         3.4833432620        5.0826483975        5.6268296877
  C        -1.2604925290       -1.9843178231        7.5258560860
  C         8.6175530100        2.7202861058        0.0426529181
  C         2.2066644776       11.6206305753        0.0488812435
  C         9.9344368773        6.4181226082       -0.0133417066
  C        -0.7193858411        8.9890647393       -0.0435427080
  C         1.5889795687        4.3884299014        7.1113244304
  C         3.1481515882        2.3179555540        8.1888543161
  C         5.7857069352       10.6469317029        5.0394412891
  C        -1.1708704554       -4.0192984219        6.0675169508
  C         8.8322180116        0.5952674220        1.2921319444
  C        -2.3532574864        6.6955316626       11.9444380020
  C        11.8859977181        7.3110170645        1.1787999766
  C        -7.3926990887        1.2907792117       11.7954061768
  C         7.7414507212        9.2043904315        5.1355221729
  C        -3.1319803719       -2.5740282283        5.9717300908
  C         3.6871851619        3.1517983027        7.2086753365
  C         1.0545493728        3.5520486994        8.0924589466
  C         7.2908659993        0.2487287742       11.8070291485
  C        -2.8237467332        8.3472072588        1.1409234927
  C         4.1310934894       -6.5414632108       11.9477587757
  C         2.3455153472       13.8052630537        1.3149929931
  N         2.4343663717       13.2046002688        2.5483226005
  N         6.7111483173        0.0753901875       10.5687334576
  N         8.0361194184        4.3502148682        7.6723375307
  N         6.2135256916       -4.2678807352        9.3424855674
  O         7.3666368202        4.7559087957        5.1132226359
  O        -3.0424939532        1.5455589843        8.0034049798
  O         4.1941694992       -2.6080147717        9.7402886448
  O         0.7550333355        9.8514252807        3.4243507268
  O         1.6000376591        8.4745447988        5.0158646459
  O         2.6572988479       -2.3448995804        8.1010382902
  O         8.9579990990        4.4423693275        3.5364281610
  O        -3.8782792133        2.9021117088        9.6166388266
  O         6.2789959557        4.1760605846        2.5391487800
  O        -1.3664925383        2.0390709035       10.1177238367
  O         7.2159844726        6.4630001546        2.9886936807
  O        -3.1184101831        0.3089447818       10.5873152151
  O         1.4810687289       -2.8812898116       10.6815148660
  O         3.2670111654        8.9968809603        2.9132212666
  O         2.4496232393       -0.6233521178       10.2333351691
  O         1.5537499351        7.2417344644        2.4191071888
  O         4.6992237803        4.8875037576        5.2625282364
  O        -1.9302471375       -0.9608865014        7.9150947021
  O         3.8504414588       -3.7582171040       11.9968586271
  O         2.1268209025       10.9261962081        1.1464705220
  O         4.6660941611       -0.9548754458       11.9882359613
  O        -0.1341646404        9.0849314581        1.1001977613
  O        -0.0938279004       -2.2680058340        7.9781368046
  O         2.7484686925        6.0118013971        5.1382678207
  O         9.3975074933        6.1205673894        1.1339563721
  O        -4.7585430301        2.1527994508       11.9342856246
  O         8.6081870715        3.3530059566        1.1636607264
  O        -2.4767902544        3.9364906992       11.9993756400
  O         4.4767572914        6.5726487456        3.0620641435
  O        -0.2188891421       -0.4143957172        9.9988214694
  O         6.9178513655        5.3472053085        0.1104893502
  O         2.3585587936        8.4281778993       -0.0552221545
     124
 i =       61, E =     -1301.9381175577
 Ti        -2.8639679477        2.2008687391       11.2569539538
 Ti         7.9543640726        5.0974987462        1.8892028856
 Ti         1.2385915440       -1.7078558646        9.4183253297
 Ti         2.7435344969        7.4417064423        3.6737548307
 Ti         1.7531480338        9.1111268387        1.7621223765
 Ti         3.1069385536       -1.9736438510       11.3840494140
 Ti        -1.9189864132        0.4830392970        9.3507682740
 Ti         5.9744638652        5.3871823370        3.7410283935
  H         3.7374104561        1.5097963375        8.6184707303
  H        -0.1914061612       -4.2353010325        6.4888317517
  H         4.8099877528       10.8717573572        4.6117926402
  H        -2.3784240078        6.1055408324       11.0314788566
  H         8.8310945210        1.1863483386        2.2058572648
  H        -6.8303377253        1.4738954043       10.8816728686
  H        11.3363141356        7.1023134896        2.0932363371
  H         4.0714719666       -6.0123851505       11.0005724689
  H        -2.3206084656        8.5297512160        2.0865947546
  H         4.7040726667        3.0117034609        6.8493362080
  H         0.0355587946        3.6917496174        8.4509990745
  H        -3.6503182280       -1.6833034908        6.3194786658
  H         2.2275953670        7.4621957318       -0.1125901738
  H         6.0747519781        4.8609139114        0.1902802254
  H         3.6548994699       -2.6170744731        5.8836424408
  H         1.0268823611        9.2784945067        7.2906175939
  H        -6.0526031337        3.7778196340        9.0033536782
  H        10.7937357068        3.1210633187        4.2054841425
  H        -3.6123639577        2.5375452567        5.6846158391
  H        -1.3219434840       10.9846883190        4.1187758630
  H         2.2242527786       12.2118035655        2.6054372248
  H         8.7308314914       -0.8396648245        3.4137876283
  H         4.8369145411        7.1200876550        2.3399010338
  H         0.1570441788        0.1428245474       10.7046767301
  H         7.3414467154       -0.0045193821        9.7790642582
  H         5.8608176357       -0.4813684916       10.5289635491
  H         7.8348637071        4.2422727277        8.6582568850
  H         7.3012234993        4.6480748452        7.0350516717
  H         6.8686270965       -4.9963016467        9.5961117292
  H         5.5842785271       -3.9010214861       10.0533431231
  H         1.4183065136        1.8732531794        9.4001923462
  H         1.0030869511        5.1978894695        6.6804312711
  H         6.0465287343        8.8687856728        3.8417836617
  H        -7.7318286360        8.8765450903        4.6915751473
  C         8.5476771264        4.3559769655        4.7486879094
  C        -3.8241854563        2.4844509477        8.4108444358
  C         3.8228569405       -2.7239020478        8.5147464953
  C         0.8252586170        9.4300729086        4.6269087707
  C         9.4430165846        3.7563629386        5.7455196141
  C        -4.7531459244        3.1125451746        7.4350027264
  C         4.7654395722       -3.3361041484        7.5707006571
  C        -0.0613207101       10.0774240741        5.6279852448
  C         9.1572083525        3.7717194080        7.1482754691
  C        -4.4972571770        3.0513341825        6.0493941365
  C         5.8910349851       -4.1022967518        8.0236231989
  C        -1.1510520909       10.8586826832        5.1840929429
  C         0.1842236310        9.8951520611        6.9842326186
  C         4.5266388995       -3.1928464483        6.1860845855
  C        10.6162490651        3.1177291859        5.2784589334
  C        -5.8908806677        3.7467826854        7.9273011909
  C         2.9098720020        4.1934579367        6.6659289320
  C         1.8340479163        2.5207948473        8.6304409543
  C         6.4822567184        9.5119363330        4.6046685647
  C        -1.8642362661       -2.8753322068        6.5060502571
  C         8.7649211617        1.2615044554        0.0638858107
  C         2.3062838899       13.0570844115        0.0856699762
  C        11.2333516208        7.0400773630       -0.0562101389
  C        -2.1273231416        8.5786276685       -0.0701854609
  C         3.4832909475        5.0827441021        5.6268686922
  C        -1.2604445900       -1.9845171572        7.5258425583
  C         8.6174418912        2.7201761583        0.0423394639
  C         2.2067915402       11.6205823258        0.0487221872
  C         9.9344321012        6.4180455058       -0.0132950271
  C        -0.7193488747        8.9889191475       -0.0434038491
  C         1.5888236416        4.3887405867        7.1114265668
  C         3.1475695707        2.3177616752        8.1885459309
  C         5.7858239420       10.6468852317        5.0392872672
  C        -1.1707625214       -4.0193673467        6.0673337614
  C         8.8323855618        0.5952127922        1.2919379336
  C        -2.3529335307        6.6954236947       11.9442584996
  C        11.8858526697        7.3112351110        1.1789220906
  C        -7.3926269942        1.2905208376       11.7955677870
  C         7.7415617684        9.2043507280        5.1353221665
  C        -3.1318632888       -2.5740945716        5.9715917039
  C         3.6867347326        3.1516227720        7.2084719377
  C         1.0542611427        3.5523335277        8.0924723415
  C         7.2909000947        0.2485739652       11.8071403823
  C        -2.8239499336        8.3475700033        1.1410626494
  C         4.1312658529       -6.5415933061       11.9475840358
  C         2.3457256823       13.8052126541        1.3148516188
  N         2.4344832385       13.2045891892        2.5482286620
  N         6.7112350322        0.0751476262       10.5688449992
  N         8.0349213765        4.3482845773        7.6720920083
  N         6.2132826375       -4.2678234018        9.3423503227
  O         7.3665621695        4.7558906271        5.1131770308
  O        -3.0427495758        1.5451286839        8.0033807461
  O         4.1940339201       -2.6080285780        9.7402087429
  O         0.7550397864        9.8514214152        3.4242830053
  O         1.5998840858        8.4744155889        5.0157683418
  O         2.6571992681       -2.3446934024        8.1009559458
  O         8.9579029062        4.4421888496        3.5363741217
  O        -3.8786333247        2.9016155254        9.6166099823
  O         6.2788683530        4.1759370835        2.5390512729
  O        -1.3667570141        2.0389362984       10.1175023033
  O         7.2159976684        6.4629019923        2.9885740376
  O        -3.1184449853        0.3087099927       10.5874089025
  O         1.4809598851       -2.8812506777       10.6815575889
  O         3.2671442730        8.9971386272        2.9132511000
  O         2.4496420302       -0.6233875964       10.2333614936
  O         1.5540208762        7.2418709649        2.4190209616
  O         4.6990992825        4.8873733757        5.2624486656
  O        -1.9303580659       -0.9611950116        7.9151802480
  O         3.8499716001       -3.7585379678       11.9964909876
  O         2.1268935551       10.9261463938        1.1463543754
  O         4.6661042512       -0.9550868493       11.9882988197
  O        -0.1341083737        9.0847798796        1.1002932476
  O        -0.0938293393       -2.2681827276        7.9781427303
  O         2.7485558215        6.0120689581        5.1384081819
  O         9.3974523712        6.1205542630        1.1339786374
  O        -4.7585899811        2.1525817936       11.9343695059
  O         8.6082203055        3.3530778733        1.1632507142
  O        -2.4768578024        3.9364214175       11.9992488382
  O         4.4768255324        6.5727139697        3.0620894007
  O        -0.2188727957       -0.4144035503        9.9987360646
  O         6.9177264747        5.3471109392        0.1104427836
  O         2.3586799227        8.4281115447       -0.0552244950
     124
 i =       62, E =     -1301.9381177365
 Ti        -2.8638925054        2.2008303586       11.2568691203
 Ti         7.9543917105        5.0975129547        1.8891176045
 Ti         1.2385359659       -1.7078721458        9.4183838511
 Ti         2.7436233729        7.4418316562        3.6736975394
 Ti         1.7533030399        9.1112689207        1.7620186837
 Ti         3.1069259049       -1.9735927303       11.3839880858
 Ti        -1.9190840299        0.4828643708        9.3508003280
 Ti         5.9744666066        5.3872752275        3.7409879060
  H         3.7369931468        1.5095922245        8.6180384884
  H        -0.1912667676       -4.2352771181        6.4885440773
  H         4.8099543319       10.8716568938        4.6118924868
  H        -2.3778862930        6.1056082225       11.0313338123
  H         8.8307905805        1.1864330544        2.2057271505
  H        -6.8300678174        1.4735234613       10.8817222395
  H        11.3362688533        7.1026875430        2.0932540432
  H         4.0719344032       -6.0123980474       11.0004191582
  H        -2.3208021640        8.5303937264        2.0865837455
  H         4.7038974686        3.0116947329        6.8492754609
  H         0.0353613947        3.6919478031        8.4507749180
  H        -3.6503381951       -1.6834292682        6.3195008603
  H         2.2276484166        7.4622670792       -0.1125300174
  H         6.0747731777        4.8608567390        0.1903340855
  H         3.6548084907       -2.6169550223        5.8834316352
  H         1.0266061801        9.2784319252        7.2905205644
  H        -6.0527765919        3.7776846076        9.0032770492
  H        10.7934860418        3.1207574747        4.2054338794
  H        -3.6126937382        2.5370240500        5.6846218418
  H        -1.3221548475       10.9845462627        4.1185987391
  H         2.2239690520       12.2119484190        2.6053954574
  H         8.7303949580       -0.8395077386        3.4136415318
  H         4.8370093045        7.1200906938        2.3398426659
  H         0.1568726832        0.1428402953       10.7047179119
  H         7.3415936876       -0.0045678825        9.7790200308
  H         5.8609495698       -0.4814935044       10.5289258824
  H         7.8347183520        4.2422267163        8.6581614548
  H         7.3010454905        4.6479067898        7.0349026900
  H         6.8682388160       -4.9963793722        9.5959292320
  H         5.5840417765       -3.9009113075       10.0531359520
  H         1.4178811158        1.8731311907        9.3997828736
  H         1.0030764081        5.1982568849        6.6805328080
  H         6.0464166224        8.8686301373        3.8418857457
  H        -7.7317088560        8.8765994410        4.6913309391
  C         8.5476356475        4.3559260329        4.7486128612
  C        -3.8243345948        2.4842016149        8.4108028552
  C         3.8228103620       -2.7237134593        8.5146077520
  C         0.8251415165        9.4300121251        4.6267705681
  C         9.4428494100        3.7561138289        5.7454180176
  C        -4.7533972956        3.1122026359        7.4349411261
  C         4.7653800534       -3.3358980073        7.5705527403
  C        -0.0615219212       10.0773689821        5.6278291606
  C         9.1570016971        3.7714200598        7.1481588528
  C        -4.4975269523        3.0509147922        6.0493536866
  C         5.8908828038       -4.1022078816        8.0234643490
  C        -1.1512545585       10.8586241364        5.1839387707
  C         0.1840138216        9.8951268916        6.9840697350
  C         4.5265193924       -3.1927447721        6.1859196698
  C        10.6159867757        3.1173307740        5.2784016776
  C        -5.8911170220        3.7464709832        7.9272270530
  C         2.9098052621        4.1936580337        6.6659001009
  C         1.8337084803        2.5207365390        8.6301195380
  C         6.4821994665        9.5118128094        4.6046995987
  C        -1.8642152419       -2.8754177476        6.5059807111
  C         8.7649496887        1.2615242485        0.0637533338
  C         2.3064348784       13.0571298991        0.0855725245
  C        11.2333942108        7.0401459402       -0.0562398762
  C        -2.1272828487        8.5787135985       -0.0701810595
  C         3.4833291884        5.0829729838        5.6269244825
  C        -1.2604559680       -1.9846525081        7.5257937905
  C         8.6174043930        2.7202059768        0.0421371015
  C         2.2069219010       11.6206485525        0.0485885782
  C         9.9344796449        6.4180719937       -0.0133178312
  C        -0.7192374496        8.9889676421       -0.0434543493
  C         1.5887649761        4.3890108946        7.1114184022
  C         3.1472440151        2.3177000954        8.1882475368
  C         5.7857834881       10.6467624220        5.0393430384
  C        -1.1706876286       -4.0193975281        6.0671642868
  C         8.8322626788        0.5952719685        1.2918099792
  C        -2.3525958418        6.6954647022       11.9441429444
  C        11.8858101369        7.3115136348        1.1789143707
  C        -7.3924849480        1.2903816968       11.7955920818
  C         7.7416034988        9.2043300269        5.1351693572
  C        -3.1318713952       -2.5741957069        5.9715881211
  C         3.6865504739        3.1516848659        7.2083595242
  C         1.0540774483        3.5524670085        8.0922931173
  C         7.2910185298        0.2484865747       11.8071139553
  C        -2.8240224790        8.3479269969        1.1410488578
  C         4.1315492324       -6.5415719263       11.9474521916
  C         2.3456680056       13.8052931694        1.3147536538
  N         2.4342281894       13.2047124595        2.5481664477
  N         6.7114194180        0.0749225172       10.5688301919
  N         8.0346304533        4.3478176906        7.6719270481
  N         6.2131217580       -4.2676859084        9.3421885955
  O         7.3665877401        4.7559968699        5.1131211533
  O        -3.0429017539        1.5448960658        8.0033807182
  O         4.1939789393       -2.6079422679        9.7401043214
  O         0.7550305782        9.8514223683        3.4241886428
  O         1.5997877338        8.4743775425        5.0156461123
  O         2.6571260834       -2.3444902513        8.1008681291
  O         8.9578698469        4.4421337390        3.5363085289
  O        -3.8787199986        2.9014809427        9.6165346006
  O         6.2788155809        4.1760358114        2.5389802351
  O        -1.3667876221        2.0388446000       10.1173853861
  O         7.2160343974        6.4629221217        2.9884269068
  O        -3.1184271091        0.3085387267       10.5875303045
  O         1.4808434535       -2.8812166753       10.6816445696
  O         3.2672076673        8.9972933531        2.9132423647
  O         2.4496356196       -0.6233823532       10.2333437961
  O         1.5542776835        7.2419897068        2.4188330106
  O         4.6991659107        4.8875839953        5.2625535750
  O        -1.9303643335       -0.9613176154        7.9151850861
  O         3.8497856571       -3.7586270647       11.9962495227
  O         2.1270490380       10.9262198268        1.1462547698
  O         4.6661530798       -0.9550883635       11.9882582662
  O        -0.1339534072        9.0848171288        1.1002254396
  O        -0.0938617084       -2.2682764461        7.9781396505
  O         2.7486241231        6.0123018061        5.1384753189
  O         9.3975231665        6.1206160559        1.1339580693
  O        -4.7584986526        2.1525721109       11.9342938255
  O         8.6083296575        3.3532122786        1.1629915845
  O        -2.4767665486        3.9364361913       11.9991571027
  O         4.4769342402        6.5728509629        3.0621326412
  O        -0.2189302834       -0.4144408678        9.9987530138
  O         6.9176781315        5.3471614941        0.1104132752
  O         2.3588059831        8.4281778490       -0.0552878202
     124
 i =       63, E =     -1301.9381179654
 Ti        -2.8639261611        2.2007007647       11.2568670244
 Ti         7.9543045692        5.0974156003        1.8890184347
 Ti         1.2383763548       -1.7079075902        9.4184170331
 Ti         2.7436624730        7.4419636584        3.6736414679
 Ti         1.7533990982        9.1113373122        1.7619235905
 Ti         3.1068656276       -1.9735898977       11.3839330192
 Ti        -1.9192216315        0.4825439055        9.3508642914
 Ti         5.9744250346        5.3872848156        3.7409048199
  H         3.7363771883        1.5091890358        8.6174469634
  H        -0.1911079438       -4.2352507128        6.4882014910
  H         4.8099909664       10.8715670345        4.6118172961
  H        -2.3772101165        6.1056388766       11.0311036695
  H         8.8304924248        1.1864389602        2.2055575927
  H        -6.8298378636        1.4730474299       10.8818194401
  H        11.3360636511        7.1033307364        2.0932907687
  H         4.0726464903       -6.0125225183       11.0001912098
  H        -2.3212259653        8.5311782634        2.0866839899
  H         4.7035631710        3.0115583953        6.8491275233
  H         0.0350519000        3.6922582257        8.4505709162
  H        -3.6503344918       -1.6836143578        6.3194675624
  H         2.2277416933        7.4623115543       -0.1124486730
  H         6.0747526722        4.8607537911        0.1903514785
  H         3.6547479088       -2.6166701634        5.8832688427
  H         1.0262744079        9.2783510022        7.2904283216
  H        -6.0533210329        3.7769919287        9.0031687966
  H        10.7933398014        3.1205891466        4.2053946032
  H        -3.6128582093        2.5367534978        5.6846308996
  H        -1.3223356468       10.9845264314        4.1183942314
  H         2.2238080331       12.2120972799        2.6053491529
  H         8.7301001771       -0.8393337010        3.4134087763
  H         4.8371508754        7.1200339060        2.3398517763
  H         0.1566144783        0.1429895313       10.7047540327
  H         7.3417444256       -0.0046629371        9.7790292741
  H         5.8610637078       -0.4816295572       10.5289036667
  H         7.8342100142        4.2415532187        8.6580121822
  H         7.3005983426        4.6472648011        7.0346924402
  H         6.8676850500       -4.9965434920        9.5957239087
  H         5.5837108800       -3.9008139071       10.0529046909
  H         1.4172660510        1.8729974658        9.3993074821
  H         1.0030947024        5.1987620252        6.6807285357
  H         6.0463428498        8.8684039596        3.8419432093
  H        -7.7315191055        8.8766574682        4.6909842656
  C         8.5475139255        4.3557226612        4.7485339329
  C        -3.8245986699        2.4838444306        8.4108076435
  C         3.8227521580       -2.7234749121        8.5144527550
  C         0.8249845780        9.4299600256        4.6266645672
  C         9.4425524448        3.7556555143        5.7453284524
  C        -4.7537525657        3.1117150942        7.4348943109
  C         4.7652741646       -3.3356149287        7.5703758326
  C        -0.0617695473       10.0773093596        5.6276942990
  C         9.1565087457        3.7706830401        7.1480349074
  C        -4.4978001260        3.0505098080        6.0493316426
  C         5.8906763986       -4.1020398403        8.0232928088
  C        -1.1514495478       10.8586627531        5.1837571484
  C         0.1837339134        9.8950974684        6.9839339064
  C         4.5264164513       -3.1925374799        6.1857157354
  C        10.6157954281        3.1170358389        5.2783478552
  C        -5.8915534413        3.7458520313        7.9271376491
  C         2.9096955417        4.1938368608        6.6659242403
  C         1.8332099466        2.5206667739        8.6297499420
  C         6.4822131548        9.5116442803        4.6046567889
  C        -1.8641800637       -2.8755209920        6.5058832959
  C         8.7650616813        1.2614867776        0.0635609051
  C         2.3066905101       13.0570871309        0.0853963890
  C        11.2333392486        7.0402153740       -0.0562173682
  C        -2.1273190724        8.5788155965       -0.0701239707
  C         3.4833510050        5.0831599591        5.6270467919
  C        -1.2604782332       -1.9848268654        7.5257375092
  C         8.6173941995        2.7201593818        0.0418737086
  C         2.2070652529       11.6206254707        0.0484402061
  C         9.9344512272        6.4180387102       -0.0133021801
  C        -0.7192146868        8.9889778987       -0.0434273521
  C         1.5886685734        4.3893374870        7.1114535721
  C         3.1467414054        2.3174977512        8.1878788273
  C         5.7857993239       10.6466159723        5.0392750355
  C        -1.1705849918       -4.0194288620        6.0669398190
  C         8.8321995004        0.5952566655        1.2916299406
  C        -2.3521343923        6.6954320197       11.9439663409
  C        11.8856483639        7.3119241779        1.1789250723
  C        -7.3923971034        1.2902259064       11.7956585217
  C         7.7417125634        9.2042817922        5.1349652713
  C        -3.1318580931       -2.5743611867        5.9715273359
  C         3.6862340665        3.1516280513        7.2082219475
  C         1.0537808091        3.5526666801        8.0921301979
  C         7.2910801285        0.2483870043       11.8071502190
  C        -2.8242176054        8.3484155822        1.1410968088
  C         4.1319756653       -6.5416271815       11.9472613000
  C         2.3457331249       13.8053023946        1.3145812524
  N         2.4342551641       13.2048128893        2.5480609025
  N         6.7116025603        0.0746611967       10.5688689263
  N         8.0339789415        4.3467536210        7.6717250730
  N         6.2128654098       -4.2675854873        9.3420131812
  O         7.3665686348        4.7560071777        5.1130512916
  O        -3.0431808904        1.5445501963        8.0034514893
  O         4.1939199161       -2.6077762306        9.7399874623
  O         0.7549745342        9.8513921114        3.4241102593
  O         1.5996547307        8.4743556095        5.0155924386
  O         2.6570612022       -2.3442334864        8.1007962282
  O         8.9577790865        4.4420029648        3.5362320392
  O        -3.8789193806        2.9012467801        9.6165058981
  O         6.2786784154        4.1760410365        2.5388637843
  O        -1.3669540772        2.0386035185       10.1173546210
  O         7.2160153302        6.4628930817        2.9882378524
  O        -3.1183996847        0.3082580051       10.5877228166
  O         1.4806439064       -2.8812042503       10.6816835636
  O         3.2672512440        8.9974022116        2.9132626680
  O         2.4495352137       -0.6234871273       10.2333551473
  O         1.5545353480        7.2419420330        2.4186028584
  O         4.6991982899        4.8876713224        5.2626331681
  O        -1.9304079796       -0.9614746725        7.9151136151
  O         3.8495553095       -3.7588152319       11.9959457715
  O         2.1271789375       10.9262370068        1.1461607125
  O         4.6661504865       -0.9551326737       11.9882326385
  O        -0.1338490671        9.0848316510        1.1002376380
  O        -0.0939185747       -2.2684648599        7.9781401608
  O         2.7487829302        6.0125683844        5.1386191643
  O         9.3975296213        6.1205834446        1.1339608183
  O        -4.7584917128        2.1525183085       11.9343005570
  O         8.6084492458        3.3533066430        1.1626588641
  O        -2.4767094938        3.9364146887       11.9990320342
  O         4.4770583180        6.5729957071        3.0622896699
  O        -0.2190030127       -0.4144321376        9.9987993328
  O         6.9176000683        5.3471599059        0.1103905397
  O         2.3589046347        8.4282218325       -0.0553325852
     124
 i =       64, E =     -1301.9381181343
 Ti        -2.8639671424        2.2006113600       11.2568678529
 Ti         7.9542158944        5.0973221564        1.8889440191
 Ti         1.2382758277       -1.7079089746        9.4184208727
 Ti         2.7436667924        7.4420144573        3.6736079318
 Ti         1.7533819814        9.1113675571        1.7618508543
 Ti         3.1067885335       -1.9735436780       11.3838377516
 Ti        -1.9193519951        0.4823633056        9.3509049331
 Ti         5.9743728251        5.3872611813        3.7408687706
  H         3.7358517121        1.5088320194        8.6169776802
  H        -0.1909714254       -4.2352047851        6.4879663141
  H         4.8100268068       10.8714437982        4.6117105252
  H        -2.3766479586        6.1056483751       11.0308982527
  H         8.8301850896        1.1864160648        2.2053742450
  H        -6.8297558063        1.4727479847       10.8818384832
  H        11.3358336693        7.1039649205        2.0933002211
  H         4.0733274325       -6.0126083121       10.9999764245
  H        -2.3215520512        8.5317331619        2.0867655799
  H         4.7032806258        3.0114268915        6.8489509972
  H         0.0348056228        3.6925096092        8.4503953109
  H        -3.6503620079       -1.6838195930        6.3194795920
  H         2.2278690426        7.4623622248       -0.1124508211
  H         6.0747021910        4.8607773020        0.1902553604
  H         3.6546826552       -2.6164114763        5.8832129273
  H         1.0260780639        9.2783573395        7.2903445229
  H        -6.0538116172        3.7763133603        9.0030655007
  H        10.7932563232        3.1203992687        4.2053779634
  H        -3.6129804731        2.5366090955        5.6845973731
  H        -1.3224310114       10.9846148956        4.1182711599
  H         2.2237056988       12.2122443570        2.6052962381
  H         8.7298804499       -0.8391516337        3.4131556120
  H         4.8372654557        7.1199597538        2.3398474849
  H         0.1564633903        0.1432317949       10.7046815748
  H         7.3419051086       -0.0048423016        9.7790536242
  H         5.8611568520       -0.4817645050       10.5288686307
  H         7.8337817453        4.2409608205        8.6578871336
  H         7.3002598350        4.6467583288        7.0345289619
  H         6.8673403397       -4.9966679294        9.5955787566
  H         5.5834817645       -3.9008139157       10.0527740306
  H         1.4167385961        1.8729088826        9.3989274540
  H         1.0031550566        5.1991598923        6.6808117488
  H         6.0463153135        8.8682100510        3.8419527892
  H        -7.7313881995        8.8766915099        4.6907078631
  C         8.5473726932        4.3555102214        4.7484655474
  C        -3.8248390946        2.4835870859        8.4108142577
  C         3.8226991415       -2.7233090989        8.5143440186
  C         0.8248836306        9.4299518926        4.6266254670
  C         9.4423178970        3.7552726715        5.7452390572
  C        -4.7540079831        3.1113663337        7.4348627071
  C         4.7651808396       -3.3354598684        7.5702705905
  C        -0.0619175159       10.0772973618        5.6275960132
  C         9.1561513467        3.7701459663        7.1479217926
  C        -4.4979603265        3.0502869113        6.0493098217
  C         5.8905024867       -4.1019987559        8.0231901076
  C        -1.1515887510       10.8587324260        5.1836481035
  C         0.1835568224        9.8951297657        6.9838395702
  C         4.5263352777       -3.1923693608        6.1855937660
  C        10.6156004209        3.1166956756        5.2782976022
  C        -5.8919514501        3.7452866131        7.9270472965
  C         2.9096072832        4.1939815060        6.6659224704
  C         1.8328298460        2.5206369208        8.6294819408
  C         6.4822206150        9.5115467177        4.6045600181
  C        -1.8641799356       -2.8756353092        6.5057824363
  C         8.7651814190        1.2614997700        0.0633795617
  C         2.3068895019       13.0570694844        0.0852510913
  C        11.2332854745        7.0402891304       -0.0562162482
  C        -2.1273391119        8.5789538155       -0.0700945397
  C         3.4833831221        5.0832835877        5.6271047102
  C        -1.2605491562       -1.9849572614        7.5256817683
  C         8.6174259900        2.7201407304        0.0416566847
  C         2.2071641676       11.6206094994        0.0483547806
  C         9.9344092411        6.4180436543       -0.0132939332
  C        -0.7192557351        8.9890621089       -0.0434090617
  C         1.5885802691        4.3895654218        7.1114271175
  C         3.1463404668        2.3173232671        8.1875556435
  C         5.7857985232       10.6464952509        5.0392113538
  C        -1.1705120347       -4.0194821450        6.0667665005
  C         8.8321242396        0.5952535831        1.2914521968
  C        -2.3517567427        6.6953945336       11.9438130763
  C        11.8854879697        7.3122764249        1.1789079680
  C        -7.3923481551        1.2901332924       11.7956831412
  C         7.7417768951        9.2042459146        5.1347766050
  C        -3.1318777697       -2.5745114061        5.9714868482
  C         3.6859582814        3.1515495579        7.2080375936
  C         1.0535438454        3.5528194348        8.0919695091
  C         7.2911165347        0.2483121418       11.8071491687
  C        -2.8243742465        8.3487771241        1.1411155615
  C         4.1323790740       -6.5416627582       11.9470928198
  C         2.3457776403       13.8053158904        1.3144370052
  N         2.4343148223       13.2049097686        2.5479520877
  N         6.7117336230        0.0744674136       10.5688689176
  N         8.0334917644        4.3459635263        7.6715747906
  N         6.2126715290       -4.2675874539        9.3419110955
  O         7.3664954423        4.7559098751        5.1129966023
  O        -3.0434926006        1.5442403990        8.0035054819
  O         4.1939316668       -2.6076268951        9.7398795704
  O         0.7549103533        9.8513688241        3.4240685077
  O         1.5995791704        8.4743891573        5.0155939598
  O         2.6570118297       -2.3440893305        8.1007151498
  O         8.9576928111        4.4418307161        3.5361669303
  O        -3.8791038128        2.9011091115        9.6164785989
  O         6.2786112253        4.1760325227        2.5388042741
  O        -1.3670795615        2.0384711958       10.1173286331
  O         7.2159568780        6.4628453606        2.9881222890
  O        -3.1184067388        0.3080835464       10.5878562084
  O         1.4804588387       -2.8812362493       10.6816526021
  O         3.2671999799        8.9974112182        2.9133055226
  O         2.4494300554       -0.6234728924       10.2333513263
  O         1.5546773464        7.2418349696        2.4184396011
  O         4.6992286855        4.8876396059        5.2626811718
  O        -1.9304702690       -0.9616089084        7.9150713328
  O         3.8495044583       -3.7588679242       11.9957222282
  O         2.1272496547       10.9262755913        1.1461064303
  O         4.6661171048       -0.9551718181       11.9882320779
  O        -0.1338464543        9.0849041790        1.1002654413
  O        -0.0939903043       -2.2685635023        7.9781743933
  O         2.7488805621        6.0127133198        5.1386959947
  O         9.3975177782        6.1205557239        1.1339592461
  O        -4.7585069661        2.1525018337       11.9343133620
  O         8.6084968528        3.3533329811        1.1624169722
  O        -2.4766687084        3.9363777930       11.9989618382
  O         4.4771448413        6.5730860379        3.0623967530
  O        -0.2190468193       -0.4143356230        9.9987683681
  O         6.9175863662        5.3471516431        0.1103576716
  O         2.3589513782        8.4282817790       -0.0553682478
     124
 i =       65, E =     -1301.9381183434
 Ti        -2.8639766691        2.2005838217       11.2568223942
 Ti         7.9541521622        5.0972587989        1.8888256041
 Ti         1.2381362965       -1.7078140392        9.4183677688
 Ti         2.7436573375        7.4420987075        3.6735205079
 Ti         1.7533284638        9.1114124947        1.7617500462
 Ti         3.1067982205       -1.9734121074       11.3837247033
 Ti        -1.9195304033        0.4822201129        9.3509230197
 Ti         5.9743582037        5.3872965081        3.7408478887
  H         3.7351510464        1.5083915889        8.6163402676
  H        -0.1908106486       -4.2351129227        6.4876406105
  H         4.8099546868       10.8712096636        4.6116761148
  H        -2.3758726509        6.1056829672       11.0306660667
  H         8.8296652193        1.1864433436        2.2051334605
  H        -6.8296733879        1.4724421748       10.8817903337
  H        11.3355206234        7.1048835588        2.0932345854
  H         4.0743117732       -6.0126175126       10.9996598689
  H        -2.3218572935        8.5324004038        2.0867742277
  H         4.7029737121        3.0112828485        6.8486980806
  H         0.0345128117        3.6928105026        8.4500467068
  H        -3.6504714257       -1.6841297738        6.3196248230
  H         2.2280594150        7.4624541280       -0.1125232552
  H         6.0746765028        4.8608684823        0.1900485054
  H         3.6545644661       -2.6161306335        5.8831259110
  H         1.0258823223        9.2784239110        7.2901676278
  H        -6.0543539875        3.7755540027        9.0029430553
  H        10.7930133491        3.1197901902        4.2053181207
  H        -3.6132470327        2.5361753739        5.6845233212
  H        -1.3226214143       10.9847623310        4.1181023444
  H         2.2233713920       12.2124638870        2.6052106512
  H         8.7293684982       -0.8388444277        3.4128021217
  H         4.8373862616        7.1199106609        2.3397898669
  H         0.1562535709        0.1434980866       10.7046237088
  H         7.3422002838       -0.0052529253        9.7790685896
  H         5.8613146566       -0.4819903068       10.5287864946
  H         7.8334215472        4.2405439111        8.6577173226
  H         7.3000085325        4.6464216999        7.0343236463
  H         6.8670693375       -4.9967722597        9.5953482654
  H         5.5832666764       -3.9008676440       10.0526289935
  H         1.4160624184        1.8728283904        9.3983312461
  H         1.0032627527        5.1996747976        6.6807900160
  H         6.0462660768        8.8679854717        3.8419485340
  H        -7.7312702502        8.8767343436        4.6903571055
  C         8.5472125424        4.3552222595        4.7483636450
  C        -3.8251427577        2.4833108067        8.4108097123
  C         3.8226049424       -2.7231021765        8.5141924533
  C         0.8247581703        9.4300223372        4.6265679868
  C         9.4420212313        3.7547526851        5.7451202298
  C        -4.7543432289        3.1109221886        7.4348160692
  C         4.7650268875       -3.3353233521        7.5701210114
  C        -0.0621217457       10.0773715478        5.6274244610
  C         9.1557760416        3.7695552147        7.1477845936
  C        -4.4982585381        3.0498010693        6.0492584250
  C         5.8902830172       -4.1019714660        8.0230274506
  C        -1.1518149764       10.8588576436        5.1834779407
  C         0.1833175922        9.8951739178        6.9836734596
  C         4.5261646427       -3.1922156233        6.1854456997
  C        10.6153130887        3.1161466021        5.2782206027
  C        -5.8923742637        3.7446948654        7.9269477353
  C         2.9095173382        4.1941271522        6.6658766801
  C         1.8323195458        2.5205856623        8.6290004323
  C         6.4822272923        9.5113906559        4.6044807376
  C        -1.8641870699       -2.8757740631        6.5057177225
  C         8.7653610882        1.2615809823        0.0630899632
  C         2.3071112345       13.0570949220        0.0850275370
  C        11.2332434704        7.0404087282       -0.0562470141
  C        -2.1273297555        8.5791334347       -0.0701097187
  C         3.4834334098        5.0834379326        5.6271401777
  C        -1.2606267383       -1.9850824944        7.5256715093
  C         8.6175234748        2.7201749007        0.0413761687
  C         2.2072721497       11.6206227325        0.0482386108
  C         9.9343777686        6.4181067751       -0.0133027035
  C        -0.7193112677        8.9891983789       -0.0434413228
  C         1.5884958426        4.3898988002        7.1113290099
  C         3.1458279337        2.3171280019        8.1871180414
  C         5.7857526426       10.6462911186        5.0391810726
  C        -1.1704203259       -4.0195000986        6.0665495658
  C         8.8319697225        0.5953328069        1.2911974906
  C        -2.3512382672        6.6954154657       11.9435961106
  C        11.8853022218        7.3127782881        1.1788346885
  C        -7.3922832540        1.2900468847       11.7956540017
  C         7.7418783223        9.2042174273        5.1345575445
  C        -3.1319326504       -2.5747337701        5.9714961639
  C         3.6856703583        3.1514720870        7.2078110806
  C         1.0532646191        3.5530520184        8.0916746922
  C         7.2911776794        0.2482231114       11.8071187664
  C        -2.8245434360        8.3492522605        1.1410781612
  C         4.1329737841       -6.5416292753       11.9468219469
  C         2.3457392352       13.8053976523        1.3141822321
  N         2.4341854321       13.2050942848        2.5477680119
  N         6.7119389860        0.0741759615       10.5688179875
  N         8.0330893217        4.3453198004        7.6713821924
  N         6.2124237634       -4.2676674669        9.3417522939
  O         7.3664285294        4.7558299059        5.1129087418
  O        -3.0438836879        1.5438571737        8.0035607369
  O         4.1939348531       -2.6074035932        9.7396973194
  O         0.7547994232        9.8513695603        3.4239682567
  O         1.5994535255        8.4744627037        5.0155647567
  O         2.6569380798       -2.3438609209        8.1006305651
  O         8.9575636533        4.4416026617        3.5360642099
  O        -3.8792758601        2.9010454048        9.6163983123
  O         6.2786422586        4.1760566966        2.5387819919
  O        -1.3671898256        2.0383856166       10.1172310173
  O         7.2159579317        6.4628116320        2.9880509183
  O        -3.1184693609        0.3079867774       10.5879707774
  O         1.4803937369       -2.8811749860       10.6815196569
  O         3.2671434992        8.9974562277        2.9133454551
  O         2.4492987150       -0.6234040460       10.2333616136
  O         1.5547597590        7.2417173270        2.4182484106
  O         4.6993153143        4.8877755640        5.2627981420
  O        -1.9305673586       -0.9617586933        7.9150374785
  O         3.8496159328       -3.7588098286       11.9954608972
  O         2.1272814807       10.9263696194        1.1460204223
  O         4.6661286516       -0.9551277338       11.9882056588
  O        -0.1338645984        9.0850806762        1.1002382391
  O        -0.0940493441       -2.2686690731        7.9781955036
  O         2.7490118878        6.0128931323        5.1386933311
  O         9.3975279704        6.1206067603        1.1339523870
  O        -4.7585044683        2.1525774958       11.9343053400
  O         8.6084985708        3.3533481353        1.1621448597
  O        -2.4766042235        3.9363472046       11.9988711762
  O         4.4772230559        6.5731754756        3.0624326785
  O        -0.2191588437       -0.4142162039        9.9987658887
  O         6.9176249717        5.3471574872        0.1102831127
  O         2.3590185283        8.4283945353       -0.0554379857
     124
 i =       66, E =     -1301.9381185724
 Ti        -2.8641256740        2.2005196412       11.2568572987
 Ti         7.9540210851        5.0971005360        1.8887729213
 Ti         1.2379886763       -1.7077714236        9.4183057598
 Ti         2.7436134737        7.4421375844        3.6735529420
 Ti         1.7531259892        9.1113995566        1.7617442094
 Ti         3.1067350724       -1.9733229861       11.3836342018
 Ti        -1.9197871385        0.4821014046        9.3508824704
 Ti         5.9743171427        5.3871545980        3.7408281068
  H         3.7343104807        1.5078064217        8.6157445699
  H        -0.1906462587       -4.2350689266        6.4873592825
  H         4.8099631226       10.8709306735        4.6114964592
  H        -2.3750056814        6.1055457016       11.0304512432
  H         8.8292274335        1.1864161205        2.2047992427
  H        -6.8297211841        1.4722379280       10.8817758945
  H        11.3349898631        7.1058541035        2.0931863350
  H         4.0753623742       -6.0126991633       10.9993031562
  H        -2.3222602213        8.5331108008        2.0868333938
  H         4.7025151274        3.0109203633        6.8483829201
  H         0.0341938243        3.6931431869        8.4498651943
  H        -3.6505600528       -1.6844442100        6.3196157763
  H         2.2282986762        7.4624433072       -0.1125566578
  H         6.0745237695        4.8610134517        0.1897986446
  H         3.6545745798       -2.6156920592        5.8831087079
  H         1.0257115365        9.2785265863        7.2900487139
  H        -6.0552648631        3.7742288920        9.0028284081
  H        10.7930222277        3.1195314414        4.2052937736
  H        -3.6132304245        2.5362099843        5.6844993056
  H        -1.3226870694       10.9851544468        4.1180415322
  H         2.2233913245       12.2126184481        2.6050948580
  H         8.7293436299       -0.8385843210        3.4124748924
  H         4.8374531522        7.1197966387        2.3398221509
  H         0.1561484583        0.1437965446       10.7043617208
  H         7.3424025428       -0.0057285597        9.7791524922
  H         5.8613994847       -0.4822895502       10.5287385032
  H         7.8326080228        4.2393454656        8.6575232800
  H         7.2994429847        4.6455942129        7.0340766225
  H         6.8667616633       -4.9969728977        9.5952415036
  H         5.5830508363       -3.9010246824       10.0526012490
  H         1.4153099232        1.8727188921        9.3977705564
  H         1.0033620885        5.2001689831        6.6808758844
  H         6.0463706499        8.8677869924        3.8417889860
  H        -7.7311184169        8.8767094731        4.6900345649
  C         8.5469887736        4.3547833590        4.7482678972
  C        -3.8255331079        2.4829760193        8.4108169284
  C         3.8224788666       -2.7229804637        8.5141273266
  C         0.8246071322        9.4300836787        4.6265615802
  C         9.4417028797        3.7541646298        5.7450088941
  C        -4.7547225166        3.1104279860        7.4347745644
  C         4.7648633831       -3.3352483301        7.5700320960
  C        -0.0622567323       10.0774862460        5.6273425466
  C         9.1552151825        3.7686728188        7.1476396085
  C        -4.4984063435        3.0495581075        6.0492187955
  C         5.8900759078       -4.1019642548        8.0229513336
  C        -1.1518590530       10.8591395285        5.1833914328
  C         0.1831502807        9.8953006390        6.9835985435
  C         4.5261026863       -3.1919613256        6.1853627568
  C        10.6151771588        3.1158170987        5.2781609347
  C        -5.8929948440        3.7437983876        7.9268483932
  C         2.9093431945        4.1941737836        6.6658282474
  C         1.8317563177        2.5205266408        8.6285823782
  C         6.4823178342        9.5112651405        4.6042669743
  C        -1.8642041978       -2.8759206986        6.5055688691
  C         8.7655972794        1.2615738985        0.0627613753
  C         2.3073907912       13.0570464604        0.0848297604
  C        11.2330725564        7.0405824884       -0.0562451832
  C        -2.1274718876        8.5793346518       -0.0700745927
  C         3.4834247077        5.0834511865        5.6271422117
  C        -1.2607608260       -1.9852175792        7.5256348826
  C         8.6175928845        2.7201321892        0.0410749877
  C         2.2073336886       11.6205569338        0.0481797982
  C         9.9342551150        6.4181552709       -0.0132784733
  C        -0.7195050745        8.9892977389       -0.0433655312
  C         1.5883659154        4.3901732573        7.1112995328
  C         3.1452199161        2.3168126858        8.1866940742
  C         5.7857697658       10.6460904413        5.0389995593
  C        -1.1703066298       -4.0195239443        6.0662965459
  C         8.8319374429        0.5953276004        1.2908908493
  C        -2.3505937860        6.6953186618       11.9433706391
  C        11.8849676881        7.3133520119        1.1788114608
  C        -7.3923608338        1.2900208733       11.7956525695
  C         7.7420090862        9.2041601357        5.1343029315
  C        -3.1319748139       -2.5749544647        5.9713704170
  C         3.6852501930        3.1512487771        7.2075545196
  C         1.0529244659        3.5532819741        8.0914772927
  C         7.2911125360        0.2481696629       11.8071252461
  C        -2.8248387403        8.3497548795        1.1411009910
  C         4.1336664820       -6.5416943797       11.9465213799
  C         2.3458623026       13.8053944733        1.3139303135
  N         2.4342704205       13.2052256434        2.5475717396
  N         6.7120059857        0.0739164019       10.5687854302
  N         8.0323402106        4.3441348816        7.6711891461
  N         6.2121675981       -4.2678135787        9.3416863515
  O         7.3662550432        4.7555427292        5.1128379493
  O        -3.0443053125        1.5434472481        8.0036056792
  O         4.1938913558       -2.6072215692        9.7395897152
  O         0.7546779371        9.8513708293        3.4239160208
  O         1.5993064238        8.4745720643        5.0156292148
  O         2.6568052501       -2.3437684494        8.1005805439
  O         8.9573614345        4.4412127358        3.5359755713
  O        -3.8795719726        2.9008254496        9.6163537862
  O         6.2786094390        4.1758914083        2.5387561238
  O        -1.3674634843        2.0383328017       10.1171123093
  O         7.2159267050        6.4626796254        2.9880926097
  O        -3.1186243635        0.3079320371       10.5880349553
  O         1.4803008513       -2.8811874284       10.6813798690
  O         3.2669834006        8.9974581739        2.9134361453
  O         2.4491521868       -0.6233146309       10.2333663439
  O         1.5547443540        7.2416371202        2.4182288367
  O         4.6992657035        4.8876144490        5.2627821150
  O        -1.9308086542       -0.9620291830        7.9150601552
  O         3.8497364330       -3.7587977482       11.9951891981
  O         2.1272129460       10.9263994531        1.1459758864
  O         4.6660651644       -0.9551792357       11.9882328693
  O        -0.1340519406        9.0851891919        1.1003255215
  O        -0.0941350018       -2.2687147063        7.9782034806
  O         2.7491223167        6.0130319474        5.1387728964
  O         9.3974184320        6.1205696078        1.1339686232
  O        -4.7586286171        2.1525519533       11.9343981903
  O         8.6083787391        3.3532520650        1.1618667382
  O        -2.4766332106        3.9362396317       11.9988282422
  O         4.4772054062        6.5731487649        3.0624860269
  O        -0.2193091869       -0.4140945160        9.9986560695
  O         6.9176012466        5.3471118709        0.1102026245
  O         2.3589698273        8.4284208767       -0.0554190894
     124
 i =       67, E =     -1301.9381188075
 Ti        -2.8642083934        2.2006127895       11.2567789718
 Ti         7.9540133852        5.0970329536        1.8886916136
 Ti         1.2378617819       -1.7076811677        9.4182632150
 Ti         2.7435928889        7.4422606301        3.6735025013
 Ti         1.7529599428        9.1114677705        1.7617353148
 Ti         3.1067979294       -1.9731365760       11.3835043976
 Ti        -1.9200508628        0.4820350658        9.3508181713
 Ti         5.9743381781        5.3871503135        3.7408202734
  H         3.7333748288        1.5072771494        8.6150441853
  H        -0.1904562273       -4.2349616821        6.4869674833
  H         4.8098097601       10.8705105717        4.6115530962
  H        -2.3739669095        6.1054724244       11.0302394770
  H         8.8285760197        1.1865492793        2.2044438692
  H        -6.8296757057        1.4720452552       10.8816922464
  H        11.3345222721        7.1068984472        2.0930650143
  H         4.0765250018       -6.0126718984       10.9989166035
  H        -2.3225131530        8.5339066712        2.0867257237
  H         4.7021268379        3.0106232264        6.8481081524
  H         0.0338915371        3.6935222478        8.4494763446
  H        -3.6507711389       -1.6848012915        6.3197168690
  H         2.2285530363        7.4625282799       -0.1126379155
  H         6.0744652685        4.8612005224        0.1895300552
  H         3.6544973562       -2.6153752622        5.8829729860
  H         1.0255162365        9.2786856646        7.2898183690
  H        -6.0559508215        3.7732253877        9.0026747053
  H        10.7927252971        3.1187882625        4.2051783381
  H        -3.6135199186        2.5356907907        5.6844858395
  H        -1.3228738690       10.9855163435        4.1179128974
  H         2.2230830813       12.2128143876        2.6049529499
  H         8.7288975036       -0.8382449575        3.4121673817
  H         4.8374657363        7.1197824526        2.3397493222
  H         0.1559297195        0.1438375301       10.7042717328
  H         7.3427289258       -0.0064395006        9.7791750682
  H         5.8615800761       -0.4827121104       10.5286224158
  H         7.8320855538        4.2386486233        8.6573179140
  H         7.2990978963        4.6451651974        7.0338445737
  H         6.8665348288       -4.9971161163        9.5950193410
  H         5.5828680719       -3.9011854752       10.0525377283
  H         1.4144505891        1.8725418613        9.3969263799
  H         1.0035010142        5.2007714803        6.6808867074
  H         6.0464307643        8.8675729093        3.8416575534
  H        -7.7309640651        8.8767233217        4.6897141834
  C         8.5467993894        4.3543716406        4.7481431029
  C        -3.8258927308        2.4826198471        8.4107819656
  C         3.8222913196       -2.7228385591        8.5140146268
  C         0.8244375516        9.4302069517        4.6264692951
  C         9.4413681866        3.7535439092        5.7448689507
  C        -4.7551562889        3.1098272918        7.4347129614
  C         4.7646422559       -3.3351857758        7.5698970232
  C        -0.0624614851       10.0776974962        5.6271516536
  C         9.1547655064        3.7679863519        7.1474807299
  C        -4.4987373399        3.0489898738        6.0491555179
  C         5.8898183990       -4.1019699388        8.0227928339
  C        -1.1520442086       10.8593729973        5.1832340266
  C         0.1829214291        9.8954348999        6.9834075754
  C         4.5259501870       -3.1917360900        6.1852508981
  C        10.6148193286        3.1151270147        5.2780535463
  C        -5.8935503689        3.7429913075        7.9267156024
  C         2.9092243177        4.1943138757        6.6657352798
  C         1.8311417133        2.5204830566        8.6280069162
  C         6.4823645513        9.5111076013        4.6041056944
  C        -1.8641815945       -2.8760518425        6.5054380662
  C         8.7658501488        1.2616595130        0.0623724806
  C         2.3076372707       13.0571165306        0.0846142456
  C        11.2329797007        7.0408458200       -0.0563210475
  C        -2.1275588884        8.5795474718       -0.0701352637
  C         3.4834568422        5.0836172235        5.6271386331
  C        -1.2608538772       -1.9853185158        7.5256074477
  C         8.6177274961        2.7202150369        0.0407502769
  C         2.2074090778       11.6206054617        0.0480833688
  C         9.9342204225        6.4182989860       -0.0133116236
  C        -0.7196073510        8.9894442087       -0.0434176591
  C         1.5882625408        4.3905216529        7.1111496825
  C         3.1445565908        2.3165500894        8.1861413938
  C         5.7857052944       10.6458052802        5.0389819386
  C        -1.1701887688       -4.0195365352        6.0660311488
  C         8.8317507988        0.5954524680        1.2905430535
  C        -2.3498893378        6.6953263576       11.9431012813
  C        11.8847143506        7.3139948111        1.1787317631
  C        -7.3923680146        1.2899849039       11.7955760098
  C         7.7421295041        9.2041264658        5.1340424907
  C        -3.1320515031       -2.5752164954        5.9713643402
  C         3.6848618173        3.1510783805        7.2072306939
  C         1.0525899256        3.5535353541        8.0910960179
  C         7.2911247087        0.2481132624       11.8070449556
  C        -2.8250606038        8.3503235796        1.1410223381
  C         4.1344234696       -6.5416607705       11.9461730966
  C         2.3457817884       13.8055183403        1.3136494532
  N         2.4339086769       13.2054430312        2.5473598209
  N         6.7121704086        0.0735184995       10.5686582842
  N         8.0318454149        4.3433751086        7.6709844855
  N         6.2118768986       -4.2679687918        9.3415305374
  O         7.3661372417        4.7553863174        5.1127633964
  O        -3.0446704816        1.5430201901        8.0036099634
  O         4.1938263964       -2.6070214830        9.7394077393
  O         0.7545388819        9.8514255101        3.4237737868
  O         1.5990809377        8.4746723416        5.0155666549
  O         2.6566036835       -2.3436069899        8.1005184681
  O         8.9571763724        4.4408086461        3.5358604756
  O        -3.8797591264        2.9007362614        9.6162019504
  O         6.2786386293        4.1758683310        2.5387189949
  O        -1.3676858044        2.0383693426       10.1168297826
  O         7.2160045313        6.4626021663        2.9881799945
  O        -3.1188018965        0.3080190573       10.5880856502
  O         1.4804076350       -2.8811200896       10.6812472446
  O         3.2668999406        8.9975989772        2.9134786846
  O         2.4490506417       -0.6231438980       10.2333272721
  O         1.5546411512        7.2417479104        2.4182305965
  O         4.6992762408        4.8877134852        5.2628310515
  O        -1.9310650731       -0.9623074849        7.9151338540
  O         3.8500055994       -3.7586074918       11.9949158181
  O         2.1270871769       10.9265202969        1.1458848499
  O         4.6660650418       -0.9550906331       11.9882065608
  O        -0.1341669966        9.0853720669        1.1002731364
  O        -0.0941984770       -2.2687160945        7.9781830102
  O         2.7492054093        6.0132485085        5.1387378185
  O         9.3974020266        6.1206367678        1.1339412772
  O        -4.7586856906        2.1526516069       11.9343650350
  O         8.6082286696        3.3531916237        1.1616188349
  O        -2.4766294187        3.9362300566       11.9987503191
  O         4.4771516457        6.5731304809        3.0623728486
  O        -0.2195682707       -0.4141342783        9.9986631050
  O         6.9176259637        5.3471558828        0.1100529966
  O         2.3589185612        8.4285456771       -0.0554621356
     124
 i =       68, E =     -1301.9381189961
 Ti        -2.8643616437        2.2005948669       11.2567520166
 Ti         7.9539589516        5.0968988229        1.8886574071
 Ti         1.2377603648       -1.7076815911        9.4182278754
 Ti         2.7435358425        7.4423166914        3.6735817993
 Ti         1.7527525302        9.1114665827        1.7618255933
 Ti         3.1067907223       -1.9730706701       11.3834496815
 Ti        -1.9203062237        0.4819729192        9.3507791920
 Ti         5.9742854233        5.3870333398        3.7408132698
  H         3.7326866287        1.5067961948        8.6146248631
  H        -0.1903404276       -4.2349180945        6.4866857218
  H         4.8097257643       10.8701458001        4.6115369439
  H        -2.3730267682        6.1053083333       11.0301399783
  H         8.8281889095        1.1866335143        2.2041833531
  H        -6.8297347956        1.4720010294       10.8817203882
  H        11.3340397913        7.1076784779        2.0930285335
  H         4.0774558033       -6.0127698323       10.9986450106
  H        -2.3228265598        8.5345675204        2.0866707303
  H         4.7018038057        3.0102317626        6.8479735963
  H         0.0336442508        3.6937188671        8.4493073546
  H        -3.6509302611       -1.6850584333        6.3196019614
  H         2.2286223793        7.4624778599       -0.1126216130
  H         6.0743165449        4.8613322102        0.1893694236
  H         3.6545981975       -2.6149905318        5.8829152872
  H         1.0254396143        9.2788892793        7.2897496238
  H        -6.0565764640        3.7723350474        9.0026110260
  H        10.7926498392        3.1185523765        4.2051373786
  H        -3.6134538166        2.5356836017        5.6845780345
  H        -1.3227894371       10.9860249444        4.1179045820
  H         2.2231979977       12.2128364991        2.6048400664
  H         8.7289334866       -0.8381734743        3.4120724567
  H         4.8373526066        7.1197434394        2.3397947239
  H         0.1557520831        0.1437200030       10.7041877597
  H         7.3428370821       -0.0069832926        9.7792353047
  H         5.8616072743       -0.4829982243       10.5285938076
  H         7.8314968335        4.2377094526        8.6571698577
  H         7.2986902349        4.6445651064        7.0337026651
  H         6.8664403157       -4.9971770734        9.5949499016
  H         5.5827293933       -3.9013474026       10.0525950561
  H         1.4138165735        1.8722660946        9.3963757487
  H         1.0035525936        5.2010977834        6.6810133232
  H         6.0465779930        8.8674168831        3.8414581169
  H        -7.7308037479        8.8766715871        4.6895418234
  C         8.5466368145        4.3540094985        4.7480679097
  C        -3.8261234043        2.4824022998        8.4107500496
  C         3.8221726317       -2.7227622869        8.5139954075
  C         0.8243464666        9.4303168442        4.6264593158
  C         9.4411327335        3.7531241953        5.7447972967
  C        -4.7554509901        3.1094561705        7.4346691953
  C         4.7645383906       -3.3350840837        7.5698566920
  C        -0.0624921230       10.0779619019        5.6271290364
  C         9.1543425949        3.7673318653        7.1473920485
  C        -4.4988713262        3.0487235766        6.0491382364
  C         5.8896917850       -4.1018757463        8.0227860146
  C        -1.1519511675       10.8597427166        5.1832060005
  C         0.1828299823        9.8956137284        6.9833848879
  C         4.5259513724       -3.1914718867        6.1852253158
  C        10.6147153730        3.1148940103        5.2780221798
  C        -5.8939974517        3.7423425547        7.9266631455
  C         2.9090723698        4.1942672399        6.6656729072
  C         1.8306485833        2.5202821968        8.6276028195
  C         6.4824547454        9.5109315347        4.6039528034
  C        -1.8641968619       -2.8761129281        6.5052814356
  C         8.7660839870        1.2616058671        0.0621273094
  C         2.3079062150       13.0570878052        0.0845191018
  C        11.2327476228        7.0411377742       -0.0563498697
  C        -2.1277903488        8.5797347203       -0.0701372458
  C         3.4834053104        5.0835914196        5.6271427230
  C        -1.2609681526       -1.9853968160        7.5255585313
  C         8.6177862636        2.7201939551        0.0405573706
  C         2.2074353662       11.6205752733        0.0480455084
  C         9.9340944850        6.4184003586       -0.0133110225
  C        -0.7197605257        8.9895041544       -0.0433945391
  C         1.5881691809        4.3906847979        7.1111654162
  C         3.1440567728        2.3162474165        8.1858102700
  C         5.7856970693       10.6455563342        5.0388472829
  C        -1.1700957803       -4.0195049281        6.0657988997
  C         8.8317196514        0.5954645666        1.2903220881
  C        -2.3492063905        6.6952503212       11.9429494352
  C        11.8843765238        7.3145472420        1.1787244965
  C        -7.3925283227        1.2900431489       11.7955752073
  C         7.7422618124        9.2040723285        5.1338510299
  C        -3.1321118029       -2.5754096180        5.9712093826
  C         3.6845555593        3.1508647471        7.2070854658
  C         1.0523198070        3.5536150518        8.0909350191
  C         7.2909868381        0.2481485876       11.8070210035
  C        -2.8253697824        8.3507921373        1.1410089656
  C         4.1350808813       -6.5417259064       11.9459450397
  C         2.3458551029       13.8055378839        1.3135045401
  N         2.4337718017       13.2055117668        2.5472343614
  N         6.7121626329        0.0732722224       10.5685858268
  N         8.0313626026        4.3426237899        7.6708724342
  N         6.2116616091       -4.2680983878        9.3415144173
  O         7.3659871427        4.7551457208        5.1127149475
  O        -3.0448368125        1.5428109170        8.0036087238
  O         4.1937037509       -2.6069565701        9.7393713935
  O         0.7544753479        9.8514847453        3.4237381383
  O         1.5989320062        8.4747662203        5.0155931795
  O         2.6564512862       -2.3435339016        8.1004995891
  O         8.9569641422        4.4404159187        3.5357851760
  O        -3.8799629666        2.9005708007        9.6161329528
  O         6.2785415439        4.1757835417        2.5386408952
  O        -1.3679159612        2.0383747168       10.1166343722
  O         7.2160223984        6.4624382818        2.9882945667
  O        -3.1190354222        0.3080155725       10.5880906286
  O         1.4804812852       -2.8811080616       10.6811863628
  O         3.2668129398        8.9976609833        2.9135056268
  O         2.4489717310       -0.6230832130       10.2332839785
  O         1.5544407735        7.2419245944        2.4184271527
  O         4.6991802642        4.8876100525        5.2628259710
  O        -1.9313700086       -0.9625745945        7.9152299076
  O         3.8501543291       -3.7585390927       11.9947727895
  O         2.1269245885       10.9265432811        1.1458579280
  O         4.6659901196       -0.9550705576       11.9882073913
  O        -0.1343550059        9.0853857823        1.1003030730
  O        -0.0942595912       -2.2686578253        7.9780662512
  O         2.7492237622        6.0133661401        5.1388457913
  O         9.3973204215        6.1205814207        1.1339422395
  O        -4.7588017760        2.1526542227       11.9343906323
  O         8.6080299982        3.3530614863        1.1614798726
  O        -2.4766784051        3.9361537816       11.9987255844
  O         4.4769966948        6.5730284389        3.0623409731
  O        -0.2198055938       -0.4142739893        9.9986384247
  O         6.9175440744        5.3471604652        0.1099446701
  O         2.3587266163        8.4285282349       -0.0554273335
     124
 i =       69, E =     -1301.9381191072
 Ti        -2.8644442647        2.2006579562       11.2566900732
 Ti         7.9539404431        5.0968576674        1.8886318760
 Ti         1.2377158492       -1.7077013390        9.4182402284
 Ti         2.7434937239        7.4423956586        3.6736069338
 Ti         1.7526697691        9.1115119214        1.7618519716
 Ti         3.1068231102       -1.9730159101       11.3833902607
 Ti        -1.9204238799        0.4818871914        9.3507506790
 Ti         5.9742557538        5.3870301155        3.7407398329
  H         3.7322609727        1.5065268362        8.6143277944
  H        -0.1902624108       -4.2348300527        6.4864902923
  H         4.8096070924       10.8698460737        4.6116491555
  H        -2.3724066495        6.1052801031       11.0300862344
  H         8.8279111488        1.1867734473        2.2040380696
  H        -6.8297245278        1.4719709750       10.8816901325
  H        11.3338454007        7.1081220225        2.0929836078
  H         4.0780303027       -6.0128224578       10.9985031339
  H        -2.3229779661        8.5349831616        2.0865672291
  H         4.7016268866        3.0100032880        6.8479286372
  H         0.0334787388        3.6938950358        8.4491228214
  H        -3.6511051176       -1.6852182182        6.3195566942
  H         2.2285753794        7.4625146816       -0.1126337018
  H         6.0742852658        4.8614118165        0.1892804423
  H         3.6546134266       -2.6148575733        5.8828412155
  H         1.0253823338        9.2790037106        7.2896988589
  H        -6.0568091758        3.7720057780        9.0025464583
  H        10.7924344468        3.1182628113        4.2050687423
  H        -3.6135734403        2.5354381398        5.6846604615
  H        -1.3227130246       10.9863219060        4.1178572260
  H         2.2231556037       12.2128343828        2.6047488471
  H         8.7287501471       -0.8381604088        3.4120994277
  H         4.8371963033        7.1197917600        2.3397636394
  H         0.1555567757        0.1434048551       10.7043312949
  H         7.3429546519       -0.0074776172        9.7792402347
  H         5.8616522615       -0.4832315173       10.5285512856
  H         7.8312667085        4.2372916756        8.6570930681
  H         7.2985051574        4.6443070250        7.0336633613
  H         6.8664146478       -4.9971495623        9.5948423607
  H         5.5826302428       -3.9014557127       10.0526230168
  H         1.4133676977        1.8720352213        9.3958997848
  H         1.0036127873        5.2013458624        6.6810828767
  H         6.0466805246        8.8673119939        3.8413425687
  H        -7.7306535084        8.8766917859        4.6894724312
  C         8.5465158537        4.3538006624        4.7480120847
  C        -3.8262469203        2.4822308145        8.4107159943
  C         3.8220908151       -2.7227089087        8.5139522987
  C         0.8243117991        9.4304218131        4.6264044098
  C         9.4409443225        3.7528328198        5.7447354890
  C        -4.7556718059        3.1091362414        7.4346286120
  C         4.7644595893       -3.3350066591        7.5698191037
  C        -0.0625232836       10.0781479569        5.6270824674
  C         9.1541508813        3.7670522551        7.1473282592
  C        -4.4990351523        3.0484685782        6.0491222058
  C         5.8895852714       -4.1018301816        8.0227429635
  C        -1.1519439148       10.8599264195        5.1831609354
  C         0.1827913884        9.8957411102        6.9833308270
  C         4.5259655611       -3.1912828950        6.1851921316
  C        10.6144963031        3.1145588921        5.2779684556
  C        -5.8942435122        3.7419741967        7.9266052086
  C         2.9090137512        4.1942812142        6.6656153308
  C         1.8303115603        2.5201718145        8.6272972725
  C         6.4825014385        9.5108164748        4.6038784882
  C        -1.8641922932       -2.8761360132        6.5051826493
  C         8.7662229055        1.2616157632        0.0619988319
  C         2.3080306816       13.0571200926        0.0844654947
  C        11.2326219725        7.0413578985       -0.0563975321
  C        -2.1279246086        8.5798611300       -0.0702091569
  C         3.4833902698        5.0836431953        5.6271552033
  C        -1.2610125783       -1.9854479560        7.5255058945
  C         8.6178468227        2.7202433368        0.0404653715
  C         2.2074440157       11.6206203378        0.0479977580
  C         9.9340465794        6.4184957279       -0.0133326292
  C        -0.7198006901        8.9895642075       -0.0434599603
  C         1.5881269818        4.3907922463        7.1111114742
  C         3.1437187983        2.3160534014        8.1855506472
  C         5.7856565364       10.6453649521        5.0388625653
  C        -1.1700435658       -4.0194904676        6.0656725531
  C         8.8316503027        0.5955130827        1.2902055213
  C        -2.3487876834        6.6952643904       11.9428651935
  C        11.8842205859        7.3149106694        1.1786874232
  C        -7.3926048556        1.2900996457       11.7955209435
  C         7.7423418057        9.2040617679        5.1337384479
  C        -3.1321768798       -2.5755394901        5.9711884562
  C         3.6843591635        3.1507187650        7.2069545702
  C         1.0521291964        3.5536616044        8.0907470204
  C         7.2909204959        0.2481881012       11.8069670923
  C        -2.8255214358        8.3511107180        1.1409422476
  C         4.1354900544       -6.5417241206       11.9458297807
  C         2.3457894551       13.8055934483        1.3134492736
  N         2.4334661064       13.2055715623        2.5471903954
  N         6.7122037117        0.0730342682       10.5684994541
  N         8.0311683046        4.3423165370        7.6708213568
  N         6.2114799021       -4.2681778768        9.3414605760
  O         7.3659069806        4.7550805008        5.1126838813
  O        -3.0448929281        1.5426918247        8.0035786853
  O         4.1936323060       -2.6069246611        9.7393179410
  O         0.7544795977        9.8515908400        3.4236872271
  O         1.5988387188        8.4748331389        5.0155600275
  O         2.6563538881       -2.3434555120        8.1004729247
  O         8.9568241731        4.4401795680        3.5357349651
  O        -3.8800180548        2.9005282398        9.6160498808
  O         6.2784172506        4.1758014516        2.5385254103
  O        -1.3680449918        2.0383413880       10.1164517094
  O         7.2160560183        6.4624043629        2.9883339630
  O        -3.1191217044        0.3080510020       10.5881112218
  O         1.4805856691       -2.8811024771       10.6811928631
  O         3.2668182710        8.9977281197        2.9134437210
  O         2.4489417591       -0.6230605756       10.2332089540
  O         1.5542708807        7.2421611690        2.4185523953
  O         4.6991403065        4.8876583608        5.2628005335
  O        -1.9315505265       -0.9627414452        7.9152982285
  O         3.8503031861       -3.7584370583       11.9947103849
  O         2.1268112341       10.9266014579        1.1458225052
  O         4.6659401349       -0.9549704920       11.9881775172
  O        -0.1344133725        9.0853887646        1.1002354274
  O        -0.0942941919       -2.2686119555        7.9779649324
  O         2.7492189423        6.0134601697        5.1388713963
  O         9.3973011636        6.1205492912        1.1339106213
  O        -4.7588509836        2.1527232810       11.9343150226
  O         8.6079300619        3.3530420768        1.1614272927
  O        -2.4766720551        3.9362005227       11.9986733753
  O         4.4768590378        6.5729917436        3.0622534624
  O        -0.2199845836       -0.4145162528        9.9987301758
  O         6.9175138254        5.3472206254        0.1098521725
  O         2.3585943213        8.4285746597       -0.0554513788
     124
 i =       70, E =     -1301.9381192022
 Ti        -2.8645227366        2.2006420270       11.2566244552
 Ti         7.9539050769        5.0967952609        1.8885813907
 Ti         1.2376988648       -1.7077536795        9.4182385548
 Ti         2.7434404565        7.4424411650        3.6736357660
 Ti         1.7526250952        9.1115160259        1.7618772604
 Ti         3.1068120794       -1.9730358988       11.3833608329
 Ti        -1.9204740837        0.4818001735        9.3507779507
 Ti         5.9741463018        5.3870008543        3.7406537795
  H         3.7319974796        1.5063391287        8.6141660722
  H        -0.1902323772       -4.2347588409        6.4864311600
  H         4.8095542072       10.8696311663        4.6117017038
  H        -2.3719687310        6.1052652448       11.0300719979
  H         8.8278414826        1.1868557483        2.2039864969
  H        -6.8297909731        1.4719721479       10.8816898867
  H        11.3337192333        7.1083710502        2.0929983100
  H         4.0784078862       -6.0129089356       10.9984283815
  H        -2.3231499076        8.5352512993        2.0865211528
  H         4.7014959688        3.0097756065        6.8478771284
  H         0.0333706568        3.6939983003        8.4490337853
  H        -3.6512176686       -1.6853450831        6.3194852191
  H         2.2284302938        7.4625485954       -0.1126316522
  H         6.0742394893        4.8614422747        0.1892348241
  H         3.6546807407       -2.6147352806        5.8828167531
  H         1.0253798147        9.2790705288        7.2897422068
  H        -6.0569584284        3.7718086426        9.0025139260
  H        10.7923351676        3.1182447757        4.2050506662
  H        -3.6135857504        2.5354396955        5.6847089413
  H        -1.3225024415       10.9865609332        4.1178494792
  H         2.2232461822       12.2127786311        2.6046909833
  H         8.7287096546       -0.8382646814        3.4121737318
  H         4.8370164762        7.1198429003        2.3397436312
  H         0.1554752478        0.1431477150       10.7044545230
  H         7.3429899346       -0.0078533855        9.7792760586
  H         5.8616219703       -0.4833749890       10.5285662312
  H         7.8310685825        4.2368558530        8.6570633769
  H         7.2983103982        4.6440132121        7.0336758439
  H         6.8664422738       -4.9970946138        9.5948141666
  H         5.5825409108       -3.9015324425       10.0526650255
  H         1.4130604422        1.8718424945        9.3956633280
  H         1.0036354244        5.2014610610        6.6811296776
  H         6.0468183276        8.8672660439        3.8412315839
  H        -7.7304990083        8.8767088016        4.6894483399
  C         8.5463828176        4.3536577082        4.7479900285
  C        -3.8263007914        2.4821229700        8.4106692731
  C         3.8220840723       -2.7226890502        8.5139198130
  C         0.8243561610        9.4305176297        4.6264145800
  C         9.4408009444        3.7526615715        5.7447089385
  C        -4.7557884748        3.1089870424        7.4346014465
  C         4.7644746004       -3.3349246064        7.5698126302
  C        -0.0624538704       10.0782910639        5.6271105617
  C         9.1539620251        3.7667953883        7.1472991534
  C        -4.4991398663        3.0483528373        6.0491207648
  C         5.8895760911       -4.1017630521        8.0227596648
  C        -1.1518222375       10.8601126828        5.1831689030
  C         0.1828080294        9.8958102100        6.9833523635
  C         4.5260242326       -3.1911606452        6.1851805860
  C        10.6144023070        3.1144704216        5.2779498075
  C        -5.8943977502        3.7417625122        7.9265717520
  C         2.9089437347        4.1942182726        6.6655497298
  C         1.8300763889        2.5200311881        8.6271343399
  C         6.4825674089        9.5107494811        4.6038208303
  C        -1.8642215855       -2.8761401527        6.5051292304
  C         8.7663467958        1.2615909468        0.0619645869
  C         2.3081391930       13.0571099370        0.0844753522
  C        11.2324833878        7.0415204080       -0.0564239753
  C        -2.1280608303        8.5799966834       -0.0702478930
  C         3.4833353514        5.0836129114        5.6271414601
  C        -1.2610691177       -1.9854864852        7.5254724328
  C         8.6178951697        2.7202368344        0.0404251633
  C         2.2074359844       11.6206349497        0.0479711270
  C         9.9339718743        6.4185512488       -0.0133398727
  C        -0.7198529195        8.9896064267       -0.0434935304
  C         1.5880810471        4.3908124512        7.1110784392
  C         3.1434922431        2.3158932874        8.1853867320
  C         5.7856377108       10.6452357934        5.0388466644
  C        -1.1700268969       -4.0194699033        6.0656152004
  C         8.8316514471        0.5955295476        1.2901869705
  C        -2.3485009351        6.6952497567       11.9428625140
  C        11.8840665632        7.3151406844        1.1786735567
  C        -7.3927149130        1.2901863831       11.7955074746
  C         7.7424204305        9.2040554590        5.1336740645
  C        -3.1322326157       -2.5756359516        5.9711511008
  C         3.6842222630        3.1505702246        7.2068537538
  C         1.0520093965        3.5536418877        8.0906502971
  C         7.2908177211        0.2482464667       11.8069280017
  C        -2.8256826833        8.3513425304        1.1409028709
  C         4.1357598000       -6.5417531819       11.9457907543
  C         2.3457805669       13.8056159668        1.3134715400
  N         2.4333012346       13.2055599529        2.5471820969
  N         6.7121767851        0.0728813044       10.5684526636
  N         8.0310023741        4.3420713031        7.6708183534
  N         6.2113543009       -4.2682540215        9.3414708499
  O         7.3657983501        4.7549948352        5.1126554682
  O        -3.0449337782        1.5426164654        8.0035560587
  O         4.1936007778       -2.6069357595        9.7393016551
  O         0.7545414753        9.8516934978        3.4237130833
  O         1.5988513985        8.4749043368        5.0155615022
  O         2.6563402426       -2.3434318901        8.1004374868
  O         8.9566777608        4.4399978843        3.5357020715
  O        -3.8801032852        2.9004399150        9.6160041883
  O         6.2782548712        4.1758247655        2.5383989329
  O        -1.3681019977        2.0382815032       10.1163580286
  O         7.2159980205        6.4623429098        2.9883001116
  O        -3.1191677598        0.3079982140       10.5881392262
  O         1.4806001639       -2.8811362487       10.6812206054
  O         3.2668344190        8.9977337705        2.9133726731
  O         2.4489108046       -0.6231083260       10.2331376410
  O         1.5541161664        7.2423053670        2.4186550124
  O         4.6990641864        4.8875679459        5.2627473313
  O        -1.9316775278       -0.9628396890        7.9153651279
  O         3.8503614997       -3.7584386046       11.9946765474
  O         2.1267239398       10.9266035047        1.1457957061
  O         4.6658768720       -0.9549296397       11.9881517091
  O        -0.1344641436        9.0853414050        1.1001962393
  O        -0.0943285967       -2.2685912006        7.9778651737
  O         2.7492012934        6.0134980837        5.1389153464
  O         9.3972922616        6.1204875680        1.1339094576
  O        -4.7588824051        2.1527435207       11.9342817260
  O         8.6078773830        3.3530092726        1.1614054886
  O        -2.4766883474        3.9362024366       11.9986531131
  O         4.4767272426        6.5729789753        3.0622107303
  O        -0.2200511380       -0.4146951598        9.9987848417
  O         6.9174643812        5.3472624633        0.1097890432
  O         2.3584486153        8.4286045831       -0.0554716129
     124
 i =       71, E =     -1301.9381148525
 Ti        -2.8645227366        2.2006420270       11.2566244552
 Ti         7.9539050769        5.0967952609        1.8885813907
 Ti         1.2376988648       -1.7077536795        9.4182385548
 Ti         2.7434404565        7.4424411650        3.6736357660
 Ti         1.7526250952        9.1115160259        1.7618772604
 Ti         3.1068120794       -1.9730358988       11.3833608329
 Ti        -1.9204740837        0.4818001735        9.3507779507
 Ti         5.9741463018        5.3870008543        3.7406537795
  H         3.7319974796        1.5063391287        8.6141660722
  H        -0.1902323772       -4.2347588409        6.4864311600
  H         4.8095542072       10.8696311663        4.6117017038
  H        -2.3719687310        6.1052652448       11.0300719979
  H         8.8278414826        1.1868557483        2.2039864969
  H        -6.8297909731        1.4719721479       10.8816898867
  H        11.3337192333        7.1083710502        2.0929983100
  H         4.0784078862       -6.0129089356       10.9984283815
  H        -2.3231499076        8.5352512993        2.0865211528
  H         4.7014959688        3.0097756065        6.8478771284
  H         0.0333706568        3.6939983003        8.4490337853
  H        -3.6512176686       -1.6853450831        6.3194852191
  H         2.2284302938        7.4625485954       -0.1126316522
  H         6.0742394893        4.8614422747        0.1892348241
  H         3.6546807407       -2.6147352806        5.8828167531
  H         1.0253798147        9.2790705288        7.2897422068
  H        -6.0569584284        3.7718086426        9.0025139260
  H        10.7923351676        3.1182447757        4.2050506662
  H        -3.6135857504        2.5354396955        5.6847089413
  H        -1.3225024415       10.9865609332        4.1178494792
  H         2.2232461822       12.2127786311        2.6046909833
  H         8.7287096546       -0.8382646814        3.4121737318
  H         4.8370164762        7.1198429003        2.3397436312
  H         0.1554752478        0.1431477150       10.7044545230
  H         7.3429899346       -0.0078533855        9.7792760586
  H         5.8616219703       -0.4833749890       10.5285662312
  H         7.8310685825        4.2368558530        8.6570633769
  H         7.2983103982        4.6440132121        7.0336758439
  H         6.8664422738       -4.9970946138        9.5948141666
  H         5.5825409108       -3.9015324425       10.0526650255
  H         1.4130604422        1.8718424945        9.3956633280
  H         1.0036354244        5.2014610610        6.6811296776
  H         6.0468183276        8.8672660439        3.8412315839
  H        -7.7304990083        8.8767088016        4.6894483399
  C         8.5463828176        4.3536577082        4.7479900285
  C        -3.8263007914        2.4821229700        8.4106692731
  C         3.8220840723       -2.7226890502        8.5139198130
  C         0.8243561610        9.4305176297        4.6264145800
  C         9.4408009444        3.7526615715        5.7447089385
  C        -4.7557884748        3.1089870424        7.4346014465
  C         4.7644746004       -3.3349246064        7.5698126302
  C        -0.0624538704       10.0782910639        5.6271105617
  C         9.1539620251        3.7667953883        7.1472991534
  C        -4.4991398663        3.0483528373        6.0491207648
  C         5.8895760911       -4.1017630521        8.0227596648
  C        -1.1518222375       10.8601126828        5.1831689030
  C         0.1828080294        9.8958102100        6.9833523635
  C         4.5260242326       -3.1911606452        6.1851805860
  C        10.6144023070        3.1144704216        5.2779498075
  C        -5.8943977502        3.7417625122        7.9265717520
  C         2.9089437347        4.1942182726        6.6655497298
  C         1.8300763889        2.5200311881        8.6271343399
  C         6.4825674089        9.5107494811        4.6038208303
  C        -1.8642215855       -2.8761401527        6.5051292304
  C         8.7663467958        1.2615909468        0.0619645869
  C         2.3081391930       13.0571099370        0.0844753522
  C        11.2324833878        7.0415204080       -0.0564239753
  C        -2.1280608303        8.5799966834       -0.0702478930
  C         3.4833353514        5.0836129114        5.6271414601
  C        -1.2610691177       -1.9854864852        7.5254724328
  C         8.6178951697        2.7202368344        0.0404251633
  C         2.2074359844       11.6206349497        0.0479711270
  C         9.9339718743        6.4185512488       -0.0133398727
  C        -0.7198529195        8.9896064267       -0.0434935304
  C         1.5880810471        4.3908124512        7.1110784392
  C         3.1434922431        2.3158932874        8.1853867320
  C         5.7856377108       10.6452357934        5.0388466644
  C        -1.1700268969       -4.0194699033        6.0656152004
  C         8.8316514471        0.5955295476        1.2901869705
  C        -2.3485009351        6.6952497567       11.9428625140
  C        11.8840665632        7.3151406844        1.1786735567
  C        -7.3927149130        1.2901863831       11.7955074746
  C         7.7424204305        9.2040554590        5.1336740645
  C        -3.1322326157       -2.5756359516        5.9711511008
  C         3.6842222630        3.1505702246        7.2068537538
  C         1.0520093965        3.5536418877        8.0906502971
  C         7.2908177211        0.2482464667       11.8069280017
  C        -2.8256826833        8.3513425304        1.1409028709
  C         4.1357598000       -6.5417531819       11.9457907543
  C         2.3457805669       13.8056159668        1.3134715400
  N         2.4333012346       13.2055599529        2.5471820969
  N         6.7121767851        0.0728813044       10.5684526636
  N         8.0310023741        4.3420713031        7.6708183534
  N         6.2113543009       -4.2682540215        9.3414708499
  O         7.3657983501        4.7549948352        5.1126554682
  O        -3.0449337782        1.5426164654        8.0035560587
  O         4.1936007778       -2.6069357595        9.7393016551
  O         0.7545414753        9.8516934978        3.4237130833
  O         1.5988513985        8.4749043368        5.0155615022
  O         2.6563402426       -2.3434318901        8.1004374868
  O         8.9566777608        4.4399978843        3.5357020715
  O        -3.8801032852        2.9004399150        9.6160041883
  O         6.2782548712        4.1758247655        2.5383989329
  O        -1.3681019977        2.0382815032       10.1163580286
  O         7.2159980205        6.4623429098        2.9883001116
  O        -3.1191677598        0.3079982140       10.5881392262
  O         1.4806001639       -2.8811362487       10.6812206054
  O         3.2668344190        8.9977337705        2.9133726731
  O         2.4489108046       -0.6231083260       10.2331376410
  O         1.5541161664        7.2423053670        2.4186550124
  O         4.6990641864        4.8875679459        5.2627473313
  O        -1.9316775278       -0.9628396890        7.9153651279
  O         3.8503614997       -3.7584386046       11.9946765474
  O         2.1267239398       10.9266035047        1.1457957061
  O         4.6658768720       -0.9549296397       11.9881517091
  O        -0.1344641436        9.0853414050        1.1001962393
  O        -0.0943285967       -2.2685912006        7.9778651737
  O         2.7492012934        6.0134980837        5.1389153464
  O         9.3972922616        6.1204875680        1.1339094576
  O        -4.7588824051        2.1527435207       11.9342817260
  O         8.6078773830        3.3530092726        1.1614054886
  O        -2.4766883474        3.9362024366       11.9986531131
  O         4.4767272426        6.5729789753        3.0622107303
  O        -0.2200511380       -0.4146951598        9.9987848417
  O         6.9174643812        5.3472624633        0.1097890432
  O         2.3584486153        8.4286045831       -0.0554716129
