         874
  Built with Packmol                                             
  Ti          -2.868335        2.115442       11.265214
  Ti           7.802788        5.383210        1.844391
  Ti           1.352572       -1.673500        9.417113
  Ti           2.511792        7.542652        3.648414
  Ti           1.444672        9.187418        1.751989
  Ti           3.259458       -1.864257       11.359530
  Ti          -1.869782        0.416024        9.366140
  Ti           5.815984        5.614284        3.703281
  H            3.746896        1.652626        8.583439
  H           -7.024875       10.142785        6.478257
  H            4.431630       11.010612        4.650438
  H           -2.503694        6.028051       11.048460
  H            8.748737        1.507342        2.155250
  H           -6.801542        1.221893       10.903644
  H           11.114246        7.503838        2.029089
  H            4.372721       -5.862020       10.962653
  H           -2.589143        8.456181        2.095703
  H            4.656966        3.204147        6.826953
  H           -0.045224        3.670268        8.406030
  H           12.440918       -1.828167        6.378540
  H           -2.327232        0.331938       12.984230
  H            5.927385        5.077403        0.154584
  H            3.761426       -2.506617        5.844726
  H            0.745560        9.314262        7.279431
  H           -6.059913        3.661213        9.037490
  H           10.641247        3.393379        4.132134
  H           -3.728587        2.298708        5.688870
  H           -1.703972       10.903386        4.124923
  H            1.733452       12.300945        2.609537
  H            8.667985       -0.517063        3.355831
  H            4.606680        7.297451        2.297825
  H            0.215487        0.134620       10.719246
  H            7.415332        0.218685        9.728366
  H            5.955496       -0.302534       10.483299
  H            7.828656        4.670987        8.632537
  H            7.237651        5.011538        7.017709
  H            7.098177       -4.749977        9.534320
  H            5.784030       -3.695029       10.000157
  H            1.411485        1.911548        9.356085
  H            0.863759        5.227040        6.648574
  H            5.741023        9.069333        3.845371
  H            7.999135        8.609993        4.744623
  C            8.422325        4.659191        4.703706
  C           -3.853328        2.346718        8.423899
  C            3.961595       -2.592630        8.476524
  C            0.513540        9.443357        4.621320
  C            9.344336        4.085192        5.693105
  C           -4.811926        2.940026        7.452907
  C            4.917315       -3.172748        7.523270
  C           -0.392661       10.057561        5.626884
  C            9.101042        4.149763        7.100999
  C           -4.599256        2.829342        6.063538
  C            6.075072       -3.893771        7.969088
  C           -1.516055       10.792469        5.189090
  C           -0.124811        9.894234        6.980095
  C            4.657405       -3.047644        6.140915
  C           10.498947        3.426687        5.210054
  C           -5.932679        3.593124        7.958691
  C            2.813684        4.307411        6.639567
  C            1.802100        2.580168        8.590925
  C            6.161473        9.726276        4.605129
  C           -1.730084       -2.944720        6.528234
  C            8.715175        1.588330        0.011262
  C            1.839040       13.147429        0.088587
  C            6.684170        0.195343       12.990012
  C           -6.719779        1.271810       13.046845
  C            3.350517        5.224492        5.605606
  C           -1.145018       -2.033515        7.540248
  C            4.215985       -4.201651       13.101266
  C            1.796086       11.711651        0.049701
  C            5.408882       -0.466276       13.043122
  C           -5.332575        1.734605       13.064020
  C            1.482906        4.442604        7.078738
  C            3.125222        2.436827        8.154613
  C            5.424120       10.827594        5.058747
  C           -8.018869       10.319594        6.073436
  C            8.784652        0.919515        1.239780
  C           -2.508142        6.615249       11.963065
  C           -4.360552        7.730507        1.110303
  C           -7.351366        1.022025       11.821932
  C            7.441371        9.469644        5.112723
  C           12.991193       -2.694552        6.017481
  C            3.632637        3.298056        7.181208
  C            0.980621        3.578705        8.052889
  C            7.361766        0.489528       11.753548
  C           -3.089201        8.254946        1.152479
  C            4.438003       -6.388560       11.910676
  C            8.855538       -0.479663        1.318796
  N            8.938305       -1.077634        2.555968
  N            6.782516        0.288157       10.517426
  N            8.001283        4.757340        7.639127
  N            6.418775       -4.042078        9.284423
  O            7.234665        5.022637        5.076604
  O           -3.053924        1.423703        8.020113
  O            4.345224       -2.456407        9.695708
  O            0.426054        9.871897        3.422680
  O            1.318961        8.513079        5.002228
  O            2.776776       -2.264724        8.078087
  O            8.824398        4.755701        3.489805
  O           -3.903766        2.779752        9.624467
  O            6.156697        4.409127        2.505218
  O           -1.367975        1.993658       10.109628
  O            7.017801        6.727170        2.953185
  O           -3.056279        0.208461       10.609657
  O            1.659621       -2.837312       10.674383
  O            2.969458        9.121937        2.909279
  O            2.531624       -0.543378       10.208048
  O            1.322575        7.306972        2.398893
  O            4.575167        5.087631        5.244337
  O           -1.836144       -1.022528        7.923516
  O            4.066391       -3.610049       11.962095
  O            1.743514       11.006429        1.144350
  O            4.771026       -0.795498       11.956418
  O           -0.427504        9.094025        1.094098
  O            0.028867       -2.288059        7.991258
  O            2.574295        6.119616        5.117796
  O            9.199419        6.452785        1.083295
  O           -4.748114        1.988975       11.944029
  O            8.500254        3.672420        1.113292
  O           -2.542975        3.849240       12.015231
  O            4.269171        6.735574        3.019668
  O           -0.147093       -0.436062       10.017030
  O            6.748057        5.600086        0.071530
  O           -2.238358        1.302347       13.044892
  S           18.336337       20.301817        0.492073
  S           20.154080       20.686478        2.629886
  F           19.523453       18.127159       -0.498034
  F           18.930481       19.590056       -1.988046
  F           20.677750       19.945056       -0.753062
  F           22.351248       19.615603        3.626144
  F           20.645415       18.277209        3.683608
  F           21.669974       18.647524        1.808013
  O           18.398593       21.688741        0.114184
  O           17.091735       19.592876        0.356163
  O           19.762373       21.099861        3.952214
  O           20.963675       21.573844        1.836417
  N           18.967936       19.945842        1.890794
  C           19.438925       19.443045       -0.750159
  C           21.258510       19.215898        2.949873
  S            9.589518      -12.582249        6.144840
  S            7.114007      -13.193547        7.377951
  F            8.670395      -12.611466        3.640234
  F           10.559779      -13.642559        3.921119
  F            8.710682      -14.565890        4.578741
  F            4.613737      -13.730522        6.724382
  F            5.241574      -11.738371        6.139900
  F            5.913323      -13.462374        5.007966
  O           10.287243      -13.569053        6.925628
  O           10.258790      -11.354625        5.805549
  O            6.658828      -12.594168        8.605317
  O            7.406132      -14.603088        7.360264
  N            8.126999      -12.242632        6.622077
  C            9.358882      -13.401096        4.479720
  C            5.644290      -13.012308        6.241358
  S           28.333925       10.909387       -2.678347
  S           27.740625        8.142894       -2.808392
  F           25.825351       11.715095       -2.258128
  F           26.917209       12.887410       -3.722829
  F           26.166258       10.921349       -4.247083
  F           25.664555        6.517664       -2.684254
  F           25.996780        7.622598       -0.847624
  F           25.123518        8.615390       -2.567068
  O           29.139361       10.850899       -3.869181
  O           28.718418       11.798284       -1.614331
  O           28.572093        7.115779       -2.236931
  O           27.592184        8.199809       -4.239190
  N           27.936586        9.518857       -2.053366
  C           26.714082       11.639068       -3.261445
  C           26.035250        7.710811       -2.184085
  S          -14.663719       14.217699       -1.276035
  S          -11.966030       14.020315       -0.435848
  F          -15.113184       11.590510       -1.396657
  F          -15.875494       12.715942       -3.089024
  F          -13.750748       12.314457       -2.920421
  F          -10.148707       12.181254        0.095227
  F          -11.862672       12.098168        1.421835
  F          -12.027393       11.356345       -0.609735
  O          -14.337120       15.185819       -2.289105
  O          -15.919453       14.325003       -0.581973
  O          -11.363666       14.889941        0.540768
  O          -11.495565       14.071912       -1.795428
  N          -13.530200       13.922484       -0.222451
  C          -14.850122       12.615818       -2.222374
  C          -11.486498       12.315455        0.154290
  S           22.303229       -6.403224        9.479723
  S           25.111832       -6.147047        9.741494
  F           21.816422       -3.804502        9.121456
  F           20.461116       -4.796136       10.496820
  F           22.476793       -4.301197       11.126299
  F           26.973153       -4.275679        9.759304
  F           25.918437       -4.414973        7.869162
  F           24.960503       -3.485942        9.579125
  O           22.214630       -7.247893       10.641153
  O           21.422866       -6.644956        8.367685
  O           26.058414       -7.075701        9.180731
  O           25.010071       -6.039123       11.173435
  N           23.756801       -6.153821        8.925662
  C           21.743675       -4.727868       10.093244
  C           25.767842       -4.485783        9.198709
  S           25.862167       14.651030       -4.766271
  S           23.676525       12.860759       -4.967009
  F           24.396650       16.833116       -4.308614
  F           25.998241       17.106247       -5.748103
  F           24.192468       16.049891       -6.320344
  F           21.038773       12.880110       -4.873529
  F           21.965141       13.491159       -3.009951
  F           21.920684       14.854392       -4.696465
  O           26.469879       14.133372       -5.963329
  O           26.704001       15.079929       -3.681160
  O           23.680479       11.525440       -4.428699
  O           23.612764       13.033518       -6.394786
  N           24.677888       13.795660       -4.176458
  C           25.056380       16.245168       -5.319227
  C           22.065973       13.569600       -4.343768
  S            1.138863       17.341227       11.162202
  S            0.098787       19.962866       11.422299
  F           -0.545332       16.559805        9.246071
  F           -0.246918       15.109215       10.833067
  F           -1.491801       16.852050       11.175055
  F           -1.817491       21.480170       10.426048
  F           -0.348632       20.877229        8.948421
  F           -1.830260       19.455400        9.646912
  O            1.137456       17.137866       12.586588
  O            2.190531       16.759095       10.371493
  O            0.912754       21.133055       11.624750
  O           -0.794862       19.548676       12.472202
  N            0.912213       18.825059       10.683739
  C           -0.379092       16.423158       10.571197
  C           -1.032172       20.463823       10.024180
  S           13.687429        8.672074       16.015813
  S           11.140208        7.434830       16.073183
  F           12.848395       10.995519       15.007687
  F           14.658757       10.217103       14.097479
  F           12.734897        9.343842       13.607232
  F            8.632980        7.950275       15.428997
  F            9.404056        9.257644       16.978414
  F           10.000857        9.553654       14.914215
  O           14.296045        7.520965       15.403630
  O           14.443594        9.443171       16.966459
  O           10.685134        6.583398       17.141285
  O           11.342841        6.862811       14.767737
  N           12.234939        8.454791       16.586001
  C           13.458424        9.871400       14.599655
  C            9.721808        8.625907       15.840288
  S           22.362189        5.339653       10.645498
  S           24.633376        6.956327       10.145024
  F           20.732432        7.343914       11.312971
  F           20.621696        5.615633       12.621636
  F           22.304319        6.977075       12.761001
  F           25.361715        9.491958       10.228361
  F           23.784852        9.101826        8.791083
  F           23.329772        9.157342       10.911114
  O           23.125144        4.414113       11.440174
  O           21.291344        4.841796        9.823590
  O           25.555007        6.732741        9.061753
  O           25.098915        6.793164       11.497469
  N           23.203180        6.372915        9.804571
  C           21.462614        6.386612       11.906835
  C           24.243346        8.776684       10.007412
  S           11.200325       14.552487       13.784983
  S           10.966324       13.058832       11.389855
  F           12.722276       16.489600       12.760312
  F           13.373611       15.758530       14.697609
  F           13.730552       14.576041       12.914781
  F           11.798468       13.119896        8.885727
  F           10.545676       14.810416        9.412149
  F           12.601510       14.729293       10.098937
  O           11.523230       13.379080       14.552501
  O           10.414583       15.593642       14.392197
  O            9.755079       12.406183       10.965821
  O           12.106707       12.250367       11.733901
  N           10.649640       14.288689       12.332671
  C           12.851969       15.386038       13.513704
  C           11.505651       13.993545        9.866635
  S          -11.410240        6.637285        1.420518
  S          -14.126942        5.912376        1.079285
  F          -11.890407        9.068380        2.409411
  F          -10.320910        8.996312        0.911643
  F          -12.400963        8.862056        0.312043
  F          -16.541382        6.927135        1.407299
  F          -15.436578        6.731150        3.263496
  F          -14.949520        8.324960        1.875241
  O          -11.064688        6.187019        0.098365
  O          -10.460258        6.472294        2.488420
  O          -14.647763        4.598419        1.353388
  O          -14.126641        6.389625       -0.278909
  N          -12.832301        6.202081        1.940513
  C          -11.523637        8.496045        1.251749
  C          -15.321777        7.040598        1.964861
  S          -17.933985        1.958524       13.737588
  S          -17.506989       -0.611570       14.848753
  F          -15.494631        2.219800       12.688790
  F          -16.228204        3.983517       13.719806
  F          -15.524069        2.275686       14.856323
  F          -15.596209       -2.418258       15.076011
  F          -16.180161       -2.044855       13.020765
  F          -14.950552       -0.603764       14.077188
  O          -18.514995        2.452261       14.957787
  O          -18.444721        2.428149       12.477150
  O          -18.492018       -1.661606       14.844968
  O          -17.101128       -0.044947       16.108385
  N          -17.745792        0.396605       13.653641
  C          -16.192155        2.638220       13.756804
  C          -15.972675       -1.460611       14.208619
  S          -18.431617      -10.043546        5.474296
  S          -16.803985       -7.733060        5.661031
  F          -16.471234      -11.712094        4.773199
  F          -18.299489      -11.932919        3.624050
  F          -16.972222      -10.260612        3.242055
  F          -14.291667       -7.002589        5.312437
  F          -14.545895       -8.463148        6.895663
  F          -14.659103       -9.083379        4.820281
  O          -19.427233       -9.349487        4.701467
  O          -18.848997      -11.048543        6.415507
  O          -16.948118       -6.730027        6.683783
  O          -17.082250       -7.376084        4.294432
  N          -17.342144       -9.134542        6.158998
  C          -17.481723      -11.035044        4.205059
  C          -14.974375       -8.103186        5.678198
  S           16.668052        5.386352        2.499907
  S           15.031324        3.094817        2.803860
  F           18.973358        4.059290        2.292155
  F           19.044742        5.795688        3.592788
  F           18.089386        3.970172        4.270245
  F           15.246323        0.468236        2.951147
  F           15.898037        1.274224        1.045861
  F           17.158875        1.481052        2.798636
  O           16.038086        6.053643        3.608104
  O           17.098502        6.161689        1.366916
  O           13.733347        2.949253        2.198106
  O           15.123553        3.168332        4.238623
  N           15.936661        4.093093        1.975882
  C           18.280675        4.756700        3.206528
  C           15.890045        1.495824        2.367306
  S           -1.367649       -5.798109       -0.206748
  S           -0.674332       -8.094460        1.299401
  F            0.330770       -6.254922       -2.213084
  F            0.287622       -4.199535       -1.516418
  F            1.303164       -5.720231       -0.350090
  F            0.984989      -10.144820        1.201797
  F           -0.446504      -10.124713       -0.427586
  F            1.235739       -8.755610       -0.445664
  O           -1.285013       -4.944975        0.948920
  O           -2.362468       -5.525960       -1.209929
  O           -1.627613       -8.906601        2.009720
  O            0.305650       -7.355767        2.052012
  N           -1.357686       -7.346302        0.084895
  C            0.234744       -5.484410       -1.117932
  C            0.326253       -9.346175        0.341903
  S           18.012597       -6.473870       15.818556
  S           19.880424       -4.623491       16.871990
  F           18.930011       -8.591757       17.157062
  F           18.499200       -8.964272       15.062437
  F           20.286101       -7.871685       15.625820
  F           21.946033       -4.556471       18.513823
  F           20.096414       -5.132383       19.489373
  F           21.141569       -6.550370       18.223801
  O           18.232890       -6.016834       14.472145
  O           16.692789       -6.891765       16.210438
  O           19.550517       -3.271346       17.240414
  O           20.781294       -4.842841       15.770729
  N           18.609983       -5.561935       16.955904
  C           18.997289       -8.059776       15.926316
  C           20.808603       -5.259495       18.361535
  S           20.759782       -1.018145       -2.188167
  S           18.979641       -2.278221       -3.995293
  F           19.334052       -1.524533        0.009458
  F           20.109692        0.498838       -0.117721
  F           18.404701       -0.088163       -1.322960
  F           16.662049       -3.541395       -3.992216
  F           18.197507       -4.568624       -2.855715
  F           17.241831       -2.802123       -2.036649
  O           20.865156        0.152036       -3.018713
  O           21.913340       -1.461785       -1.451559
  O           19.404648       -3.071858       -5.118850
  O           18.288002       -1.039977       -4.241956
  N           20.077206       -2.270976       -2.856418
  C           19.575594       -0.508311       -0.833879
  C           17.706468       -3.360382       -3.162995
  S           13.229448       -2.441195        9.864933
  S           10.498247       -3.108449        9.521839
  F           12.841894        0.181123       10.168155
  F           14.489624       -0.342616        8.855713
  F           12.444252       -0.534170        8.160065
  F            8.135501       -1.937646        9.405654
  F            9.114769       -1.699004       11.326214
  F            9.779770       -0.538401        9.618735
  O           13.624105       -3.230781        8.728697
  O           14.102860       -2.368247       11.005956
  O            9.882506       -4.283539       10.081209
  O           10.607957       -2.996552        8.090790
  N           11.755165       -2.664858       10.373380
  C           13.240496       -0.685005        9.223059
  C            9.324751       -1.738879       10.003449
  S            1.896188      -10.802067       16.253162
  S            1.595170       -8.324600       14.913779
  F            3.868177      -10.011037       17.866923
  F            4.170946      -11.959068       16.958446
  F            4.450361      -10.157686       15.783237
  F            2.657397       -5.908539       14.879575
  F            1.726959       -6.407016       16.774375
  F            3.649141       -7.265307       16.251629
  O            1.901111      -11.535690       15.015419
  O            1.282354      -11.389413       17.414340
  O            0.323242       -7.764910       14.537193
  O            2.510949       -8.726134       13.878126
  N            1.444637       -9.296046       16.152880
  C            3.700192      -10.717246       16.737623
  C            2.454652       -6.902312       15.764161
  S           -4.631877      -12.080145        6.599753
  S           -2.617897      -10.174445        7.178194
  F           -3.417866      -14.139898        7.783933
  F           -4.270426      -14.590426        5.839200
  F           -2.424704      -13.460110        5.980129
  F           -0.256206      -10.028116        8.347747
  F           -1.850614      -10.588556        9.707246
  F           -1.068376      -12.039269        8.297193
  O           -4.705980      -11.668543        5.223044
  O           -5.833054      -12.497710        7.272743
  O           -2.887194       -8.813675        7.563750
  O           -1.963438      -10.423046        5.920283
  N           -3.826041      -11.122541        7.556664
  C           -3.618714      -13.650923        6.549903
  C           -1.387813      -10.747884        8.459921
  S          -13.100629        2.968365        5.454624
  S          -13.697477        0.240530        5.929055
  F          -10.478439        2.624754        5.101435
  F          -11.006955        4.315227        6.356342
  F          -11.135217        2.297686        7.141989
  F          -12.471157       -2.089392        6.114666
  F          -12.301749       -1.187887        4.149200
  F          -11.115011       -0.425967        5.797181
  O          -13.870878        3.393971        6.592960
  O          -13.075357        3.793765        4.276413
  O          -14.871709       -0.423609        5.426095
  O          -13.553097        0.413459        7.350922
  N          -13.303338        1.469298        5.014440
  C          -11.329953        3.044514        6.050641
  C          -12.313969       -0.922675        5.462556
  S           10.102774        9.381983       -2.809733
  S            9.091965        6.766869       -2.407438
  F            8.090200       10.228067       -4.343480
  F           10.064768       10.768926       -5.064848
  F            9.344607        8.735851       -5.293188
  F            7.038768        5.267293       -3.116313
  F            6.467106        7.003475       -1.948692
  F            7.024831        7.234039       -4.032077
  O           11.415148        8.887009       -3.130523
  O            9.977048       10.621722       -2.090466
  O            9.168996        6.060182       -1.155427
  O            9.830858        6.263101       -3.535584
  N            9.111828        8.331897       -2.179336
  C            9.353028        9.791326       -4.473057
  C            7.302761        6.569419       -2.901931
  S           18.888172       12.863202        8.394334
  S           17.924259       15.515966        8.631218
  F           21.268892       13.518703        7.383801
  F           20.290676       11.857354        6.386388
  F           19.614427       13.887334        6.031379
  F           18.687122       17.991527        8.124769
  F           19.933217       16.996385        9.594941
  F           20.130229       16.499939        7.492695
  O           17.669650       12.415051        7.774174
  O           19.592350       11.974798        9.280322
  O           17.143197       15.989971        9.743932
  O           17.312090       15.453730        7.329744
  N           18.833172       14.292647        9.054424
  C           20.080540       13.053854        6.966666
  C           19.252517       16.815753        8.455024
  S           14.975080       20.087764       -3.552863
  S           14.501698       18.463118       -1.281556
  F           17.592939       19.596626       -3.708710
  F           17.048897       21.683065       -3.958935
  F           17.028238       20.784797       -1.984890
  F           15.822457       16.923267        0.407025
  F           15.881431       16.198915       -1.636575
  F           17.100765       17.894864       -1.052029
  O           14.233540       21.186196       -2.992686
  O           14.923366       19.857767       -4.972205
  O           13.335220       17.635726       -1.115365
  O           14.694023       19.578664       -0.392160
  N           14.813037       18.706250       -2.813122
  C           16.763192       20.558937       -3.275414
  C           15.909678       17.304849       -0.880598
  S          -17.514851        9.324413       13.915540
  S          -17.703360        7.877848       16.343362
  F          -19.611563       10.910528       14.370217
  F          -19.519236       10.088455       12.363355
  F          -20.143844        8.837552       14.021449
  F          -19.221979        7.743492       18.498029
  F          -18.219959        9.654246       18.275679
  F          -19.932207        9.177042       17.032621
  O          -17.369082        8.119607       13.142606
  O          -16.802302       10.507386       13.511866
  O          -16.565448        7.472167       17.126592
  O          -18.517019        6.864317       15.724355
  N          -17.369408        9.157197       15.475329
  C          -19.302208        9.812165       13.662992
  C          -18.830829        8.669413       17.603124
  S           19.647763        5.415013       -4.563019
  S           17.586244        7.316166       -4.960706
  F           21.548100        7.185215       -3.951633
  F           22.173245        5.628476       -5.329159
  F           20.922225        7.257205       -6.026551
  F           17.217883        9.929506       -4.920554
  F           17.790805        9.116809       -2.992927
  F           19.275396        9.344750       -4.557773
  O           19.329321        4.728891       -5.786974
  O           20.096907        4.653178       -3.428127
  O           16.223542        7.122972       -4.538106
  O           17.871966        7.392649       -6.369596
  N           18.582823        6.467480       -4.072844
  C           21.151579        6.438954       -4.994769
  C           17.999021        9.017533       -4.312843
  S           -0.617002        3.923856       -4.515751
  S           -0.281281        6.569300       -3.561120
  F            0.759313        2.742465       -2.559028
  F            1.207667        2.005538       -4.550946
  F            1.987305        3.922414       -3.901394
  F            0.900095        7.867014       -1.589537
  F           -0.638511        6.497104       -0.910934
  F            1.282563        5.731589       -1.565281
  O           -0.253954        4.300528       -5.856105
  O           -1.620865        2.912116       -4.318917
  O           -1.313595        7.572299       -3.595612
  O            0.895203        6.755831       -4.369544
  N           -0.902215        5.115042       -3.524900
  C            0.925678        3.112642       -3.838700
  C            0.345962        6.659704       -1.805229
  S          -18.990523      -12.081251       -3.718047
  S          -16.973985      -10.697723       -5.146972
  F          -17.853276      -14.488861       -3.887685
  F          -19.986640      -14.467397       -4.287837
  F          -18.594255      -13.737415       -5.782011
  F          -14.702416      -11.177168       -6.402739
  F          -14.620719      -11.632065       -4.283574
  F          -15.658885      -12.968890       -5.639974
  O          -20.039034      -11.456221       -4.479752
  O          -19.209457      -12.365404       -2.324695
  O          -16.495813       -9.386419       -4.793840
  O          -17.680211      -10.867722       -6.389873
  N          -17.556572      -11.450004       -3.883483
  C          -18.839121      -13.787019       -4.468888
  C          -15.403127      -11.681250       -5.370223
  S           -6.973373       14.810321       12.413237
  S           -7.532348       13.347054       14.773067
  F           -6.167544       17.034839       13.646464
  F           -7.502794       17.366010       11.967401
  F           -8.289805       16.640951       13.853951
  F           -7.491278       13.655049       17.394193
  F           -5.530358       13.822628       16.482505
  F           -6.949933       15.453269       16.307796
  O           -8.230302       14.441076       11.818240
  O           -5.812433       14.944395       11.573984
  O           -7.238553       11.947321       14.938300
  O           -8.908120       13.770754       14.759357
  N           -6.568549       14.008595       13.707613
  C           -7.252354       16.558526       13.015133
  C           -6.826949       14.118754       16.319564
  S           -1.595279       14.172575       -0.809229
  S           -4.383327       14.258462       -0.317487
  F           -1.279440       16.806355       -1.095825
  F           -0.251623       15.606139       -2.584076
  F           -2.399664       15.880699       -2.705311
  F           -6.350987       16.011089       -0.164322
  F           -4.822718       16.306798        1.346114
  F           -4.447369       16.899571       -0.706310
  O           -1.739466       13.110389       -1.769023
  O           -0.431749       14.200565        0.036655
  O           -5.053866       13.429146        0.649717
  O           -4.677295       14.072220       -1.714396
  N           -2.865663       14.473652        0.072548
  C           -1.380864       15.705778       -1.857868
  C           -5.025620       15.968889        0.065475
  S           28.303222        7.313013        5.571502
  S           26.055375        5.709420        6.202436
  F           27.008477        8.982942        3.942496
  F           28.930551        8.303117        3.197318
  F           27.216277        6.975271        3.149863
  F           23.490621        5.510217        5.611505
  F           23.997141        7.369756        6.606501
  F           24.506091        7.084591        4.517395
  O           29.124774        6.160346        5.313344
  O           28.897549        8.477960        6.171314
  O           25.788337        5.182315        7.515342
  O           26.357794        4.792576        5.134543
  N           26.928140        7.025944        6.284803
  C           27.827658        7.921919        3.868740
  C           24.425635        6.473405        5.707426
  S          -10.592533       -5.330125       -2.506702
  S           -9.846758       -6.996896       -0.341502
  F          -12.272468       -7.069404       -3.634276
  F          -10.944943       -6.063565       -5.026320
  F          -10.189290       -7.657353       -3.764182
  F          -10.312267       -9.422398        0.589675
  F          -12.080403       -8.166710        0.552187
  F          -11.314441       -9.015570       -1.291029
  O           -9.223563       -4.991123       -2.791712
  O          -11.615122       -4.335431       -2.693784
  O           -9.647692       -6.524397        1.003856
  O           -8.716909       -7.509695       -1.071526
  N          -10.844171       -6.058012       -1.132325
  C          -11.021217       -6.611698       -3.799037
  C          -10.961051       -8.477456       -0.115553
  S           -5.354342       -5.575787        1.706103
  S           -7.002384       -6.994397        3.521014
  F           -7.007501       -3.506452        1.384218
  F           -6.137413       -4.262091       -0.455286
  F           -7.740540       -5.353336        0.515965
  F           -9.361127       -6.788162        4.687482
  F           -7.988864       -5.204411        5.247028
  F           -8.943347       -5.173862        3.299532
  O           -5.118733       -6.752115        0.911764
  O           -4.297961       -4.611523        1.862175
  O           -6.504359       -7.710148        4.666677
  O           -7.613186       -7.737413        2.449891
  N           -6.021558       -5.822988        3.111724
  C           -6.641831       -4.625424        0.738884
  C           -8.395586       -5.971739        4.226648
  S          -15.328045       -1.825304        0.478822
  S          -13.369006       -0.452563       -1.037802
  F          -13.932505       -4.081397        0.763785
  F          -16.020463       -4.370225        0.245296
  F          -14.606185       -3.721466       -1.265696
  F          -10.972428       -0.851531       -2.069346
  F          -11.000625       -0.962682        0.096598
  F          -11.787551       -2.603764       -1.083363
  O          -16.377412       -1.451150       -0.431711
  O          -15.618525       -1.915469        1.885092
  O          -13.060121        0.944083       -0.873970
  O          -13.958928       -0.892622       -2.275056
  N          -13.960798       -1.064372        0.295318
  C          -14.941286       -3.596834        0.022282
  C          -11.690506       -1.269049       -1.010467
  S           21.074464       14.469861       13.088364
  S           18.493107       13.656207       13.923206
  F           21.386656       16.361103       14.944282
  F           21.987166       16.951109       12.943507
  F           19.882834       16.837238       13.456328
  F           16.672771       14.268996       15.733652
  F           18.530087       13.554175       16.596132
  F           18.412335       15.564253       15.789640
  O           20.670960       14.532516       11.708693
  O           22.408968       14.038948       13.410103
  O           18.054162       12.285341       13.953627
  O           17.863303       14.566564       13.002851
  N           20.065590       13.753152       14.063329
  C           21.071564       16.255371       13.643588
  C           18.012479       14.297884       15.609032
  S          -12.726849        8.104484       18.424932
  S          -13.629621       10.782141       18.231132
  F          -11.298684        8.125872       16.171362
  F          -12.519109        6.352608       16.450502
  F          -13.440886        8.221425       15.848824
  F          -13.449732       12.858711       16.611766
  F          -11.540661       12.258490       17.448216
  F          -12.443071       11.090478       15.858840
  O          -14.048699        7.620135       18.722172
  O          -11.592805        7.476771       19.049450
  O          -13.741325       11.675030       19.355028
  O          -14.828860       10.371984       17.548451
  N          -12.539678        9.667134       18.496689
  C          -12.486597        7.688047       16.617949
  C          -12.703173       11.797008       16.967604
  S           10.444919       -3.745401       -5.183295
  S            7.757296       -3.051352       -4.619929
  F            9.985844       -6.342794       -5.585158
  F           11.729528       -5.911719       -4.366321
  F            9.740727       -5.721403       -3.522155
  F            5.385390       -4.187651       -4.396923
  F            6.226053       -4.346892       -6.390009
  F            6.983288       -5.601347       -4.790744
  O           10.931901       -3.019610       -4.040357
  O           11.236603       -3.776042       -6.384295
  O            7.128038       -1.840086       -5.077902
  O            7.962434       -3.235753       -3.206998
  N            8.944004       -3.472741       -5.576952
  C           10.465195       -5.531166       -4.629255
  C            6.526796       -4.376007       -5.084599
  S           19.891554       -8.389667        6.855539
  S           22.539301       -9.389023        6.740995
  F           18.782989      -10.636180        7.773664
  F           17.679349       -9.673665        6.171365
  F           19.489683      -10.783196        5.728875
  F           23.874509      -11.619379        7.198797
  F           22.941272      -10.800814        8.977416
  F           21.734458      -11.821846        7.492221
  O           19.983571       -7.832869        5.532005
  O           19.130760       -7.692865        7.858417
  O           23.702747       -8.623780        7.106599
  O           22.373678       -9.787163        5.367492
  N           21.252146       -8.861971        7.494111
  C           18.915284       -9.966572        6.617641
  C           22.775774      -10.995405        7.662071
  S           23.581624        2.412259       18.225431
  S           24.270552        4.568414       16.522852
  F           22.624825        0.830176       16.301830
  F           21.399540        0.918554       18.091436
  F           21.396007        2.574112       16.690265
  F           24.149819        5.243369       13.973988
  F           25.404866        3.513092       14.342039
  F           23.245397        3.317459       14.398019
  O           22.931144        3.286941       19.164602
  O           24.292620        1.261254       18.715099
  O           25.466398        5.356663       16.669428
  O           22.993555        5.198217       16.735184
  N           24.465253        3.121179       17.130585
  C           22.171093        1.648696       17.264338
  C           24.270008        4.123088       14.709996
  S          -10.192839        9.840694       12.189312
  S           -9.656020       10.900120        9.617962
  F           -7.647697        9.722010       12.981053
  F           -8.822096        7.957163       13.447873
  F           -8.143071        8.303689       11.417353
  F           -7.603444       11.603720        8.115055
  F           -7.785156       12.787705        9.923266
  F           -7.020925       10.760428       10.027237
  O          -11.082270        8.843601       11.655502
  O          -10.485520       10.428775       13.469390
  O          -10.461274       11.909761        8.981519
  O           -9.609417        9.582669        9.039508
  N           -9.774761       10.987081       11.192788
  C           -8.607070        8.905638       12.516933
  C           -7.917695       11.551912        9.422628
  S           18.793656      -10.374540       -5.221609
  S           21.467173      -10.753684       -4.366651
  F           19.207225       -8.016457       -6.399360
  F           17.417726       -8.112859       -5.174524
  F           19.367378       -7.953234       -4.237753
  F           23.796627       -9.513680       -4.420359
  F           23.049862      -10.016843       -6.393588
  F           22.185185       -8.356331       -5.298261
  O           18.269970      -10.725788       -3.928314
  O           18.060593      -10.750770       -6.401089
  O           22.147681      -12.022080       -4.397499
  O           21.189297      -10.145753       -3.091637
  N           20.318175      -10.698138       -5.452218
  C           18.702349       -8.507247       -5.256340
  C           22.685578       -9.593567       -5.175589
  S            7.504479      -10.578499        8.838022
  S            5.165512      -10.390453       10.424298
  F            9.070148       -9.172851       10.478610
  F            9.269670       -8.659109        8.379067
  F            7.540139       -7.986603        9.501841
  F            4.344452       -9.304691       12.685676
  F            5.907961      -10.781934       12.964343
  F            6.399772       -8.815430       12.192530
  O            6.791524      -10.215532        7.642120
  O            8.577824      -11.532817        8.752512
  O            4.233019      -11.471419       10.610950
  O            4.731495       -9.213286        9.718348
  N            6.610000      -10.937731       10.084182
  C            8.387412       -9.006847        9.334677
  C            5.484529       -9.794063       12.164214
  S          -14.923635        4.469878       -4.800141
  S          -15.898930        1.883299       -4.183045
  F          -12.799363        3.645259       -6.188004
  F          -12.395580        5.256935       -4.791121
  F          -12.668668        3.232128       -4.063285
  F          -15.267723       -0.652162       -4.557024
  F          -15.672268        0.409978       -6.404365
  F          -13.798398        0.727851       -5.359244
  O          -15.071462        4.912643       -3.439134
  O          -15.168743        5.399290       -5.870757
  O          -17.294746        1.530355       -4.183645
  O          -15.178457        1.863839       -2.936852
  N          -15.619834        3.101292       -5.152753
  C          -13.094471        4.119842       -4.967369
  C          -15.112475        0.524043       -5.192338
  S          -14.599931       10.211668        4.978816
  S          -12.973957        8.025961        5.754245
  F          -12.722421       12.081959        5.288102
  F          -14.667569       12.613151        6.091877
  F          -13.400871       11.208514        7.153307
  F          -10.521017        7.536508        6.597079
  F          -10.587007        8.376325        4.598375
  F          -10.930599        9.649050        6.320823
  O          -15.680150        9.782734        5.826977
  O          -14.902970       10.830990        3.715998
  O          -13.006990        6.735125        5.117439
  O          -13.406696        8.136195        7.122836
  N          -13.444952        9.162685        4.760384
  C          -13.794207       11.600304        5.937371
  C          -11.152170        8.429079        5.812129
  S           26.952700        3.315114        2.254962
  S           24.666621        1.669571        1.957588
  F           26.308616        5.041867        0.325670
  F           28.384761        4.408368        0.314706
  F           26.837566        3.070734       -0.407156
  F           22.502501        1.475854        0.458953
  F           22.566991        3.295932        1.636927
  F           23.812959        3.102250       -0.127942
  O           27.837280        2.180504        2.275226
  O           27.259357        4.458421        3.072834
  O           23.948527        1.086011        3.060615
  O           25.360098        0.800507        1.043107
  N           25.418628        2.988066        2.402331
  C           27.121303        3.991087        0.519750
  C           23.315345        2.441236        0.926399
  S           10.447328       -7.011037        0.612239
  S            8.141502       -8.529928        1.243536
  F           12.160828       -9.054527        0.694442
  F           12.852990       -7.254711        1.691133
  F           11.356522       -8.510498        2.633337
  F            7.459564      -11.011456        1.829905
  F            8.289994      -10.800781       -0.162697
  F            9.596695      -10.745350        1.567670
  O           10.112594       -5.996268        1.575790
  O           11.081644       -6.626015       -0.620443
  O            6.853824       -8.326081        0.632635
  O            8.294691       -8.255403        2.648394
  N            9.306748       -8.048488        0.288468
  C           11.771673       -8.022744        1.460111
  C            8.395719      -10.373942        1.103012
  S           -9.148140       -0.698620       12.247892
  S           -9.541663       -0.747612        9.443407
  F           -9.856209       -3.235308       12.675142
  F          -10.692001       -1.814159       14.087095
  F          -11.503766       -1.956789       12.080890
  F          -10.344107       -2.400244        7.548218
  F           -8.538696       -3.061809        8.551855
  F          -10.460224       -3.253149        9.539695
  O           -9.870131        0.538370       12.385070
  O           -8.017002       -0.949017       13.101081
  O           -8.672094       -0.095547        8.499197
  O          -10.894055       -0.274407        9.583301
  N           -8.767549       -1.107759       10.774864
  C          -10.373242       -2.001963       12.792639
  C           -9.724606       -2.467498        8.741063
  S           -0.455301       -2.442361       -5.091256
  S           -3.178316       -2.038858       -4.424343
  F           -0.748134       -4.946497       -5.964322
  F            0.972213       -4.633729       -4.678086
  F           -1.018984       -4.730477       -3.823722
  F           -5.470207       -3.348088       -4.425543
  F           -4.634489       -3.084954       -6.409680
  F           -3.786922       -4.559207       -5.063234
  O           -0.008568       -1.908049       -3.832220
  O            0.328576       -2.201249       -6.273418
  O           -3.887674       -0.807601       -4.656051
  O           -2.952142       -2.465103       -3.068019
  N           -1.973333       -2.200114       -5.436148
  C           -0.315832       -4.294238       -4.873478
  C           -4.323681       -3.332989       -5.130123
  S          -13.538400      -11.778019       10.422668
  S          -12.431721      -13.806088       12.061143
  F          -14.069263      -10.073592       12.405545
  F          -15.666598      -10.294539       10.952438
  F          -15.313994      -11.849126       12.423183
  F          -11.955000      -14.303865       14.609044
  F          -10.856216      -12.594126       13.851463
  F          -12.975867      -12.418555       14.276859
  O          -14.364999      -12.720318        9.716240
  O          -12.983683      -10.658524        9.709140
  O          -11.282709      -14.593870       11.697767
  O          -13.708833      -14.458353       12.187601
  N          -12.413254      -12.403010       11.331232
  C          -14.710891      -10.960048       11.627872
  C          -12.030736      -13.236369       13.793018
  S          -17.498535        6.467992        5.679401
  S          -17.415383        5.216619        8.218998
  F          -20.146666        6.329383        5.384650
  F          -19.011191        5.778092        3.618696
  F          -19.155241        4.403171        5.289925
  F          -19.045650        4.116829        9.979549
  F          -19.433005        6.226324        9.656360
  F          -20.047855        4.771160        8.170033
  O          -16.429776        5.646559        5.176177
  O          -17.596727        7.835785        5.243965
  O          -16.546788        5.630690        9.289960
  O          -17.211988        3.923042        7.620880
  N          -17.721967        6.418993        7.238161
  C          -19.042131        5.694057        4.962002
  C          -19.083709        5.085661        9.046222
