         874
  Built with Packmol                                             
  Ti          -2.868335        2.115442       11.265214
  Ti           7.802788        5.383210        1.844391
  Ti           1.352572       -1.673500        9.417113
  Ti           2.511792        7.542652        3.648414
  Ti           1.444672        9.187418        1.751989
  Ti           3.259458       -1.864257       11.359530
  Ti          -1.869782        0.416024        9.366140
  Ti           5.815984        5.614284        3.703281
  H            3.746896        1.652626        8.583439
  H           -7.024875       10.142785        6.478257
  H            4.431630       11.010612        4.650438
  H           -2.503694        6.028051       11.048460
  H            8.748737        1.507342        2.155250
  H           -6.801542        1.221893       10.903644
  H           11.114246        7.503838        2.029089
  H            4.372721       -5.862020       10.962653
  H           -2.589143        8.456181        2.095703
  H            4.656966        3.204147        6.826953
  H           -0.045224        3.670268        8.406030
  H           12.440918       -1.828167        6.378540
  H           -2.327232        0.331938       12.984230
  H            5.927385        5.077403        0.154584
  H            3.761426       -2.506617        5.844726
  H            0.745560        9.314262        7.279431
  H           -6.059913        3.661213        9.037490
  H           10.641247        3.393379        4.132134
  H           -3.728587        2.298708        5.688870
  H           -1.703972       10.903386        4.124923
  H            1.733452       12.300945        2.609537
  H            8.667985       -0.517063        3.355831
  H            4.606680        7.297451        2.297825
  H            0.215487        0.134620       10.719246
  H            7.415332        0.218685        9.728366
  H            5.955496       -0.302534       10.483299
  H            7.828656        4.670987        8.632537
  H            7.237651        5.011538        7.017709
  H            7.098177       -4.749977        9.534320
  H            5.784030       -3.695029       10.000157
  H            1.411485        1.911548        9.356085
  H            0.863759        5.227040        6.648574
  H            5.741023        9.069333        3.845371
  H            7.999135        8.609993        4.744623
  C            8.422325        4.659191        4.703706
  C           -3.853328        2.346718        8.423899
  C            3.961595       -2.592630        8.476524
  C            0.513540        9.443357        4.621320
  C            9.344336        4.085192        5.693105
  C           -4.811926        2.940026        7.452907
  C            4.917315       -3.172748        7.523270
  C           -0.392661       10.057561        5.626884
  C            9.101042        4.149763        7.100999
  C           -4.599256        2.829342        6.063538
  C            6.075072       -3.893771        7.969088
  C           -1.516055       10.792469        5.189090
  C           -0.124811        9.894234        6.980095
  C            4.657405       -3.047644        6.140915
  C           10.498947        3.426687        5.210054
  C           -5.932679        3.593124        7.958691
  C            2.813684        4.307411        6.639567
  C            1.802100        2.580168        8.590925
  C            6.161473        9.726276        4.605129
  C           -1.730084       -2.944720        6.528234
  C            8.715175        1.588330        0.011262
  C            1.839040       13.147429        0.088587
  C            6.684170        0.195343       12.990012
  C           -6.719779        1.271810       13.046845
  C            3.350517        5.224492        5.605606
  C           -1.145018       -2.033515        7.540248
  C            4.215985       -4.201651       13.101266
  C            1.796086       11.711651        0.049701
  C            5.408882       -0.466276       13.043122
  C           -5.332575        1.734605       13.064020
  C            1.482906        4.442604        7.078738
  C            3.125222        2.436827        8.154613
  C            5.424120       10.827594        5.058747
  C           -8.018869       10.319594        6.073436
  C            8.784652        0.919515        1.239780
  C           -2.508142        6.615249       11.963065
  C           -4.360552        7.730507        1.110303
  C           -7.351366        1.022025       11.821932
  C            7.441371        9.469644        5.112723
  C           12.991193       -2.694552        6.017481
  C            3.632637        3.298056        7.181208
  C            0.980621        3.578705        8.052889
  C            7.361766        0.489528       11.753548
  C           -3.089201        8.254946        1.152479
  C            4.438003       -6.388560       11.910676
  C            8.855538       -0.479663        1.318796
  N            8.938305       -1.077634        2.555968
  N            6.782516        0.288157       10.517426
  N            8.001283        4.757340        7.639127
  N            6.418775       -4.042078        9.284423
  O            7.234665        5.022637        5.076604
  O           -3.053924        1.423703        8.020113
  O            4.345224       -2.456407        9.695708
  O            0.426054        9.871897        3.422680
  O            1.318961        8.513079        5.002228
  O            2.776776       -2.264724        8.078087
  O            8.824398        4.755701        3.489805
  O           -3.903766        2.779752        9.624467
  O            6.156697        4.409127        2.505218
  O           -1.367975        1.993658       10.109628
  O            7.017801        6.727170        2.953185
  O           -3.056279        0.208461       10.609657
  O            1.659621       -2.837312       10.674383
  O            2.969458        9.121937        2.909279
  O            2.531624       -0.543378       10.208048
  O            1.322575        7.306972        2.398893
  O            4.575167        5.087631        5.244337
  O           -1.836144       -1.022528        7.923516
  O            4.066391       -3.610049       11.962095
  O            1.743514       11.006429        1.144350
  O            4.771026       -0.795498       11.956418
  O           -0.427504        9.094025        1.094098
  O            0.028867       -2.288059        7.991258
  O            2.574295        6.119616        5.117796
  O            9.199419        6.452785        1.083295
  O           -4.748114        1.988975       11.944029
  O            8.500254        3.672420        1.113292
  O           -2.542975        3.849240       12.015231
  O            4.269171        6.735574        3.019668
  O           -0.147093       -0.436062       10.017030
  O            6.748057        5.600086        0.071530
  O           -2.238358        1.302347       13.044892
  S           -4.017404       18.199977       13.903463
  S           -2.940737       19.170816       16.336704
  F           -4.366916       20.592979       12.776486
  F           -6.039668       19.230032       12.539631
  F           -5.698832       20.209997       14.444274
  F           -2.371553       21.461366       17.518337
  F           -1.223202       21.123531       15.709575
  F           -3.308858       21.704160       15.576838
  O           -4.923339       17.317856       14.590033
  O           -3.440003       17.779226       12.654592
  O           -1.851862       18.543776       17.039585
  O           -4.242293       19.193738       16.951427
  N           -2.884525       18.841389       14.790723
  C           -5.088795       19.646324       13.396972
  C           -2.430543       20.965208       16.268725
  S           20.049036        4.474692       13.412703
  S           17.309167        4.942555       12.868077
  F           20.711635        7.038161       13.741764
  F           22.106276        5.892343       12.535987
  F           20.207897        6.521739       11.696832
  F           15.618626        6.953450       12.612689
  F           16.472159        6.800870       14.600820
  F           17.662902        7.587503       12.967403
  O           20.178722        3.583428       12.290623
  O           20.795792        4.205188       14.612631
  O           16.239915        4.113042       13.359482
  O           17.556311        4.989233       11.450615
  N           18.574539        4.858621       13.813342
  C           20.800929        6.076746       12.809039
  C           16.743206        6.669406       13.295201
  S           -8.290109        1.248614       16.219274
  S          -10.105883       -0.732474       17.114068
  F           -6.505419        0.895812       18.170967
  F           -6.953724        2.971546       17.721332
  F           -8.371748        1.772589       18.841989
  F          -10.390436       -2.464416       19.085427
  F           -8.651255       -2.853765       17.849254
  F           -8.621732       -1.223014       19.279111
  O           -9.342335        2.213468       16.040080
  O           -7.179460        1.243832       15.304648
  O          -10.819524       -1.622764       16.236019
  O          -10.850604        0.235465       17.876263
  N           -8.758287       -0.237882       16.449913
  C           -7.491754        1.742807       17.836287
  C           -9.390041       -1.880945       18.399894
  S            3.330591      -10.449086       -0.207532
  S            4.450309      -12.870859        0.743072
  F            4.867453      -10.263092       -2.380584
  F            4.636155       -8.408600       -1.276419
  F            5.943579       -9.965862       -0.521607
  F            6.335422      -14.606386        0.109715
  F            4.759583      -14.475501       -1.374895
  F            6.247356      -12.903630       -1.231843
  O            3.418967       -9.832545        1.089503
  O            2.215848      -10.132467       -1.060295
  O            3.680540      -13.932178        1.337989
  O            5.399332      -12.159852        1.559333
  N            3.562758      -12.006987       -0.240654
  C            4.783834       -9.740474       -1.146831
  C            5.500693      -13.758555       -0.519247
  S           26.837957       -8.016648        5.335854
  S           25.470549       -8.986033        3.052679
  F           27.405458      -10.413298        6.361868
  F           26.676756       -8.963177        7.803382
  F           25.296522       -9.912827        6.425963
  F           24.735228      -11.274968        1.963218
  F           26.887542      -11.049068        2.108046
  F           25.724612      -11.512449        3.879368
  O           25.796841       -7.067097        5.626829
  O           28.206311       -7.661208        5.603008
  O           25.586544       -8.404900        1.740544
  O           24.203149       -8.918903        3.732126
  N           26.763146       -8.699364        3.917984
  C           26.530159       -9.411543        6.542443
  C           25.730529      -10.807841        2.739330
  S           -9.092169       -8.318153       14.282846
  S           -7.185963      -10.102434       13.185068
  F           -8.820395       -9.135690       16.808012
  F          -10.874935       -8.860373       16.163894
  F           -9.756451      -10.600404       15.511631
  F           -5.565665      -12.041596       13.947388
  F           -5.087816      -10.125507       14.844454
  F           -6.792040      -11.261694       15.558185
  O          -10.059969       -8.636684       13.266905
  O           -9.023819       -6.973304       14.789613
  O           -6.259622       -9.745606       12.142265
  O           -8.203016      -11.082011       12.904908
  N           -7.626454       -8.829753       14.014518
  C           -9.661338       -9.293073       15.773452
  C           -6.098371      -10.918822       14.463901
  S           20.257091       12.126076       15.586210
  S           22.220155       13.544783       14.117859
  F           21.554240        9.794648       15.609412
  F           19.436886        9.645765       15.155026
  F           20.822191       10.367465       13.650286
  F           24.554559       13.137486       12.955314
  F           24.602920       12.830337       15.101889
  F           23.695357       11.339779       13.813760
  O           19.192953       12.627253       14.757558
  O           20.015966       11.920626       16.989689
  O           22.600647       14.905816       14.392968
  O           21.563819       13.245715       12.871971
  N           21.650861       12.840196       15.414470
  C           20.542210       10.388459       14.957146
  C           23.858038       12.656747       14.001704
  S           10.466583       13.127909        3.573205
  S           12.130879       15.049926        2.324860
  F           12.320856       11.216734        3.739861
  F           10.376877       10.532204        3.058550
  F           11.673985       11.631720        1.712170
  F           14.598997       15.298773        1.423018
  F           14.500630       14.956331        3.562533
  F           14.157088       13.316218        2.185318
  O            9.401284       13.356063        2.633355
  O           10.141887       12.828271        4.942472
  O           12.109320       16.455043        2.637993
  O           11.710800       14.623935        1.015462
  N           11.633797       14.185857        3.552879
  C           11.262672       11.543060        2.980899
  C           13.947352       14.624284        2.388217
  S           17.290025        8.274653       -1.024221
  S           15.208544       10.063093       -1.725160
  F           19.092671       10.154693       -0.445765
  F           19.855704        8.507294       -1.635587
  F           18.610955       10.026293       -2.556133
  F           14.764943       12.656095       -1.940583
  F           15.224934       12.032480        0.085245
  F           16.807843       12.175247       -1.390807
  O           17.076964        7.475189       -2.201377
  O           17.680334        7.629171        0.200979
  O           13.825706        9.860680       -1.379243
  O           15.589370       10.027620       -3.113025
  N           16.164379        9.328516       -0.701191
  C           18.790857        9.308263       -1.443128
  C           15.527223       11.827025       -1.203863
  S           -3.869698       -9.987721       -2.686851
  S           -3.678708       -9.908205        0.137967
  F           -3.247740       -7.423501       -3.082622
  F           -4.926348       -8.137761       -4.259027
  F           -5.181176       -7.718879       -2.146265
  F           -3.175281       -8.190254        2.077568
  F           -1.496204       -8.481461        0.735792
  F           -3.191130       -7.282935        0.106926
  O           -5.132582      -10.675532       -2.639169
  O           -2.941180      -10.298142       -3.741174
  O           -3.111927      -10.965266        0.934367
  O           -5.083161       -9.619149        0.266094
  N           -3.079525       -9.915097       -1.325819
  C           -4.332761       -8.213515       -3.053039
  C           -2.831035       -8.378232        0.790190
  S          -14.121863       10.013476       10.222299
  S          -12.446040       11.263193        8.311220
  F          -15.174451        8.224693        8.545693
  F          -16.611687        9.191471        9.853942
  F          -15.799248       10.263638        8.152601
  F          -11.854827       11.113738        5.743151
  F          -11.342839        9.316794        6.844661
  F          -13.413410        9.731596        6.349296
  O          -14.606117       11.277972       10.708902
  O          -13.941537        8.927701       11.148948
  O          -11.105378       11.708881        8.588454
  O          -13.454811       12.244179        8.007073
  N          -12.863739       10.081897        9.276520
  C          -15.500112        9.392837        9.121587
  C          -12.256069       10.290493        6.729283
  S           25.024876       10.927587       -4.409393
  S           23.945260       13.482874       -4.981530
  F           27.582472       11.685827       -4.459036
  F           27.170310        9.829215       -5.505426
  F           26.621592       11.726114       -6.402558
  F           24.750780       15.942094       -5.501362
  F           25.316229       15.257186       -3.522566
  F           26.383788       14.533202       -5.266376
  O           24.190275       10.291473       -5.393788
  O           25.334491       10.225063       -3.192552
  O           22.756143       14.008780       -4.363233
  O           23.928596       13.205237       -6.394009
  N           24.645604       12.413797       -4.049687
  C           26.692082       11.060566       -5.245497
  C           25.175133       14.875322       -4.799148
  S           13.457982       -4.923169       -2.756204
  S           10.993011       -6.213465       -3.286724
  F           14.772750       -7.123304       -2.014934
  F           15.097063       -5.402118       -0.732687
  F           13.236252       -6.509928       -0.613102
  F            9.912023       -8.619057       -3.179745
  F           11.560158       -8.483647       -4.583234
  F           11.954960       -8.560447       -2.451815
  O           12.815749       -3.883739       -1.996365
  O           14.606665       -4.597591       -3.559091
  O           10.136852       -5.883925       -4.396348
  O           10.524852       -5.959435       -1.949281
  N           12.498592       -5.844224       -3.600766
  C           14.171963       -6.061053       -1.455520
  C           11.124925       -8.072989       -3.384350
  S           -0.982926       17.767450        2.348498
  S            0.007604       18.502734        4.898126
  F           -0.584851       20.141276        1.197334
  F           -2.506061       19.233322        0.754171
  F           -2.157713       20.147168        2.690070
  F            0.989758       20.609071        6.149354
  F            2.221987       19.947547        4.491506
  F            0.379644       21.026760        4.109696
  O           -2.155860       17.157899        2.916746
  O           -0.386214       17.183006        1.176976
  O            0.813269       17.642518        5.725050
  O           -1.309749       18.866111        5.350889
  N            0.161625       18.128952        3.368976
  C           -1.589344       19.421561        1.721998
  C            0.956221       20.110492        4.899763
  S           -2.940543       15.181673       -5.141519
  S           -1.864209       12.625096       -5.714073
  F           -3.822831       14.574057       -2.697943
  F           -5.226099       15.702241       -3.910322
  F           -4.915950       13.589670       -4.291137
  F           -1.635186       10.239611       -4.607792
  F           -0.599202       11.795583       -3.507723
  F           -2.760196       11.645234       -3.397218
  O           -3.605617       15.250055       -6.415581
  O           -2.401241       16.385113       -4.566202
  O           -0.622699       12.414682       -6.412106
  O           -3.091240       12.202400       -6.337114
  N           -1.876953       14.029732       -4.987042
  C           -4.301223       14.724482       -3.943247
  C           -1.704870       11.524781       -4.214514
  S           12.600359       11.858564        7.675646
  S           10.232723       10.725251        6.611549
  F           12.947745       10.035108        9.592160
  F           13.239253       12.087841       10.234913
  F           11.234512       11.324892        9.913840
  F            8.594572        8.701377        7.044265
  F           10.604421        8.077691        6.518922
  F           10.191617        8.843552        8.505819
  O           12.027844       13.178441        7.695261
  O           14.000056       11.705351        7.379884
  O            9.938213       10.655738        5.203962
  O            9.408892       11.553201        7.453130
  N           11.793268       10.775805        6.864294
  C           12.488779       11.289019        9.453144
  C            9.899733        8.987180        7.205677
  S            6.630207       -9.639798       12.120177
  S            8.020160       -7.900721       10.369165
  F            4.909978      -10.556551       10.298347
  F            4.015246      -10.045634       12.208907
  F            4.595917       -8.477320       10.827829
  F            7.965736       -7.106773        7.852514
  F            8.379652       -9.224495        8.072493
  F            6.362724       -8.478953        8.356879
  O            6.511336       -8.621258       13.129474
  O            6.817186      -11.008286       12.523145
  O            9.446953       -7.709513       10.393048
  O            7.165782       -6.796709       10.720810
  N            7.627040       -9.321475       10.942445
  C            4.945593       -9.674169       11.309485
  C            7.658761       -8.207376        8.563586
  S           26.527869       14.450570        1.765370
  S           27.464528       15.730829       -0.581118
  F           27.945865       15.927474        3.476139
  F           27.957851       13.797832        3.896024
  F           29.152252       14.590338        2.268294
  F           29.134826       17.641737       -1.305953
  F           27.494681       18.358625       -0.081020
  F           29.131732       17.266254        0.830847
  O           26.750421       13.142392        1.209154
  O           25.400592       14.660906        2.634341
  O           26.632892       16.034440       -1.716491
  O           28.523249       14.767383       -0.733892
  N           26.607684       15.649018        0.745858
  C           27.984829       14.711809        2.907889
  C           28.349666       17.341693       -0.254914
  S           23.925298       16.644624        9.881721
  S           25.878659       18.599041        9.259601
  F           22.023376       18.369499       10.607113
  F           22.254165       16.668215       11.935342
  F           23.697769       18.286223       11.982492
  F           26.188329       21.220167        9.285148
  F           24.632514       20.555937        7.927686
  F           24.270705       20.572493       10.066268
  O           24.863610       15.868220       10.647881
  O           22.913555       15.966311        9.115972
  O           26.774482       18.509517        8.136054
  O           26.425139       18.536031       10.589956
  N           24.548364       17.786191        8.992526
  C           22.925475       17.553093       11.174535
  C           25.192219       20.329690        9.123902
  S            5.927741      -12.222647        7.159906
  S            3.683478      -13.287116        8.521003
  F            5.120002      -12.904827        4.710237
  F            7.211805      -13.316191        5.118842
  F            5.670901      -14.595849        5.950859
  F            1.445870      -14.590089        8.008929
  F            1.517153      -12.622405        7.099204
  F            2.667405      -14.252475        6.248027
  O            6.848623      -12.840542        8.076647
  O            6.242489      -10.928899        6.614696
  O            3.048077      -12.647980        9.643785
  O            4.352350      -14.545378        8.725562
  N            4.415898      -12.227574        7.603033
  C            5.976196      -13.328987        5.653257
  C            2.251804      -13.702568        7.397406
  S           10.834426       -6.659970        3.858115
  S           11.514400       -8.925465        5.416180
  F           11.634451       -4.842950        5.640555
  F            9.715545       -4.419717        4.718332
  F            9.870620       -5.947141        6.250354
  F           12.513768       -9.516505        7.786577
  F           13.899632       -8.429195        6.521032
  F           12.251480       -7.386267        7.470035
  O            9.535669       -7.194105        3.544804
  O           11.532142       -5.885179        2.866654
  O           12.099985      -10.124783        4.876182
  O           10.189165       -8.990603        5.974718
  N           11.849688       -7.671825        4.511909
  C           10.496593       -5.404060        5.201576
  C           12.611244       -8.531732        6.874490
  S           18.437886       14.712088       11.158649
  S           20.590019       13.241835       10.050010
  F           17.227159       15.230440        8.838274
  F           17.360827       16.926729       10.186071
  F           19.113581       16.269663        9.090498
  F           21.506333       12.472229        7.697368
  F           19.559481       11.641324        8.170471
  F           19.734268       13.716942        7.565517
  O           19.321715       15.496537       11.979454
  O           17.141708       14.351911       11.668842
  O           21.143815       12.054985       10.647979
  O           21.408133       14.423395        9.965958
  N           19.081372       13.444367       10.479779
  C           18.019892       15.844682        9.730770
  C           20.319437       12.740171        8.272405
  S          -13.752952       -6.115413       13.094134
  S          -12.343813       -4.977367       15.271651
  F          -16.033245       -6.523611       14.417890
  F          -15.398446       -8.188089       13.177582
  F          -14.405789       -7.801295       15.066812
  F          -12.699579       -4.397715       17.822001
  F          -14.025533       -3.300034       16.502377
  F          -14.402495       -5.394759       16.920395
  O          -12.658450       -6.991152       12.769512
  O          -14.554854       -5.570899       12.030856
  O          -11.442274       -3.861513       15.149308
  O          -11.812978       -6.260274       15.652207
  N          -13.425749       -4.963572       14.117979
  C          -14.961711       -7.216662       14.001041
  C          -13.439669       -4.488498       16.701640
  S           -4.341061       -4.772583        4.870345
  S           -6.699511       -5.469705        3.465305
  F           -4.531708       -2.144344        4.452367
  F           -2.543788       -2.964216        4.156051
  F           -4.083628       -3.283242        2.662304
  F           -8.627045       -4.328369        2.069307
  F           -8.570367       -3.679936        4.138313
  F           -7.100473       -2.934647        2.728113
  O           -3.577182       -5.798948        4.212093
  O           -4.054878       -4.457614        6.244753
  O           -7.623204       -6.484541        3.900929
  O           -5.961345       -5.679499        2.247292
  N           -5.903556       -4.861789        4.689491
  C           -3.856602       -3.202944        3.977114
  C           -7.806970       -4.014753        3.089260
  S           13.982712        7.998912       -4.258535
  S           16.685825        8.364351       -5.021447
  F           13.963727        5.347249       -4.553512
  F           12.226832        6.359599       -5.372148
  F           14.122287        6.433059       -6.423823
  F           18.757320        6.951301       -5.845491
  F           18.100800        6.421231       -3.847374
  F           16.960833        5.765981       -5.572434
  O           13.537139        9.065829       -5.114916
  O           13.321585        7.788466       -2.998088
  O           17.580846        9.295256       -4.384875
  O           16.311479        8.588660       -6.393310
  N           15.539151        7.910057       -4.031249
  C           13.560629        6.446142       -5.210942
  C           17.673937        6.781169       -5.065414
  S           16.051658       13.700590       17.058345
  S           15.095215       11.068266       17.480826
  F           15.342043       13.848437       14.490607
  F           17.331909       14.600555       14.922550
  F           16.966832       12.463252       14.869440
  F           13.938392        9.104960       16.148895
  F           12.717954       10.894142       16.266484
  F           14.410194       10.823424       14.911480
  O           17.308571       13.407188       17.694207
  O           15.474378       15.009045       17.215806
  O           14.426799       10.640082       18.681971
  O           16.381899       10.505597       17.164118
  N           14.918615       12.623805       17.255329
  C           16.442163       13.638353       15.230789
  C           13.973904       10.450034       16.122440
  S            0.387817       19.755718       13.413224
  S            1.927619       18.378084       11.475820
  F            2.408504       21.179635       14.417206
  F            1.093923       20.303182       15.905672
  F            2.529709       19.059969       14.858245
  F            4.426656       18.190376       10.647309
  F            3.580278       20.168201       10.371049
  F            4.181370       19.513025       12.349468
  O           -0.247269       18.542369       13.854454
  O           -0.369324       20.979101       13.400008
  O            1.469313       18.092073       10.141270
  O            2.160221       17.282094       12.379788
  N            1.199032       19.651570       12.066696
  C            1.686976       20.087778       14.716394
  C            3.620052       19.115584       11.199183
  S          -17.005073       -0.315787       10.780088
  S          -17.254695        0.122909        7.993040
  F          -16.766211        2.256054       11.448870
  F          -15.363549        0.930385       12.442331
  F          -15.059189        1.473289       10.364643
  F          -17.250155        2.110301        6.256060
  F          -18.889124        2.216320        7.672748
  F          -16.881222        2.749572        8.296189
  O          -16.028626       -1.354765       10.586930
  O          -17.948510       -0.431739       11.860174
  O          -18.154221       -0.611685        7.142103
  O          -15.836279       -0.029816        7.800094
  N          -17.775975        0.146336        9.486176
  C          -15.990183        1.174312       11.276003
  C          -17.593293        1.902073        7.540614
  S           19.878148      -12.009104       -5.063709
  S           17.169123      -12.222700       -4.264985
  F           19.938533      -14.280595       -6.462057
  F           21.658781      -13.965446       -5.176270
  F           19.761702      -14.577194       -4.321274
  F           15.119498      -13.868295       -4.505620
  F           15.785595      -13.049039       -6.400244
  F           16.934543      -14.613193       -5.431714
  O           20.306353      -11.689600       -3.727748
  O           20.543341      -11.391658       -6.180124
  O           16.260036      -11.107967       -4.203332
  O           17.538983      -12.885382       -3.041665
  N           18.323448      -11.957927       -5.313397
  C           20.323899      -13.813996       -5.263705
  C           16.205941      -13.509547       -5.214229
  S           -9.322429       14.426091       -1.149170
  S           -9.686705       16.932229        0.119284
  F           -8.505223       13.123847        1.031432
  F           -7.336661       12.720165       -0.752755
  F           -7.085118       14.594693        0.308865
  F           -9.402086       18.051419        2.492731
  F          -10.870915       16.455644        2.470205
  F           -8.754631       15.981571        2.434069
  O           -8.600272       15.020204       -2.242676
  O          -10.184525       13.303084       -1.405585
  O          -10.781041       17.823878       -0.164019
  O           -8.349666       17.344583       -0.219460
  N          -10.076775       15.433278       -0.201230
  C           -7.985863       13.683757       -0.072667
  C           -9.682312       16.837553        1.983628
  S           22.865027       -8.148774       11.644443
  S           25.430317       -9.302442       11.311665
  F           21.567421      -10.450862       12.012276
  F           20.576741       -9.059662       10.672523
  F           22.306152      -10.177729        9.991913
  F           26.580185      -11.677355       11.245045
  F           25.673015      -11.219776       13.161325
  F           24.424908      -11.770877       11.475138
  O           23.028898       -7.310645       10.486463
  O           22.137704       -7.643942       12.778572
  O           26.640539       -8.737483       11.849303
  O           25.265317       -9.358270        9.882639
  N           24.170868       -8.862617       12.161418
  C           21.776352       -9.545215       11.043555
  C           25.522440      -11.091652       11.836070
  S           26.489604        0.638312        0.230119
  S           27.361009        0.928106       -2.449260
  F           28.027994        2.572069        1.236415
  F           27.991515        0.745126        2.408066
  F           29.136831        0.832450        0.568286
  F           29.056843        2.363533       -3.874231
  F           27.496110        3.552542       -2.949659
  F           29.136811        2.795683       -1.749670
  O           26.645916       -0.791337        0.186491
  O           25.409214        1.202892        0.994390
  O           26.489755        0.833254       -3.591533
  O           28.381024       -0.071699       -2.269209
  N           26.561785        1.376173       -1.159991
  C           28.003368        1.232397        1.153109
  C           28.310068        2.504580       -2.763548
  S           -9.420568       16.938934        6.644231
  S           -6.597843       16.718589        6.566302
  F           -9.890033       14.359390        7.138447
  F          -11.174269       15.237331        5.624585
  F           -9.117268       14.740978        5.148619
  F           -4.711662       14.884433        6.778538
  F           -5.880396       15.122977        8.590063
  F           -6.719748       14.070648        6.889239
  O           -9.451294       17.707037        5.427963
  O          -10.369848       17.233925        7.684399
  O           -5.700496       17.697989        7.121653
  O           -6.611453       16.518880        5.140684
  N           -7.999572       16.751735        7.298282
  C           -9.917528       15.218251        6.107007
  C           -5.951538       15.107162        7.252125
  S           18.419237       11.820941        2.536210
  S           18.745520       13.324169        4.914496
  F           16.134156       10.647316        3.257113
  F           17.584738        9.315498        2.343935
  F           17.856270        9.976917        4.391607
  F           17.555735       13.702922        7.239965
  F           16.344081       14.317435        5.549186
  F           16.578082       12.210028        6.006121
  O           19.784874       11.368908        2.566789
  O           17.796004       12.085166        1.266616
  O           19.229542       14.679717        4.947400
  O           19.546359       12.286410        5.509618
  N           18.066397       12.996323        3.524156
  C           17.443562       10.361414        3.179771
  C           17.211987       13.390495        5.976870
  S            5.594117       14.923565       13.163016
  S            3.691208       12.825866       13.194535
  F            5.190692       15.630478       10.622108
  F            7.277987       15.509860       11.205609
  F            6.143465       13.695906       10.849809
  F            1.988423       11.623329       11.575499
  F            1.522651       13.715844       11.905499
  F            3.163404       13.163549       10.598743
  O            6.596641       14.100331       13.785483
  O            5.539265       16.325145       13.483430
  O            2.821098       12.547911       14.307424
  O            4.693276       11.855860       12.837595
  N            4.128518       14.345830       13.180265
  C            6.071601       14.931281       11.355178
  C            2.527543       12.846068       11.735001
  S            7.739646       -1.561386       -4.030860
  S            5.112620       -0.548552       -3.722148
  F            7.019440       -4.105235       -4.389782
  F            8.695579       -3.822898       -3.039722
  F            6.679520       -3.377030       -2.375741
  F            2.615576       -1.402210       -3.668419
  F            3.592495       -1.735375       -5.576060
  F            4.067185       -3.000704       -3.879498
  O            8.211737       -0.848844       -2.873429
  O            8.618093       -1.729209       -5.157922
  O            4.666342        0.705929       -4.269856
  O            5.178978       -0.697211       -2.291780
  N            6.317272       -1.138651       -4.560202
  C            7.509136       -3.314210       -3.421926
  C            3.780144       -1.744921       -4.249378
  S          -11.658124       -9.095663        0.515041
  S          -10.784476      -10.902951        2.513252
  F          -11.474499      -10.814206       -1.517588
  F          -10.677141       -8.838012       -1.930749
  F           -9.556194      -10.224805       -0.696065
  F           -9.946314      -13.394420        2.751823
  F          -11.986943      -13.243712        2.032390
  F          -10.332495      -12.809218        0.698700
  O          -10.774619       -8.061239        0.983677
  O          -12.949072       -8.732658       -0.006289
  O          -11.349377      -10.971996        3.835746
  O           -9.418744      -10.473138        2.363273
  N          -11.833087      -10.331808        1.475973
  C          -10.786797       -9.791016       -0.986158
  C          -10.771043      -12.685499        1.959082
  S           20.517208        1.178128       -0.695629
  S           21.171632        3.918282       -0.402910
  F           19.139360        0.973861        1.580003
  F           20.512977       -0.664679        1.205592
  F           21.269598        1.255970        1.871023
  F           20.833008        5.901058        1.306120
  F           18.971175        5.159697        0.476405
  F           20.010124        4.017202        1.999559
  O           21.871942        0.831998       -1.034926
  O           19.433764        0.473201       -1.327556
  O           21.177194        4.862863       -1.489466
  O           22.417370        3.594469        0.241868
  N           20.184565        2.718063       -0.697717
  C           20.353410        0.667595        1.095698
  C           20.180998        4.789649        0.917745
  S           -6.938434        1.194586        1.704763
  S           -4.277397        0.346138        1.234210
  F           -6.299810        3.595945        2.676528
  F           -7.827059        2.542540        3.803325
  F           -5.747466        1.951849        3.978087
  F           -1.801945        1.211491        1.534460
  F           -2.970808        2.421425        0.165415
  F           -3.293487        2.586289        2.303968
  O           -7.280152       -0.045128        2.350184
  O           -7.928243        1.864679        0.903915
  O           -3.867810       -0.408254        0.078354
  O           -4.202237       -0.274779        2.530848
  N           -5.569641        1.204098        0.924780
  C           -6.676787        2.386696        3.121358
  C           -3.024434        1.727808        1.310583
  S           28.054979        0.283338       16.227862
  S           28.087126        3.104116       15.973745
  F           27.162195       -0.210524       13.762557
  F           26.196465       -1.370885       15.322284
  F           25.690490        0.721075       15.054222
  F           27.496643        4.976840       14.209919
  F           29.093864        3.661762       13.558827
  F           27.038061        2.971105       13.521703
  O           27.384551        0.348372       17.499291
  O           29.030188       -0.749924       16.001057
  O           29.121294        3.947180       16.514680
  O           26.755005        3.208919       16.509400
  N           28.632112        1.646776       15.689338
  C           26.696893       -0.157984       15.020731
  C           27.924831        3.700975       14.212444
  S          -10.657176        2.987725       -1.822905
  S           -9.314581        5.407315       -2.427405
  F          -12.552579        3.246085       -3.682848
  F          -13.275556        2.603333       -1.739656
  F          -12.720126        4.675207       -2.060588
  F           -9.515546        7.471597       -4.059950
  F           -9.194765        5.591862       -5.093470
  F          -11.144377        6.052804       -4.262052
  O          -10.648641        3.268901       -0.411841
  O          -10.510656        1.627401       -2.268052
  O           -7.882084        5.551595       -2.429916
  O          -10.083122        6.127229       -1.445812
  N           -9.735792        3.908907       -2.708641
  C          -12.396981        3.413190       -2.359922
  C           -9.824415        6.161721       -4.057038
  S           16.930959        1.189805       13.133967
  S           19.555604        0.138864       12.963207
  F           15.850626       -0.943724       14.317024
  F           14.667828       -0.113352       12.697366
  F           16.436271       -1.289679       12.258014
  F           20.888405       -2.062716       13.549327
  F           20.069226       -1.068652       15.294390
  F           18.766612       -2.200675       13.980453
  O           16.953013        1.621264       11.761528
  O           16.237682        1.988563       14.109394
  O           20.747236        0.914321       13.190252
  O           19.306226       -0.380612       11.643960
  N           18.320441        0.754749       13.735732
  C           15.923900       -0.385281       13.098402
  C           19.825751       -1.380136       14.014122
  S           16.661155       17.514657       -5.199665
  S           14.704944       19.485149       -4.640382
  F           14.941179       15.509243       -5.572072
  F           16.669753       15.003430       -4.360459
  F           15.060550       16.187114       -3.515757
  F           12.086496       19.716550       -4.401568
  F           12.715447       19.133901       -6.393905
  F           12.739593       17.682894       -4.781854
  O           17.457541       17.901559       -4.065509
  O           17.318804       17.074641       -6.401325
  O           14.776744       20.843944       -5.110907
  O           14.797279       19.234524       -3.225774
  N           15.505371       18.509892       -5.594284
  C           15.773412       15.972252       -4.625881
  C           12.968382       18.967308       -5.088661
  S           10.663421       19.746964        6.842494
  S            9.803202       17.489738        5.363523
  F           10.023228       18.771200        9.241812
  F            9.444958       20.839165        8.924091
  F            8.306312       19.239501        8.002827
  F            8.684007       15.131109        5.752264
  F           10.628871       15.320519        6.693590
  F            8.899991       16.291692        7.572513
  O            9.981732       20.656320        5.960108
  O           11.920613       20.140677        7.420907
  O           10.505061       16.962645        4.222280
  O            8.496312       18.062051        5.171287
  N           10.788358       18.262432        6.330037
  C            9.540237       19.633293        8.333086
  C            9.495061       15.977348        6.413517
  S          -15.653150       -9.980233       -5.029836
  S          -17.824437       -8.470423       -4.015741
  F          -15.728710      -11.875788       -3.153710
  F          -13.738119      -11.148610       -3.623369
  F          -15.077901       -9.942988       -2.416877
  F          -19.528333       -8.491621       -2.000018
  F          -19.726021      -10.212658       -3.305168
  F          -18.069157      -10.094640       -1.910326
  O          -14.833624       -8.807238       -5.180482
  O          -15.540711      -11.043013       -5.993142
  O          -18.819467       -7.839520       -4.843236
  O          -16.939376       -7.641360       -3.239998
  N          -17.180576       -9.715036       -4.749308
  C          -15.021656      -10.776542       -3.460303
  C          -18.840688       -9.379959       -2.741088
  S            4.393421       17.557382        1.929026
  S            6.091947       15.340883        2.402884
  F            2.255207       16.126562        1.222283
  F            2.661423       17.834445       -0.054410
  F            3.875567       16.044537       -0.216430
  F            6.050878       12.704882        2.273811
  F            4.646265       13.512572        3.715742
  F            4.209116       13.628570        1.594385
  O            5.398198       18.234108        1.152688
  O            3.508422       18.331323        2.758421
  O            7.031384       15.267614        3.491442
  O            6.593976       15.384655        1.054363
  N            4.891355       16.309626        2.751960
  C            3.236521       16.839754        0.647262
  C            5.187801       13.710980        2.506294
  S           21.645914       -3.543934       -4.055460
  S           22.642950       -0.901535       -4.270046
  F           19.081195       -2.907054       -4.423281
  F           19.440344       -4.311827       -2.807903
  F           19.893106       -2.207942       -2.538014
  F           21.765636        1.562022       -4.627890
  F           21.359874        0.256567       -6.311817
  F           20.175153        0.091809       -4.502396
  O           22.413445       -3.797888       -2.865234
  O           21.438413       -4.611477       -4.997478
  O           23.867395       -0.557815       -4.944925
  O           22.557728       -0.709564       -2.845848
  N           22.029756       -2.239033       -4.850416
  C           19.919026       -3.212260       -3.419710
  C           21.410392        0.310932       -4.973952
  S          -14.010000       12.587982        2.009078
  S          -12.350555       10.292644        2.001072
  F          -16.310820       11.270024        2.305561
  F          -16.360705       12.851332        0.819360
  F          -15.376007       10.971360        0.371883
  F          -12.543925        7.663935        2.140168
  F          -13.249556        8.669224        3.927888
  F          -14.466566        8.669074        2.132450
  O          -13.356456       13.134742        0.849695
  O          -14.474502       13.479599        3.038330
  O          -11.067525       10.227309        2.651022
  O          -12.406588       10.206307        0.565153
  N          -13.283495       11.367586        2.690898
  C          -15.599738       11.868731        1.336964
  C          -13.209301        8.743537        2.590635
  S           22.733742        6.314952        4.782696
  S           23.320645        5.932201        7.527044
  F           21.550365        8.688077        5.076954
  F           20.505202        7.314613        3.760500
  F           20.417028        7.037611        5.909839
  F           22.976704        7.137416        9.849975
  F           24.208958        8.271929        8.471971
  F           22.059887        8.190976        8.189743
  O           22.202574        4.984163        4.651949
  O           23.453637        6.894433        3.679946
  O           24.548046        5.357547        8.012976
  O           22.089227        5.215493        7.732952
  N           23.529298        6.605524        6.111121
  C           21.215509        7.399990        4.900967
  C           23.133268        7.477577        8.557318
  S           16.848349        0.422473        3.348539
  S           14.903212       -0.290748        5.279901
  F           18.788923       -1.131293        4.317392
  F           19.421522        0.874161        3.779069
  F           18.289679        0.544643        5.599649
  F           14.653601       -1.806958        7.425979
  F           15.074635       -2.938129        5.623856
  F           16.657274       -1.816212        6.594044
  O           16.570986        1.825739        3.503939
  O           17.194738       -0.084256        2.047254
  O           13.510653       -0.497508        4.978404
  O           15.274214        0.815883        6.122625
  N           15.806002       -0.557143        4.008783
  C           18.420339        0.159572        4.326322
  C           15.355055       -1.802536        6.277447
