         874
  Built with Packmol                                             
  Ti          -2.868335        2.115442       11.265214
  Ti           7.802788        5.383210        1.844391
  Ti           1.352572       -1.673500        9.417113
  Ti           2.511792        7.542652        3.648414
  Ti           1.444672        9.187418        1.751989
  Ti           3.259458       -1.864257       11.359530
  Ti          -1.869782        0.416024        9.366140
  Ti           5.815984        5.614284        3.703281
  H            3.746896        1.652626        8.583439
  H           -7.024875       10.142785        6.478257
  H            4.431630       11.010612        4.650438
  H           -2.503694        6.028051       11.048460
  H            8.748737        1.507342        2.155250
  H           -6.801542        1.221893       10.903644
  H           11.114246        7.503838        2.029089
  H            4.372721       -5.862020       10.962653
  H           -2.589143        8.456181        2.095703
  H            4.656966        3.204147        6.826953
  H           -0.045224        3.670268        8.406030
  H           12.440918       -1.828167        6.378540
  H           -2.327232        0.331938       12.984230
  H            5.927385        5.077403        0.154584
  H            3.761426       -2.506617        5.844726
  H            0.745560        9.314262        7.279431
  H           -6.059913        3.661213        9.037490
  H           10.641247        3.393379        4.132134
  H           -3.728587        2.298708        5.688870
  H           -1.703972       10.903386        4.124923
  H            1.733452       12.300945        2.609537
  H            8.667985       -0.517063        3.355831
  H            4.606680        7.297451        2.297825
  H            0.215487        0.134620       10.719246
  H            7.415332        0.218685        9.728366
  H            5.955496       -0.302534       10.483299
  H            7.828656        4.670987        8.632537
  H            7.237651        5.011538        7.017709
  H            7.098177       -4.749977        9.534320
  H            5.784030       -3.695029       10.000157
  H            1.411485        1.911548        9.356085
  H            0.863759        5.227040        6.648574
  H            5.741023        9.069333        3.845371
  H            7.999135        8.609993        4.744623
  C            8.422325        4.659191        4.703706
  C           -3.853328        2.346718        8.423899
  C            3.961595       -2.592630        8.476524
  C            0.513540        9.443357        4.621320
  C            9.344336        4.085192        5.693105
  C           -4.811926        2.940026        7.452907
  C            4.917315       -3.172748        7.523270
  C           -0.392661       10.057561        5.626884
  C            9.101042        4.149763        7.100999
  C           -4.599256        2.829342        6.063538
  C            6.075072       -3.893771        7.969088
  C           -1.516055       10.792469        5.189090
  C           -0.124811        9.894234        6.980095
  C            4.657405       -3.047644        6.140915
  C           10.498947        3.426687        5.210054
  C           -5.932679        3.593124        7.958691
  C            2.813684        4.307411        6.639567
  C            1.802100        2.580168        8.590925
  C            6.161473        9.726276        4.605129
  C           -1.730084       -2.944720        6.528234
  C            8.715175        1.588330        0.011262
  C            1.839040       13.147429        0.088587
  C            6.684170        0.195343       12.990012
  C           -6.719779        1.271810       13.046845
  C            3.350517        5.224492        5.605606
  C           -1.145018       -2.033515        7.540248
  C            4.215985       -4.201651       13.101266
  C            1.796086       11.711651        0.049701
  C            5.408882       -0.466276       13.043122
  C           -5.332575        1.734605       13.064020
  C            1.482906        4.442604        7.078738
  C            3.125222        2.436827        8.154613
  C            5.424120       10.827594        5.058747
  C           -8.018869       10.319594        6.073436
  C            8.784652        0.919515        1.239780
  C           -2.508142        6.615249       11.963065
  C           -4.360552        7.730507        1.110303
  C           -7.351366        1.022025       11.821932
  C            7.441371        9.469644        5.112723
  C           12.991193       -2.694552        6.017481
  C            3.632637        3.298056        7.181208
  C            0.980621        3.578705        8.052889
  C            7.361766        0.489528       11.753548
  C           -3.089201        8.254946        1.152479
  C            4.438003       -6.388560       11.910676
  C            8.855538       -0.479663        1.318796
  N            8.938305       -1.077634        2.555968
  N            6.782516        0.288157       10.517426
  N            8.001283        4.757340        7.639127
  N            6.418775       -4.042078        9.284423
  O            7.234665        5.022637        5.076604
  O           -3.053924        1.423703        8.020113
  O            4.345224       -2.456407        9.695708
  O            0.426054        9.871897        3.422680
  O            1.318961        8.513079        5.002228
  O            2.776776       -2.264724        8.078087
  O            8.824398        4.755701        3.489805
  O           -3.903766        2.779752        9.624467
  O            6.156697        4.409127        2.505218
  O           -1.367975        1.993658       10.109628
  O            7.017801        6.727170        2.953185
  O           -3.056279        0.208461       10.609657
  O            1.659621       -2.837312       10.674383
  O            2.969458        9.121937        2.909279
  O            2.531624       -0.543378       10.208048
  O            1.322575        7.306972        2.398893
  O            4.575167        5.087631        5.244337
  O           -1.836144       -1.022528        7.923516
  O            4.066391       -3.610049       11.962095
  O            1.743514       11.006429        1.144350
  O            4.771026       -0.795498       11.956418
  O           -0.427504        9.094025        1.094098
  O            0.028867       -2.288059        7.991258
  O            2.574295        6.119616        5.117796
  O            9.199419        6.452785        1.083295
  O           -4.748114        1.988975       11.944029
  O            8.500254        3.672420        1.113292
  O           -2.542975        3.849240       12.015231
  O            4.269171        6.735574        3.019668
  O           -0.147093       -0.436062       10.017030
  O            6.748057        5.600086        0.071530
  O           -2.238358        1.302347       13.044892
  S           22.287236       -7.383119        8.770566
  S           19.723943       -7.493474        9.970461
  F           23.279765       -5.517712       10.399625
  F           23.726247       -5.211458        8.297559
  F           21.742389       -4.779464        9.060351
  F           18.358171       -6.349896       11.918216
  F           20.095900       -7.442374       12.619112
  F           20.343411       -5.515607       11.654220
  O           21.727406       -7.306335        7.447339
  O           23.514982       -8.105727        8.972011
  O           18.985112       -8.712128       10.175109
  O           19.206125       -6.513648        9.051624
  N           21.279691       -7.773703        9.917018
  C           22.776376       -5.620760        9.159364
  C           19.638196       -6.655142       11.636177
  S           17.449460       -2.327282        2.420399
  S           17.673812        0.383448        1.630456
  F           19.823085       -2.464306        3.631109
  F           19.358144       -4.161371        2.360038
  F           19.952078       -2.272417        1.475017
  F           19.389875        2.385019        1.755714
  F           18.706756        1.720894        3.704240
  F           20.155680        0.540546        2.603283
  O           17.012170       -2.732192        1.110796
  O           16.905119       -2.987549        3.577051
  O           16.583492        1.323011        1.666417
  O           18.225818        0.009033        0.354697
  N           17.461795       -0.774560        2.686773
  C           19.251446       -2.823900        2.470855
  C           19.058897        1.301088        2.481477
  S           16.658689       14.546458       -1.034303
  S           14.326459       13.407114       -2.167882
  F           15.386724       16.311317        0.510388
  F           17.099686       17.112859       -0.555027
  F           15.241284       16.741789       -1.609926
  F           11.702946       13.686170       -2.089442
  F           12.558493       13.103921       -0.183270
  F           12.760223       15.146993       -0.883178
  O           17.291166       14.672917       -2.320465
  O           17.464316       14.233053        0.115847
  O           14.163737       11.999809       -2.424566
  O           14.375185       14.315265       -3.283832
  N           15.359676       13.655848       -0.996416
  C           16.051548       16.273907       -0.655321
  C           12.755154       13.863622       -1.269349
  S           22.350627       11.976216       13.973732
  S           21.035358       12.457290       11.511815
  F           23.580889       14.340287       14.101463
  F           24.835262       12.641038       14.602381
  F           24.333792       13.047483       12.531755
  F           20.839997       14.330030        9.662079
  F           20.098782       14.961553       11.600182
  F           22.234782       14.828404       11.247357
  O           22.801062       10.678699       13.545023
  O           21.990123       12.173407       15.352592
  O           19.685500       12.044287       11.228646
  O           22.114533       11.858307       10.770830
  N           21.255910       12.653775       13.065677
  C           23.857446       13.066400       13.780534
  C           21.054383       14.249007       10.988223
  S           -4.949092        9.697042       12.624958
  S           -3.143869        8.384877       14.369032
  F           -3.170799       11.413296       11.619552
  F           -5.083340       12.296951       12.142203
  F           -3.662940       11.783341       13.698748
  F           -0.612846        8.497940       15.109294
  F           -0.869283        8.016659       13.009991
  F           -1.167495       10.051303       13.699920
  O           -5.939368        9.833091       13.659887
  O           -5.376691        9.462917       11.271279
  O           -3.143500        6.964385       14.603709
  O           -3.485502        9.267632       15.453692
  N           -3.751076        8.726600       12.949080
  C           -4.163435       11.390766       12.523119
  C           -1.350154        8.761443       14.014705
  S           -4.833897       17.352383        3.345656
  S           -6.857318       19.118413        2.446042
  F           -3.121906       19.251669        4.107555
  F           -2.223114       17.619111        2.994566
  F           -3.388719       19.126937        1.959197
  F           -7.309832       21.706750        2.195860
  F           -7.046707       21.079648        4.255464
  F           -5.326179       21.248413        2.945497
  O           -4.918193       16.555706        2.150485
  O           -4.559839       16.706184        4.601611
  O           -8.265134       18.897561        2.651342
  O           -6.339326       19.093870        1.103083
  N           -5.999380       18.390945        3.558009
  C           -3.311874       18.406133        3.082251
  C           -6.614576       20.883732        3.002360
  S          -14.503440       -7.044759       14.208360
  S          -11.995430       -6.083713       15.107624
  F          -15.308420       -7.983703       16.572484
  F          -15.672809       -9.317610       14.899244
  F          -13.668740       -9.103135       15.700411
  F          -10.547999       -5.980808       17.312437
  F          -12.414125       -4.885583       17.462511
  F          -12.418107       -7.052427       17.559904
  O          -13.911053       -7.690695       13.067274
  O          -15.810115       -6.456058       14.081333
  O          -11.406174       -4.845337       14.669360
  O          -11.349267       -7.321868       14.758476
  N          -13.571638       -6.038696       14.984014
  C          -14.794510       -8.439643       15.419105
  C          -11.848493       -5.994348       16.966436
  S           12.665318       12.182042       11.585375
  S           15.101819       10.942812       10.843637
  F           13.125036       14.485321       10.319572
  F           12.327122       14.701304       12.326685
  F           14.407846       14.161660       12.037661
  F           17.306210       11.476017        9.493378
  F           15.519444       11.517031        8.264456
  F           15.943523       13.159760        9.615866
  O           12.820141       11.792649       12.961833
  O           11.347146       12.215056       11.009670
  O           15.217286        9.556088       10.474134
  O           15.747046       11.396422       12.047954
  N           13.642882       11.486227       10.564460
  C           13.171147       13.982036       11.563294
  C           16.007619       11.828747        9.472722
  S          -12.633072       -4.891045       -1.427720
  S          -11.892380       -4.590388        1.289518
  F          -15.250195       -4.539512       -1.045900
  F          -14.743052       -6.188252       -2.363582
  F          -14.488227       -6.393889       -0.219534
  F          -13.002166       -4.176133        3.648250
  F          -13.300441       -2.534426        2.262503
  F          -14.445268       -4.363133        2.039091
  O          -11.832550       -6.077641       -1.573964
  O          -12.748678       -3.981713       -2.536708
  O          -10.713018       -3.890221        1.727399
  O          -11.980418       -6.009732        1.513505
  N          -12.382554       -4.055335       -0.115895
  C          -14.376807       -5.540035       -1.241899
  C          -13.241261       -3.869496        2.359844
  S          -11.004877       19.679573        7.083508
  S          -11.193453       17.514985        8.900483
  F           -8.342669       19.851268        7.126647
  F           -9.372928       21.757608        7.254130
  F           -9.286919       20.452064        8.983963
  F           -9.634021       15.975474       10.371852
  F           -9.275042       15.770496        8.242631
  F           -8.553172       17.521376        9.300002
  O          -12.028446       20.420691        7.771463
  O          -10.913103       19.774317        5.650781
  O          -12.125087       16.426509        8.758541
  O          -11.338115       18.411406       10.017605
  N          -10.861774       18.166321        7.497812
  C           -9.410077       20.472339        7.653124
  C           -9.567981       16.650644        9.209541
  S           11.401987        7.201367       11.984192
  S           12.773080        5.206211       10.513865
  F            8.949350        6.264528       11.509225
  F            9.151672        8.415236       11.296296
  F            9.921677        7.094606        9.757729
  F           12.260230        3.083313        9.031591
  F           11.606072        2.868622       11.088396
  F           10.474015        4.107925        9.714610
  O           12.164309        8.257073       11.372159
  O           11.005105        7.330118       13.361149
  O           14.010694        4.604799       10.937522
  O           12.767221        6.019224        9.325828
  N           11.947738        5.741764       11.752305
  C            9.766991        7.237919       11.077670
  C           11.710859        3.735969       10.072463
  S          -16.282720        3.804903        1.334272
  S          -16.616355        6.578978        1.798596
  F          -18.826969        3.319360        0.694168
  F          -17.941529        1.866299        2.041918
  F          -18.531719        3.816980        2.783998
  F          -18.516886        8.410584        1.791446
  F          -18.182068        7.517872       -0.156740
  F          -19.247405        6.410773        1.374305
  O          -15.548164        3.630134        2.559064
  O          -15.921656        3.022618        0.181985
  O          -15.658043        7.579496        1.406838
  O          -16.854986        6.357620        3.200920
  N          -16.507559        5.296411        0.879399
  C          -17.996743        3.177020        1.739506
  C          -18.232309        7.258412        1.156861
  S           -2.508564      -11.454939        9.216975
  S           -2.852910       -8.740889        8.483652
  F           -0.452944      -11.041374       10.866848
  F           -0.212310      -12.735267        9.530943
  F            0.025117      -10.715524        8.776999
  F           -1.772290       -6.376212        8.939073
  F           -2.613140       -7.289203       10.717804
  F           -0.726555       -8.003815        9.921037
  O           -2.570791      -11.892222        7.847615
  O           -3.069938      -12.289229       10.246014
  O           -4.136759       -8.114004        8.305840
  O           -1.992569       -8.897719        7.340116
  N           -2.951139       -9.965873        9.479396
  C           -0.682308      -11.476675        9.617779
  C           -1.940235       -7.543557        9.587365
  S           12.958969        8.907406       -1.377445
  S           14.662593        9.790847        0.705725
  F           14.288211        6.651399       -1.889538
  F           13.692434        7.768798       -3.652572
  F           15.366151        8.447093       -2.451426
  F           16.862318        9.050436        1.962646
  F           15.220074        7.657126        2.219913
  F           16.306324        7.717769        0.343456
  O           12.972558       10.198049       -2.013281
  O           11.755934        8.119151       -1.415713
  O           14.195171       10.427078        1.909717
  O           15.463342       10.553081       -0.216370
  N           13.545460        8.859611        0.083993
  C           14.153200        7.888454       -2.393258
  C           15.819737        8.470407        1.339931
  S           20.359625       11.806300       -2.010862
  S           22.915723       11.237546       -0.931379
  F           18.963815       10.821771        0.038799
  F           18.216434       10.254265       -1.918541
  F           19.997987        9.309000       -1.120599
  F           24.001994       10.124155        1.201043
  F           22.835177       11.893807        1.660753
  F           21.834620       10.027892        1.189634
  O           20.713101       11.250447       -3.290048
  O           19.486725       12.948889       -1.959492
  O           24.047860       12.120271       -1.040615
  O           22.961025        9.964202       -1.601453
  N           21.556752       12.042568       -1.014308
  C           19.335772       10.467294       -1.201468
  C           22.884191       10.803197        0.883865
  S            7.343816       17.245339        6.924444
  S            6.089672       14.754577        7.420051
  F            5.676500       18.019376        4.990635
  F            7.776850       18.362476        4.563282
  F            6.954623       16.359921        4.429565
  F            4.073859       13.299857        6.532844
  F            3.450046       15.188408        7.398116
  F            4.355362       15.145370        5.427517
  O            8.650512       16.644306        6.885212
  O            7.194942       18.564923        7.478193
  O            5.908985       14.194045        8.733834
  O            6.963062       14.083512        6.493056
  N            6.188215       16.331925        7.483296
  C            6.907614       17.500941        5.124243
  C            4.395307       14.601292        6.651681
  S          -13.820103       -5.155721       10.108352
  S          -15.434775       -2.911191       10.722612
  F          -11.613171       -4.249287       11.302722
  F          -11.285167       -5.126042        9.344270
  F          -12.155038       -3.146639        9.515898
  F          -15.258302       -0.569023       11.926754
  F          -14.916746       -2.244582       13.261036
  F          -13.375667       -1.645026       11.857356
  O          -14.240055       -5.153026        8.732174
  O          -13.567934       -6.412199       10.762399
  O          -16.818881       -2.999562       11.109022
  O          -15.101807       -2.277814        9.473444
  N          -14.658353       -4.241994       11.080202
  C          -12.126723       -4.363803       10.067644
  C          -14.698154       -1.789157       12.019990
  S          -17.115766        7.511114       14.934341
  S          -15.638505        8.984944       16.849524
  F          -17.073074        9.389863       13.040359
  F          -19.004013        8.440852       13.327883
  F          -18.291686        9.908152       14.757493
  F          -14.503808       11.350792       17.136010
  F          -13.624817       10.167702       15.544741
  F          -15.550581       11.121143       15.249628
  O          -18.114080        7.143524       15.903094
  O          -16.757165        6.571515       13.905429
  O          -14.639576        8.407504       17.710669
  O          -16.843885        9.507920       17.437753
  N          -15.797049        8.144536       15.518992
  C          -17.911504        8.899475       13.967085
  C          -14.780731       10.485112       16.143490
  S           14.051075      -10.304138        9.522106
  S           12.100151      -12.190176       10.333993
  F           16.167779      -11.780008       10.200383
  F           16.294163       -9.694810       10.790126
  F           15.024366      -11.061159       11.896864
  F           11.944678      -14.581609       11.440212
  F           12.944982      -14.592878        9.515705
  F           13.977411      -13.842822       11.269620
  O           13.372917       -9.227814       10.194314
  O           14.727172      -10.040088        8.279820
  O           10.886627      -12.454100        9.605588
  O           12.009438      -11.595245       11.641772
  N           13.231555      -11.641542        9.374480
  C           15.457803      -10.743276       10.673020
  C           12.790479      -13.895663       10.649464
  S           -9.286737        7.686682        0.695978
  S           -9.412433        4.866346        0.467274
  F           -6.623650        7.847875        0.721937
  F           -7.617869        9.084130        2.203498
  F           -7.461319        6.942016        2.505170
  F           -7.801448        2.778716        0.351611
  F           -7.556513        4.141591       -1.317833
  F           -6.755163        4.658756        0.630266
  O          -10.262252        7.701557        1.753514
  O           -9.268077        8.764954       -0.256431
  O          -10.366023        4.169359       -0.355979
  O           -9.485768        4.712326        1.896734
  N           -9.144504        6.324769       -0.083137
  C           -7.653080        7.890081        1.582612
  C           -7.785945        4.077888        0.000762
  S          -10.944130       17.215539       -1.016849
  S          -11.552060       14.605809       -0.099172
  F          -13.396783       17.780202       -1.902479
  F          -11.795450       18.350454       -3.252429
  F          -12.372794       16.267670       -3.071189
  F          -13.586448       12.927262        0.003757
  F          -13.917479       14.743222        1.142693
  F          -14.051765       14.781592       -1.021841
  O           -9.757195       16.763160       -1.692697
  O          -10.948235       18.515808       -0.400904
  O          -11.031896       14.041704        1.119058
  O          -11.156704       14.026865       -1.356540
  N          -11.597827       16.184882       -0.020614
  C          -12.202814       17.403213       -2.386820
  C          -13.382512       14.257481        0.014307
  S            9.129226       13.895123        8.492060
  S            9.775184       13.940338        5.734689
  F           10.646530       15.982384        9.170165
  F           10.788754       14.286601       10.517723
  F           11.782342       14.228446        8.590662
  F           11.284519       15.286833        4.038897
  F            9.745004       16.502129        4.964864
  F           11.508285       15.939514        6.095799
  O            9.350076       12.476003        8.578988
  O            8.085565       14.492364        9.282109
  O            8.823475       13.693103        4.683026
  O           10.852874       13.005949        5.929517
  N            9.057843       14.487344        7.033898
  C           10.679803       14.641375        9.223599
  C           10.620278       15.512307        5.187431
  S            0.605831       -9.320799       -0.558365
  S           -0.663925       -7.180762       -1.911273
  F            0.106376       -8.430399        1.906675
  F            2.130265       -9.152637        1.599973
  F            1.536106       -7.220481        0.813898
  F           -1.930209       -4.926788       -1.379320
  F           -2.950772       -6.681854       -0.615998
  F           -1.182278       -5.932343        0.391660
  O            1.772796       -9.232916       -1.395444
  O            0.166723      -10.612090       -0.100266
  O           -1.461508       -7.342304       -3.098975
  O            0.572379       -6.448492       -1.999528
  N           -0.650605       -8.507523       -1.050305
  C            1.119517       -8.472601        1.026884
  C           -1.744443       -6.131333       -0.808577
  S           25.954754        0.395335        8.093876
  S           23.420688       -0.763091        7.584992
  F           27.378205       -1.481558        6.840979
  F           28.175977       -0.878588        8.767584
  F           26.438344       -2.172822        8.668822
  F           22.371606       -2.889259        6.424956
  F           23.437979       -1.600387        5.044332
  F           24.541032       -2.880179        6.404522
  O           25.645236        0.600938        9.483897
  O           26.765314        1.364064        7.404921
  O           22.244664       -0.004686        7.246380
  O           23.450214       -1.477329        8.834571
  N           24.735953        0.012310        7.171991
  C           27.039144       -1.127956        8.090888
  C           23.455292       -2.103426        6.286121
  S          -13.901899        4.366251       13.325010
  S          -11.612128        2.719806       13.586867
  F          -15.666842        2.370932       13.175446
  F          -15.975068        3.959800       11.728962
  F          -14.373937        2.525269       11.441443
  F          -10.964015        0.161890       13.649032
  F          -12.247878        0.759075       15.292057
  F          -13.078195        0.505862       13.304303
  O          -13.275212        5.174790       12.313198
  O          -14.796630        4.987599       14.264948
  O          -10.506078        3.015772       14.459751
  O          -11.394317        2.725531       12.163848
  N          -12.945129        3.391426       14.110098
  C          -15.035573        3.232825       12.362484
  C          -12.009098        0.939966       13.986051
  S            1.956875       16.924759       10.806859
  S            2.925019       14.814261       12.428862
  F            4.141811       17.138577        9.290605
  F            3.320200       19.031876        9.963058
  F            4.434961       17.781462       11.340715
  F            5.094961       13.344729       12.742988
  F            4.155822       13.080100       10.805863
  F            5.304231       14.873461       11.217834
  O            1.501740       17.670811       11.949878
  O            1.196072       16.976927        9.586793
  O            2.117886       13.707760       12.872779
  O            3.429348       15.742185       13.407160
  N            2.359906       15.427300       11.084776
  C            3.560828       17.759027       10.329724
  C            4.452766       13.984877       11.748514
  S           -0.006118       14.362769       10.032561
  S            1.167690       11.808128        9.688491
  F           -2.475620       13.474605       10.513617
  F           -2.371060       15.155624        9.144288
  F           -1.820380       13.169383        8.469188
  F            0.484363        9.258637        9.686070
  F            0.174525       10.225330       11.602829
  F           -1.197665       10.600161        9.965360
  O            0.618073       14.873174        8.840879
  O           -0.180759       15.236439       11.162298
  O            2.473732       11.452099       10.178764
  O            0.948533       11.853291        8.266385
  N            0.536577       12.976413       10.547879
  C           -1.765599       14.009345        9.507540
  C            0.090573       10.401724       10.277225
  S          -17.679028        7.593212       -2.713527
  S          -17.537712       10.400992       -2.368853
  F          -16.079179        6.978430       -0.668724
  F          -15.686250        5.864240       -2.489715
  F          -15.053507        7.932186       -2.324181
  F          -16.365802       12.185787       -0.817086
  F          -17.722883       10.878307        0.256827
  F          -15.781732       10.143961       -0.373556
  O          -17.436437        7.697220       -4.127941
  O          -18.568385        6.571961       -2.227529
  O          -18.660673       11.287278       -2.531106
  O          -16.436161       10.500230       -3.290371
  N          -18.014493        8.944745       -1.976726
  C          -16.027663        7.073685       -2.006835
  C          -16.815121       10.920349       -0.727850
  S           20.100995       17.814090        0.419046
  S           22.682253       16.710009        0.044194
  F           18.948708       16.531824       -1.617304
  F           18.436650       18.636021       -1.469071
  F           20.377909       18.042122       -2.232590
  F           23.955541       15.065191       -1.580662
  F           22.352796       14.106963       -0.477270
  F           21.890246       15.409047       -2.149196
  O           20.626916       19.147626        0.542832
  O           18.958440       17.434646        1.206886
  O           23.546864       16.305895        1.122160
  O           23.079759       17.815957       -0.787266
  N           21.163249       16.652281        0.481267
  C           19.438575       17.747868       -1.328279
  C           22.709380       15.237178       -1.102451
  S          -18.643732       -1.800102       -3.406550
  S          -18.695604       -1.362801       -0.608609
  F          -16.787905       -3.716382       -3.356885
  F          -16.504070       -2.224066       -4.907450
  F          -16.027992       -1.751010       -2.844993
  F          -17.512715       -2.221911        1.589015
  F          -18.634851       -3.767695        0.561481
  F          -16.719605       -3.116700       -0.221300
  O          -18.564389       -0.390316       -3.683033
  O          -19.389194       -2.648873       -4.297605
  O          -19.898052       -1.112842        0.142729
  O          -17.711646       -0.317061       -0.712106
  N          -19.006915       -2.185923       -1.922874
  C          -16.888939       -2.405907       -3.630226
  C          -17.845048       -2.701269        0.376186
  S            2.439045       20.621794       16.362009
  S            3.387918       18.023250       15.754054
  F           -0.118032       19.923166       16.665271
  F            0.192785       21.731929       15.506137
  F            0.586342       19.792468       14.618574
  F            2.475882       15.567225       15.433152
  F            2.180451       16.333820       17.440518
  F            0.913359       17.021782       15.820057
  O            3.153365       21.203280       15.256634
  O            2.300531       21.373398       17.581029
  O            4.635881       17.491127       16.236035
  O            3.229712       18.251076       14.341424
  N            2.832611       19.140428       16.726312
  C            0.676634       20.499375       15.749434
  C            2.164950       16.667560       16.142918
  S           -6.977157       15.888869       -0.777459
  S           -4.339876       16.675854       -1.446640
  F           -6.503995       13.263300       -0.812016
  F           -8.338338       13.863679       -1.805269
  F           -6.423746       14.191158       -2.770288
  F           -2.001582       15.600253       -2.031713
  F           -2.678033       15.136319       -0.023817
  F           -3.571353       14.133939       -1.727321
  O           -7.550879       16.776413       -1.753852
  O           -7.668504       15.672209        0.465602
  O           -3.667410       17.807514       -0.863539
  O           -4.660704       16.706209       -2.849710
  N           -5.447386       16.107569       -0.470826
  C           -7.054299       14.207430       -1.591792
  C           -3.084359       15.303339       -1.289674
  S          -10.625799       -0.634439        1.073211
  S           -9.935660       -1.283929        3.742344
  F           -8.121770       -0.483815        0.164453
  F           -9.420187        1.126066       -0.494500
  F           -8.651583        1.112088        1.533607
  F           -7.792630       -1.647042        5.239814
  F           -7.961282       -3.085138        3.624915
  F           -7.330138       -1.052863        3.205125
  O          -11.557411        0.375804        1.499524
  O          -10.924549       -1.414808       -0.098061
  O          -10.653526       -2.237118        4.547932
  O           -9.952273        0.103000        4.127841
  N          -10.102542       -1.601151        2.201805
  C           -9.114158        0.333903        0.550161
  C           -8.154100       -1.800279        3.952553
  S           18.665688       13.627038        6.200406
  S           18.828374       12.316541        3.694707
  F           18.469230       16.097818        5.212812
  F           19.841711       15.899044        6.882724
  F           20.416008       15.190329        4.914966
  F           18.873527       12.889369        1.118532
  F           17.022345       13.466105        2.090625
  F           18.817333       14.646409        2.389973
  O           19.782017       12.886033        6.724768
  O           17.578274       13.971533        7.077307
  O           18.180434       11.065149        3.399641
  O           20.266991       12.365370        3.716006
  N           18.068284       13.093532        4.843743
  C           19.391431       15.294915        5.767032
  C           18.351026       13.397772        2.249771
  S          -10.203450        6.467719       10.230426
  S          -11.846257        4.387810        9.231644
  F          -10.893220        8.276568        8.394404
  F           -8.764724        8.175877        8.808152
  F           -9.711051        6.638608        7.605889
  F          -13.529123        3.921259        7.252468
  F          -14.201013        5.486314        8.595461
  F          -12.621707        5.889956        7.164526
  O           -9.065813        5.593726       10.340666
  O          -10.390704        7.502707       11.212179
  O          -12.584156        3.476313       10.066837
  O          -10.773301        3.873338        8.421371
  N          -11.587355        5.758975        9.976367
  C           -9.880960        7.437079        8.664326
  C          -13.121257        4.965752        7.996687
  S           21.611041        7.090354       -2.847727
  S           19.057197        6.218719       -1.987183
  F           22.999856        5.758003       -0.999830
  F           23.644587        7.807220       -1.311044
  F           21.828398        7.397448       -0.198519
  F           17.964775        4.723407       -0.106358
  F           19.264097        3.608722       -1.438163
  F           20.119009        4.901815        0.078987
  O           21.180194        8.460964       -2.925400
  O           22.561429        6.598173       -3.809301
  O           17.985388        5.867034       -2.881841
  O           18.903609        7.371957       -1.139297
  N           20.464893        6.022344       -2.681134
  C           22.565617        7.004991       -1.242166
  C           19.115978        4.778260       -0.801272
  S           11.652769       -9.024564       -0.832188
  S            8.841263       -9.337119       -0.690266
  F           12.055877       -8.909655        1.802768
  F           13.149250       -7.425845        0.656180
  F           11.022059       -7.180303        1.001049
  F            6.914290       -9.460896        1.109263
  F            8.345247      -11.082371        1.275537
  F            8.872506       -9.095957        1.968983
  O           11.545408       -7.998479       -1.835111
  O           12.757406       -9.944906       -0.885605
  O            8.086025      -10.209636       -1.551196
  O            8.636681       -7.915650       -0.790415
  N           10.334526       -9.837133       -0.542321
  C           11.976928       -8.081186        0.749357
  C            8.219745       -9.774050        1.014893
  S           -7.599863       -6.939053       11.310304
  S           -8.289478       -9.188094        9.732760
  F           -7.039704       -5.321612        9.263649
  F           -5.599997       -5.256250       10.886853
  F           -5.614997       -6.936792        9.515825
  F           -8.421885       -9.908440        7.196933
  F           -9.777838       -8.291623        7.698691
  F           -7.655730       -7.898773        7.481815
  O           -6.759652       -7.728702       12.170963
  O           -8.349250       -5.846531       11.871480
  O           -9.379266      -10.078405       10.037030
  O           -6.942881       -9.693793        9.791093
  N           -8.541857       -7.750858       10.343002
  C           -6.396230       -6.072732       10.171408
  C           -8.554304       -8.786929        7.928960
  S           10.993260       15.150101       15.290467
  S            9.158183       12.996625       15.158424
  F           13.095282       13.784190       14.376966
  F           13.512953       15.041226       16.096627
  F           12.446278       13.170201       16.352820
  F            9.094374       10.438271       14.512201
  F            9.602841       11.729122       12.844978
  F           11.076668       11.310050       14.380205
  O           10.576814       15.498121       16.623016
  O           11.371019       16.196274       14.377821
  O            7.789768       13.132942       14.732129
  O            9.426536       12.630006       16.524453
  N           10.065379       14.129362       14.529425
  C           12.597466       14.223452       15.543797
  C            9.775480       11.544540       14.160849
  S           11.017488       -8.916702       13.440014
  S            9.637246      -11.168891       14.462255
  F            8.863314       -7.692797       12.449921
  F           10.583622       -7.704818       11.126208
  F            9.403100       -9.505247       11.388863
  F            7.190476      -12.151840       14.580479
  F            7.403237      -10.259827       15.619460
  F            7.321717      -10.303298       13.452394
  O           12.023885       -9.740954       12.825191
  O           11.395133       -7.642899       13.992203
  O            9.943671      -11.794394       15.722302
  O            9.860191      -11.908666       13.247559
  N           10.067796       -9.646931       14.463199
  C            9.896024       -8.436717       12.022883
  C            7.785276      -10.945527       14.533527
  S           18.405524        9.386857       12.036315
  S           16.841982        7.134944       12.748092
  F           20.444683        8.001612       11.015719
  F           21.026628        9.648277       12.304771
  F           20.252190        7.815244       13.167556
  F           16.957446        4.498725       12.685954
  F           16.991541        5.403020       10.714774
  F           18.764771        5.456584       11.962771
  O           18.207549       10.002199       13.321770
  O           18.481566       10.218501       10.864697
  O           15.411640        7.070529       12.596955
  O           17.401605        7.113758       14.074302
  N           17.477343        8.154084       11.718816
  C           20.125747        8.661396       12.140545
  C           17.427200        5.540021       11.974465
  S          -13.645237       17.087397       14.439279
  S          -16.399423       16.679758       13.919001
  F          -13.956635       17.940191       16.948156
  F          -12.562148       19.108175       15.763655
  F          -14.697819       19.327702       15.455624
  F          -18.738812       16.953312       15.110335
  F          -17.442993       15.516086       16.089979
  F          -17.072588       17.641101       16.317628
  O          -13.456864       17.792635       13.199364
  O          -12.588571       16.246389       14.935529
  O          -16.918324       15.566781       13.167406
  O          -16.536010       18.006835       13.378013
  N          -15.011996       16.317782       14.586651
  C          -13.732128       18.443298       15.723922
  C          -17.463287       16.694671       15.452863
  S          -12.641487        4.155919        2.953042
  S          -10.551605        3.548400        4.765696
  F          -12.532375        6.802211        3.275412
  F          -14.539192        5.974879        3.270374
  F          -13.272345        5.740120        5.015124
  F           -8.890749        4.772270        6.412070
  F           -8.599707        5.326382        4.335361
  F          -10.288736        6.118253        5.442084
  O          -13.502196        3.151920        3.519965
  O          -12.692758        4.405648        1.537024
  O           -9.564469        2.525131        4.539083
  O          -11.483958        3.385542        5.850432
  N          -11.131605        4.091962        3.398261
  C          -13.274616        5.758753        3.678576
  C           -9.528038        5.030766        5.255253
  S          -10.801796       17.185857        4.212774
  S          -10.991263       14.680541        5.520403
  F           -8.137564       17.230746        4.076611
  F           -9.041708       19.102505        4.701802
  F           -8.912922       17.441617        6.090697
  F           -9.427085       12.787059        6.487318
  F           -9.230036       13.047091        4.343018
  F           -8.333838       14.485890        5.696309
  O          -11.729267       17.797534        5.127040
  O          -10.804574       17.593767        2.833026
  O          -11.993357       13.691576        5.219361
  O          -11.004420       15.310545        6.814768
  N          -10.720078       15.613654        4.272407
  C           -9.127047       17.763378        4.811113
  C           -9.402275       13.701025        5.499778
  S           -5.462385       12.365064       17.039419
  S           -3.024618       12.703207       18.441328
  F           -4.669833       13.581021       14.800669
  F           -6.654903       14.140042       15.478024
  F           -4.902466       14.922878       16.488120
  F           -0.640212       13.785162       18.108419
  F           -1.049246       12.172069       16.717346
  F           -1.975585       14.112198       16.430106
  O           -6.237417       12.824050       18.161422
  O           -5.993496       11.325732       16.198102
  O           -2.444384       11.700517       19.296203
  O           -3.485244       13.934211       19.028617
  N           -3.949152       12.045387       17.339399
  C           -5.409201       13.839683       15.890943
  C           -1.597682       13.216543       17.352704
  S           12.133246       10.488777        3.680367
  S           14.009180       11.013851        5.736472
  F           12.849287       12.530310        2.118920
  F           10.705561       12.271646        2.341079
  F           11.867802       13.137184        3.954834
  F           15.893371       12.757458        6.350076
  F           16.323557       11.632707        4.546098
  F           14.853894       13.227412        4.504665
  O           11.058352       10.329181        4.623429
  O           12.153987        9.672704        2.495590
  O           14.734526        9.989748        6.442132
  O           13.054702       11.812451        6.460120
  N           13.583192       10.519055        4.295831
  C           11.881976       12.209346        2.992739
  C           15.343736       12.222701        5.244128
  S           11.208041       21.207498       -1.295600
  S           13.988384       20.711110       -1.509360
  F           10.592446       18.872764       -0.160370
  F            9.248655       19.485869       -1.751013
  F           11.212576       18.700578       -2.231114
  F           15.743406       18.809910       -0.987650
  F           14.760602       19.577107        0.787165
  F           13.697744       18.237246       -0.546932
  O           11.127422       21.666837       -2.656755
  O           10.379216       21.826980       -0.295903
  O           15.002083       21.705122       -1.270143
  O           13.833840       20.183346       -2.839788
  N           12.663309       21.047159       -0.713757
  C           10.538173       19.463133       -1.364855
  C           14.570427       19.253281       -0.499053
  S           10.147062       -8.316272        4.802100
  S           10.683347      -11.053586        4.310253
  F            8.165098       -8.726407        6.540577
  F            7.766387       -7.187130        5.062917
  F            7.668920       -9.280426        4.503653
  F            9.797774      -13.439500        5.010267
  F           10.603774      -12.304481        6.673565
  F            8.651208      -11.810002        5.868773
  O           10.146171       -8.005142        3.397312
  O           10.664494       -7.350135        5.734272
  O           12.007507      -11.596791        4.154044
  O            9.789231      -11.068671        3.182075
  N           10.708354       -9.737205        5.186753
  C            8.333535       -8.393561        5.250961
  C            9.889275      -12.207537        5.544192
  S           22.706467        4.515560        3.157610
  S           23.859969        7.070079        3.565372
  F           20.398383        5.050620        4.384456
  F           21.267764        3.128069        4.894159
  F           22.098409        4.950375        5.726862
  F           23.291233        9.380456        4.707976
  F           21.950003        8.878855        3.078877
  F           21.752632        7.877640        4.992858
  O           23.898854        3.843276        3.600871
  O           21.923447        3.931640        2.101192
  O           24.654904        7.758260        2.581830
  O           24.487940        6.637295        4.786358
  N           22.855894        6.058954        2.878932
  C           21.555992        4.415981        4.628263
  C           22.634788        8.368407        4.111302
  S           -1.118683       -2.404519       15.307419
  S            1.235280       -3.844258       15.946490
  F           -1.916723       -4.027588       13.345923
  F           -2.069794       -1.911722       12.886028
  F           -0.133978       -2.889693       12.867170
  F            2.572167       -5.977586       15.153712
  F            0.596593       -6.441883       15.919221
  F            0.816611       -5.564780       13.947675
  O           -0.415310       -1.149425       15.291924
  O           -2.473724       -2.443402       15.789555
  O            1.708460       -4.053606       17.290047
  O            2.021899       -3.036511       15.051374
  N           -0.330511       -3.621791       15.923123
  C           -1.310811       -2.839440       13.499034
  C            1.295612       -5.553899       15.199327
