         874
  Built with Packmol                                             
  Ti          -2.868335        2.115442       11.265214
  Ti           7.802788        5.383210        1.844391
  Ti           1.352572       -1.673500        9.417113
  Ti           2.511792        7.542652        3.648414
  Ti           1.444672        9.187418        1.751989
  Ti           3.259458       -1.864257       11.359530
  Ti          -1.869782        0.416024        9.366140
  Ti           5.815984        5.614284        3.703281
  H            3.746896        1.652626        8.583439
  H           -7.024875       10.142785        6.478257
  H            4.431630       11.010612        4.650438
  H           -2.503694        6.028051       11.048460
  H            8.748737        1.507342        2.155250
  H           -6.801542        1.221893       10.903644
  H           11.114246        7.503838        2.029089
  H            4.372721       -5.862020       10.962653
  H           -2.589143        8.456181        2.095703
  H            4.656966        3.204147        6.826953
  H           -0.045224        3.670268        8.406030
  H           12.440918       -1.828167        6.378540
  H           -2.327232        0.331938       12.984230
  H            5.927385        5.077403        0.154584
  H            3.761426       -2.506617        5.844726
  H            0.745560        9.314262        7.279431
  H           -6.059913        3.661213        9.037490
  H           10.641247        3.393379        4.132134
  H           -3.728587        2.298708        5.688870
  H           -1.703972       10.903386        4.124923
  H            1.733452       12.300945        2.609537
  H            8.667985       -0.517063        3.355831
  H            4.606680        7.297451        2.297825
  H            0.215487        0.134620       10.719246
  H            7.415332        0.218685        9.728366
  H            5.955496       -0.302534       10.483299
  H            7.828656        4.670987        8.632537
  H            7.237651        5.011538        7.017709
  H            7.098177       -4.749977        9.534320
  H            5.784030       -3.695029       10.000157
  H            1.411485        1.911548        9.356085
  H            0.863759        5.227040        6.648574
  H            5.741023        9.069333        3.845371
  H            7.999135        8.609993        4.744623
  C            8.422325        4.659191        4.703706
  C           -3.853328        2.346718        8.423899
  C            3.961595       -2.592630        8.476524
  C            0.513540        9.443357        4.621320
  C            9.344336        4.085192        5.693105
  C           -4.811926        2.940026        7.452907
  C            4.917315       -3.172748        7.523270
  C           -0.392661       10.057561        5.626884
  C            9.101042        4.149763        7.100999
  C           -4.599256        2.829342        6.063538
  C            6.075072       -3.893771        7.969088
  C           -1.516055       10.792469        5.189090
  C           -0.124811        9.894234        6.980095
  C            4.657405       -3.047644        6.140915
  C           10.498947        3.426687        5.210054
  C           -5.932679        3.593124        7.958691
  C            2.813684        4.307411        6.639567
  C            1.802100        2.580168        8.590925
  C            6.161473        9.726276        4.605129
  C           -1.730084       -2.944720        6.528234
  C            8.715175        1.588330        0.011262
  C            1.839040       13.147429        0.088587
  C            6.684170        0.195343       12.990012
  C           -6.719779        1.271810       13.046845
  C            3.350517        5.224492        5.605606
  C           -1.145018       -2.033515        7.540248
  C            4.215985       -4.201651       13.101266
  C            1.796086       11.711651        0.049701
  C            5.408882       -0.466276       13.043122
  C           -5.332575        1.734605       13.064020
  C            1.482906        4.442604        7.078738
  C            3.125222        2.436827        8.154613
  C            5.424120       10.827594        5.058747
  C           -8.018869       10.319594        6.073436
  C            8.784652        0.919515        1.239780
  C           -2.508142        6.615249       11.963065
  C           -4.360552        7.730507        1.110303
  C           -7.351366        1.022025       11.821932
  C            7.441371        9.469644        5.112723
  C           12.991193       -2.694552        6.017481
  C            3.632637        3.298056        7.181208
  C            0.980621        3.578705        8.052889
  C            7.361766        0.489528       11.753548
  C           -3.089201        8.254946        1.152479
  C            4.438003       -6.388560       11.910676
  C            8.855538       -0.479663        1.318796
  N            8.938305       -1.077634        2.555968
  N            6.782516        0.288157       10.517426
  N            8.001283        4.757340        7.639127
  N            6.418775       -4.042078        9.284423
  O            7.234665        5.022637        5.076604
  O           -3.053924        1.423703        8.020113
  O            4.345224       -2.456407        9.695708
  O            0.426054        9.871897        3.422680
  O            1.318961        8.513079        5.002228
  O            2.776776       -2.264724        8.078087
  O            8.824398        4.755701        3.489805
  O           -3.903766        2.779752        9.624467
  O            6.156697        4.409127        2.505218
  O           -1.367975        1.993658       10.109628
  O            7.017801        6.727170        2.953185
  O           -3.056279        0.208461       10.609657
  O            1.659621       -2.837312       10.674383
  O            2.969458        9.121937        2.909279
  O            2.531624       -0.543378       10.208048
  O            1.322575        7.306972        2.398893
  O            4.575167        5.087631        5.244337
  O           -1.836144       -1.022528        7.923516
  O            4.066391       -3.610049       11.962095
  O            1.743514       11.006429        1.144350
  O            4.771026       -0.795498       11.956418
  O           -0.427504        9.094025        1.094098
  O            0.028867       -2.288059        7.991258
  O            2.574295        6.119616        5.117796
  O            9.199419        6.452785        1.083295
  O           -4.748114        1.988975       11.944029
  O            8.500254        3.672420        1.113292
  O           -2.542975        3.849240       12.015231
  O            4.269171        6.735574        3.019668
  O           -0.147093       -0.436062       10.017030
  O            6.748057        5.600086        0.071530
  O           -2.238358        1.302347       13.044892
  S           26.288220       17.683078       -3.337851
  S           28.106174       15.800294       -2.255001
  F           25.157018       16.010306       -5.081670
  F           25.630344       17.969912       -5.886483
  F           27.209248       16.518323       -5.563813
  F           28.820997       13.278450       -2.565135
  F           26.761018       13.511291       -1.927379
  F           27.312621       13.926082       -3.983684
  O           27.317718       18.677177       -3.486629
  O           24.956364       18.099462       -2.987297
  O           28.437060       15.716501       -0.856301
  O           29.130322       16.190304       -3.188527
  N           26.670111       16.429730       -2.463019
  C           26.066279       16.997816       -5.063390
  C           27.715685       14.032439       -2.709941
  S          -14.872105        2.585427       14.039988
  S          -13.501560        0.710911       12.418200
  F          -15.328643        4.356535       12.097454
  F          -14.636618        5.221598       13.964160
  F          -13.240511        4.195432       12.659540
  F          -12.692326        0.413914        9.923450
  F          -14.849507        0.534939       10.114206
  F          -13.642769        2.327922       10.297804
  O          -13.865268        2.520077       15.065777
  O          -16.249345        2.758118       14.418790
  O          -13.660118       -0.715628       12.530963
  O          -12.227814        1.295950       12.746467
  N          -14.791445        1.468876       12.931447
  C          -14.491194        4.174313       13.130770
  C          -13.693678        1.020336       10.587324
  S            8.657109       -5.723663       -1.147283
  S           10.548471       -4.254930        0.365323
  F            9.293231       -8.114103       -0.147363
  F            9.030848       -8.076961       -2.301800
  F           10.832365       -7.259060       -1.413127
  F           12.454117       -4.655147        2.147228
  F           10.486183       -5.228986        2.856036
  F           11.538486       -6.490267        1.439512
  O            9.032322       -5.059937       -2.367494
  O            7.280301       -6.086931       -0.941036
  O           10.284155       -2.964167        0.945785
  O           11.528519       -4.356607       -0.684261
  N            9.211557       -5.079406        0.179207
  C            9.511242       -7.383700       -1.252465
  C           11.287903       -5.219133        1.782473
  S            5.526929       -7.933562        1.161879
  S            6.018126      -10.567861        0.244494
  F            7.122386       -8.077213        3.295554
  F            5.189513       -7.164263        3.672840
  F            5.348608       -9.315431        3.446281
  F            7.388164      -12.718263        0.926853
  F            8.645696      -11.005840        0.490182
  F            7.554765      -11.100240        2.362525
  O            4.104010       -8.085519        1.012065
  O            6.128183       -6.654687        0.891556
  O            6.167246      -10.919849       -1.143576
  O            4.884827      -11.076781        0.971880
  N            6.407963       -9.055200        0.492726
  C            5.815321       -8.146198        2.997074
  C            7.489922      -11.382345        1.053936
  S            0.287899       -8.295516        1.948515
  S            0.668458       -6.887332        4.376394
  F            0.151913      -10.721984        3.049628
  F            1.383518      -10.607270        1.265865
  F            2.124549       -9.826987        3.148999
  F            0.921128       -7.356545        6.961514
  F           -1.009005       -7.949374        6.169298
  F            0.744675       -9.162508        5.772283
  O            1.363598       -7.589839        1.304214
  O           -0.871200       -8.661767        1.178805
  O            0.058136       -5.617295        4.672001
  O            2.099918       -6.954470        4.239019
  N           -0.190725       -7.700628        3.326588
  C            1.032235       -9.953306        2.388996
  C            0.302548       -7.903663        5.898873
  S           19.954677        6.629176       -4.652807
  S           17.781662        8.417261       -4.973989
  F           21.833456        8.509332       -4.420657
  F           22.367083        6.854808       -5.720508
  F           20.976941        8.371069       -6.407981
  F           17.307897       11.009825       -5.118927
  F           18.127268       10.395692       -3.206877
  F           19.416337       10.528613       -4.946228
  O           19.531197        5.824135       -5.767620
  O           20.560315        5.989260       -3.515348
  O           16.484363        8.218709       -4.381989
  O           17.904467        8.374231       -6.407699
  N           18.906904        7.686374       -4.136511
  C           21.355272        7.658365       -5.342321
  C           18.190645       10.183299       -4.528339
  S           22.310225       17.828003        8.995121
  S           22.235351       15.044900        9.515828
  F           24.943952       17.967432        8.591722
  F           24.135659       19.551654        9.836201
  F           24.395932       17.557891       10.649425
  F           23.873451       12.983896        9.704881
  F           23.837977       13.869450        7.725235
  F           24.893604       14.863253        9.338528
  O           21.495513       18.122764       10.143857
  O           22.161448       18.624885        7.806447
  O           21.194784       14.167912        9.045739
  O           22.371174       15.264302       10.932116
  N           22.379460       16.310359        8.577966
  C           24.047024       18.238445        9.553148
  C           23.800923       14.148966        9.035153
  S            5.646259       17.325623       -0.701787
  S            8.378811       17.562388       -1.408542
  F            4.937944       15.850606       -2.809227
  F            3.566587       17.464903       -2.334626
  F            5.455662       17.896161       -3.309087
  F           10.034395       16.837270       -3.332105
  F            9.178824       15.156302       -2.261213
  F            7.978440       16.249791       -3.699292
  O            5.534984       18.734536       -0.431945
  O            4.901425       16.395863        0.104978
  O            9.461263       17.501398       -0.461205
  O            8.134345       18.798524       -2.104718
  N            7.112805       16.777323       -0.876904
  C            4.867823       17.123992       -2.389896
  C            8.913315       16.376367       -2.747356
  S           11.016267       -3.998812       14.067201
  S           10.238994       -5.244708       11.645221
  F           11.575746       -1.621438       12.993066
  F           13.048848       -2.338442       14.417038
  F           12.964241       -3.186278       12.422501
  F           10.037813       -4.698808        9.070659
  F            8.733171       -3.484683       10.306893
  F           10.859701       -3.063395       10.235491
  O           11.853463       -5.109261       14.436308
  O           10.305914       -3.284041       15.094140
  O            9.133521       -6.160127       11.532045
  O           11.573376       -5.736635       11.421861
  N           10.035024       -4.254219       12.861389
  C           12.218216       -2.717211       13.427556
  C            9.948258       -4.045939       10.244084
  S           -7.317425       -5.142307        4.944024
  S           -7.914791       -2.394596        4.603970
  F           -6.841908       -5.647215        2.367661
  F           -8.063842       -7.135679        3.369245
  F           -8.923493       -5.225883        2.805469
  F           -8.116615       -0.597701        2.681137
  F           -6.115398       -1.408209        2.887713
  F           -7.673236       -2.592342        1.951935
  O           -8.478635       -5.351517        5.767466
  O           -6.111969       -5.872882        5.232534
  O           -7.495810       -1.362991        5.516723
  O           -9.320624       -2.674302        4.470349
  N           -6.939697       -3.638460        4.665061
  C           -7.818723       -5.815390        3.273099
  C           -7.417820       -1.719239        2.936135
  S           10.979185        1.152209       11.221815
  S           12.349453        3.578975       11.727356
  F           13.073578       -0.445988       11.643688
  F           11.898635       -0.941495        9.887043
  F           13.242721        0.760329        9.849704
  F           14.767037        4.438595       12.346380
  F           13.890625        3.175473       13.876377
  F           14.665906        2.291254       12.053794
  O           10.390816        1.669420       10.014940
  O           10.218196        0.246858       12.041168
  O           11.777192        4.690273       12.441782
  O           12.665462        3.739292       10.332044
  N           11.669656        2.216611       12.155814
  C           12.386087        0.079208       10.617145
  C           14.007702        3.346780       12.552618
  S           14.792479        2.470113       -1.091473
  S           17.516397        1.715272       -0.910121
  F           13.801134        0.162976       -0.189783
  F           12.780959        0.966018       -1.929377
  F           14.717074        0.013589       -2.149612
  F           18.991382       -0.366334       -0.233230
  F           17.817971        0.421682        1.411946
  F           16.859067       -0.754902       -0.137527
  O           14.965604        2.988640       -2.422409
  O           13.877566        3.126985       -0.196176
  O           18.565782        2.596030       -0.467486
  O           17.523420        1.258080       -2.275178
  N           16.119499        2.146479       -0.306403
  C           13.987629        0.803054       -1.355024
  C           17.801388        0.169010        0.096168
  S           -8.829561       -5.614622       -3.359756
  S          -10.813830       -3.598171       -3.497600
  F           -6.773518       -3.959230       -2.971097
  F           -6.405556       -5.531474       -4.421777
  F           -7.637450       -3.828084       -4.955690
  F          -11.027513       -0.969173       -3.399837
  F          -10.275217       -1.835172       -1.559032
  F           -8.977498       -1.670683       -3.289229
  O           -9.329762       -6.267486       -4.540350
  O           -8.291690       -6.413549       -2.290872
  O          -12.125056       -3.721035       -2.915826
  O          -10.694406       -3.520716       -4.930149
  N           -9.767650       -4.511017       -2.740000
  C           -7.332918       -4.669996       -3.963140
  C          -10.231871       -1.929990       -2.894891
  S            3.579870      -12.137805        5.803321
  S            4.490975      -10.493505        7.921945
  F            3.626859      -14.422332        7.180790
  F            4.458902      -14.556457        5.180406
  F            5.594843      -13.610794        6.767707
  F            5.270506      -10.690961       10.435944
  F            3.205059      -11.279299       10.132208
  F            4.810436      -12.605347        9.524696
  O            4.511055      -11.554740        4.874256
  O            2.277615      -12.533107        5.336447
  O            3.983165       -9.172962        8.188713
  O            5.860004      -10.638952        7.501157
  N            3.413701      -11.376483        7.172566
  C            4.364962      -13.769744        6.268868
  C            4.431338      -11.321721        9.593849
  S            8.245220       13.279447        9.579867
  S           11.046104       13.680991        9.452547
  F            8.358360       10.873750       10.728132
  F            6.940699       11.027696        9.091563
  F            9.065925       10.897465        8.678503
  F           13.291953       12.429444       10.049745
  F           12.062738       12.855557       11.785235
  F           11.516708       11.244672       10.439273
  O            8.067278       13.685151        8.210935
  O            7.232844       13.610837       10.547016
  O           11.688458       14.944044        9.707397
  O           11.106934       13.126475        8.125419
  N            9.658217       13.586626       10.205276
  C            8.159360       11.412706        9.514792
  C           12.024345       12.483618       10.498542
  S            4.623560       19.294518       10.400001
  S            7.147690       18.139548        9.836787
  F            3.382125       18.318780        8.249311
  F            2.964487       20.408355        8.662922
  F            4.864828       19.833011        7.790084
  F            8.320475       16.654579        7.996599
  F            6.696709       15.635349        9.011004
  F            6.262653       17.149668        7.519982
  O            5.208902       20.580272       10.672847
  O            3.479220       18.868904       11.161212
  O            8.012212       17.571746       10.838323
  O            7.578581       19.321492        9.136931
  N            5.635291       18.091229       10.297277
  C            3.929173       19.469326        8.672692
  C            7.091294       16.817854        8.519705
  S          -12.857854       10.470210       17.224348
  S          -10.237907        9.853240       16.342518
  F          -13.143521       12.668458       15.739494
  F          -13.816899       12.871755       17.793040
  F          -11.695785       12.877701       17.340265
  F           -8.372032       10.810085       14.739456
  F          -10.188712       10.246772       13.696950
  F          -10.130819       12.074246       14.863868
  O          -12.499248       10.281106       18.604882
  O          -14.173981       10.091635       16.783221
  O           -9.774882        8.516522       16.074818
  O           -9.653114       10.584572       17.435965
  N          -11.806607        9.957206       16.168999
  C          -12.867902       12.327515       17.008375
  C           -9.715306       10.800771       14.821388
  S           21.037045       13.401558        5.694495
  S           18.836735       15.080569        6.296124
  F           22.858702       15.348728        5.600740
  F           22.996792       13.904140        3.986454
  F           21.433054       15.406984        3.967851
  F           18.291025       17.637481        6.658412
  F           19.672739       16.841174        8.128523
  F           20.358641       17.267321        6.115404
  O           20.305658       12.717212        4.661549
  O           21.976753       12.663081        6.495559
  O           17.789869       14.731609        7.220878
  O           18.511476       15.223700        4.901069
  N           20.179638       14.320820        6.644161
  C           22.135853       14.591559        4.760232
  C           19.328938       16.799007        6.834146
  S          -15.464342       18.310432        8.847012
  S          -14.342280       20.382519        7.275442
  F          -13.141076       17.208415        9.558830
  F          -14.666169       15.788027        8.951860
  F          -13.618182       16.960445        7.458099
  F          -11.982915       21.255754        6.476876
  F          -12.243926       21.343231        8.628314
  F          -11.873586       19.439091        7.657846
  O          -16.416644       17.971665        7.823004
  O          -15.852246       18.204595       10.228472
  O          -14.844753       21.731466        7.248367
  O          -14.434401       19.583275        6.081634
  N          -14.696613       19.670936        8.642861
  C          -14.140902       16.999150        8.687724
  C          -12.508291       20.613212        7.536264
  S          -14.554079       -9.403725        5.119120
  S          -12.039827       -8.376299        5.922444
  F          -15.299353       -7.258737        3.718305
  F          -16.844954       -8.081370        5.001354
  F          -15.225371       -6.921455        5.859090
  F          -10.587016       -6.185588        5.683748
  F          -10.968707       -7.169421        3.788794
  F          -12.540742       -6.028163        4.753649
  O          -14.867571       -9.837685        6.454648
  O          -14.997828      -10.194676        4.002166
  O          -10.835002       -9.161866        5.986876
  O          -12.596105       -7.856875        7.144414
  N          -13.056908       -8.979941        4.872255
  C          -15.527039       -7.819868        4.916453
  C          -11.511543       -6.857967        4.973578
  S           26.156838       20.548293       13.469709
  S           27.558165       20.915998       15.903528
  F           26.732619       17.956767       13.202952
  F           26.946069       19.121398       11.383640
  F           28.444346       19.262862       12.945472
  F           29.051799       19.549086       17.596886
  F           27.024073       18.794632       17.443291
  F           28.450630       18.399619       15.857854
  O           26.740172       21.728576       12.889290
  O           24.798777       20.203512       13.142754
  O           27.079108       21.729166       16.990787
  O           28.748903       21.323144       15.204363
  N           26.358678       20.379601       15.023047
  C           27.132907       19.142360       12.716736
  C           28.038352       19.318704       16.741881
  S           -9.471685       -1.746856        8.482949
  S          -11.919833       -3.086422        8.967237
  F           -8.010503       -3.951180        8.129970
  F           -7.078615       -2.440196        9.379103
  F           -8.682436       -3.666316       10.171917
  F          -12.871790       -5.540651        9.160602
  F          -12.086266       -5.080614        7.191901
  F          -10.727648       -5.472298        8.836726
  O           -9.652969       -0.884115        9.620071
  O           -8.835899       -1.226455        7.301822
  O          -13.193144       -2.637658        8.467075
  O          -11.690459       -3.078927       10.388429
  N          -10.736848       -2.578937        8.048138
  C           -8.250095       -3.031357        9.078015
  C          -11.890400       -4.894626        8.504316
  S           14.246789        9.352929        5.730050
  S           12.248383       11.343950        5.984231
  F           12.580025        7.356660        5.133812
  F           14.112435        6.850809        6.585589
  F           12.409455        8.055523        7.179462
  F            9.624931       11.597593        5.842772
  F           10.527746       10.988993        3.966874
  F           10.307508        9.555135        5.579405
  O           14.875798        9.745907        6.962993
  O           15.065935        8.895172        4.639380
  O           12.399097       12.697066        5.516007
  O           12.134712       11.107750        7.399768
  N           13.168501       10.352568        5.164303
  C           13.272141        7.823463        6.185162
  C           10.589443       10.834442        5.296421
  S            5.143380       -3.194749       -0.703251
  S            2.363118       -3.584407       -0.328136
  F            4.918978       -1.007314       -2.214365
  F            6.356060       -2.463166       -2.940391
  F            4.230910       -2.817428       -3.190193
  F            0.061413       -2.508896       -1.043875
  F            1.292337       -1.179797        0.148931
  F            1.781699       -1.532102       -1.934603
  O            5.350170       -4.578745       -1.037955
  O            6.160363       -2.491378        0.032355
  O            1.772364       -4.008747        0.914367
  O            2.290532       -4.462175       -1.466869
  N            3.739191       -2.844961       -0.080387
  C            5.151066       -2.321887       -2.356847
  C            1.326223       -2.110309       -0.814598
  S            0.481108        3.546903        1.836278
  S           -0.838835        5.276192        3.650033
  F           -0.259440        1.275625        3.024375
  F            1.828428        1.347596        2.434927
  F            1.154394        2.445203        4.179949
  F           -2.300574        5.161458        5.844801
  F           -3.243918        4.211530        4.138283
  F           -1.612368        3.218938        5.166640
  O            1.696367        4.314585        1.899865
  O            0.104689        2.931047        0.591636
  O           -1.534167        6.473720        3.255939
  O            0.344235        5.395533        4.461550
  N           -0.791924        4.229651        2.465007
  C            0.815347        2.075708        2.940904
  C           -2.069900        4.408867        4.753205
  S          -14.416962      -11.971193       -3.728324
  S          -17.194383      -11.937729       -4.282592
  F          -14.089146      -14.593627       -4.094475
  F          -13.098222      -13.796385       -2.335414
  F          -15.246322      -14.096043       -2.329385
  F          -19.146993      -13.601593       -4.903655
  F          -17.587967      -13.512510       -6.408967
  F          -17.248289      -14.593159       -4.559230
  O          -14.586697      -11.179194       -2.539140
  O          -13.237189      -11.787429       -4.531113
  O          -17.851677      -10.896380       -5.028532
  O          -17.516448      -12.102747       -2.889214
  N          -15.668085      -12.047341       -4.682761
  C          -14.212572      -13.715514       -3.086531
  C          -17.817756      -13.501688       -5.088941
  S            0.032668       -5.130480       -5.219630
  S            2.017373       -3.183820       -4.677535
  F           -1.973943       -3.402463       -5.545451
  F           -2.464431       -5.139238       -4.339277
  F           -1.262669       -3.539803       -3.501578
  F            2.259746       -0.567943       -4.422020
  F            1.642711       -1.179649       -6.409367
  F            0.218353       -1.212783       -4.773880
  O            0.436017       -5.936784       -4.098284
  O           -0.428828       -5.777490       -6.419005
  O            3.368046       -3.255401       -5.170921
  O            1.789798       -3.286672       -3.259759
  N            1.024399       -3.974181       -5.621500
  C           -1.497686       -4.243326       -4.613574
  C            1.496924       -1.442448       -5.103582
  S          -18.072035       -1.300296        9.723802
  S          -18.068441        1.428547       10.482618
  F          -18.408945       -0.865318        7.113059
  F          -19.648565       -2.447624        7.932492
  F          -20.146697       -0.371145        8.312310
  F          -18.326664        3.822607        9.401577
  F          -16.590591        2.741049        8.679949
  F          -18.571268        2.204329        7.977409
  O          -18.997632       -1.648743       10.768833
  O          -17.041476       -2.235629        9.358835
  O          -17.196771        1.981606       11.486205
  O          -19.486142        1.403946       10.731571
  N          -17.433771        0.136336        9.827544
  C          -19.130975       -1.230582        8.184284
  C          -17.871993        2.606364        9.047725
  S           -8.404049        9.033565        1.401493
  S           -9.977976        9.380486        3.730613
  F           -9.047528       11.366330        0.277733
  F           -9.076919        9.671780       -1.078533
  F          -10.687056        9.948865        0.347947
  F          -11.646589       11.126648        4.795272
  F           -9.640718       11.909570        4.534546
  F          -10.951657       11.694231        2.819968
  O           -8.898454        7.697888        1.197133
  O           -7.037455        9.334598        1.066975
  O           -9.557385        8.986082        5.049862
  O          -11.095308        8.702850        3.126595
  N           -8.732721        9.676936        2.801530
  C           -9.366754       10.066358        0.175579
  C          -10.577972       11.130902        3.977212
  S           13.227026       15.238082        1.511003
  S           15.418475       17.011342        1.785777
  F           11.403403       17.120621        1.011865
  F           10.768296       15.599768        2.424475
  F           12.153426       17.148616        3.046287
  F           15.939620       19.598098        1.722901
  F           15.206685       18.827101       -0.167293
  F           13.833021       19.138526        1.482184
  O           13.575263       14.530350        2.714364
  O           12.667105       14.507993        0.404856
  O           16.739946       16.738339        1.283728
  O           15.221210       17.100392        3.209018
  N           14.322381       16.226518        0.958512
  C           11.815208       16.348751        2.030149
  C           15.070898       18.736349        1.162638
  S           19.850977       -3.901535        6.037050
  S           18.899730       -1.513723        7.226958
  F           17.462817       -4.793899        5.250242
  F           18.730572       -6.296875        6.169851
  F           17.737239       -4.813198        7.401174
  F           16.624749       -0.255927        7.684410
  F           17.061750       -0.492465        5.573120
  F           16.363671       -2.187758        6.732162
  O           20.666325       -4.214097        7.180617
  O           20.327353       -4.239915        4.722262
  O           19.575862       -0.245985        7.134455
  O           18.790084       -2.149784        8.513760
  N           19.260175       -2.441581        5.997773
  C           18.354466       -5.005649        6.231257
  C           17.139497       -1.095484        6.767152
  S           17.833146       -7.644761       -5.044490
  S           17.978246       -5.141011       -3.728214
  F           15.220224       -8.016640       -4.653288
  F           16.448377       -9.765635       -4.273186
  F           16.401274       -8.139418       -2.838836
  F           16.423115       -3.458776       -2.417297
  F           15.834922       -3.731553       -4.487100
  F           15.405506       -5.275722       -3.025644
  O           18.990764       -8.141682       -4.349347
  O           17.609496       -8.043092       -6.408827
  O           18.774387       -4.034892       -4.192466
  O           18.324640       -5.770351       -2.480656
  N           17.577313       -6.094853       -4.924531
  C           16.392834       -8.426686       -4.144254
  C           16.311454       -4.364448       -3.406475
  S           15.402033       11.660731        3.278117
  S           17.035640       11.904308        5.579073
  F           16.781644        9.667197        2.164032
  F           16.213618       11.250021        0.791503
  F           17.843815       11.557535        2.188664
  F           19.213789       10.844173        6.627229
  F           17.588841        9.423520        6.413326
  F           18.722620       10.043944        4.671393
  O           15.410719       13.081575        3.051485
  O           14.213722       10.908980        2.973342
  O           16.526354       12.153185        6.902538
  O           17.847402       12.911193        4.946870
  N           15.950829       11.188769        4.677449
  C           16.639241       10.996643        2.043357
  C           18.197663       10.465103        5.830375
  S           24.106705       -2.754430       12.892800
  S           21.304613       -2.784220       12.480742
  F           24.325537       -0.107163       13.143369
  F           25.840531       -1.023923       11.887914
  F           23.823836       -0.756039       11.136021
  F           19.278276       -1.105103       12.277343
  F           20.238308       -1.055481       14.221652
  F           21.194587       -0.116379       12.516270
  O           24.337110       -3.638319       11.781096
  O           24.944935       -2.858874       14.057517
  O           20.421355       -3.773973       13.040309
  O           21.472530       -2.731994       11.051920
  N           22.608389       -2.622422       13.361496
  C           24.537434       -1.062233       12.224017
  C           20.466173       -1.171574       12.906362
  S           -9.233119       12.648445        9.402535
  S          -10.631779       15.071211        8.959418
  F           -6.825152       13.762090        9.685696
  F           -6.858208       11.987151        8.436570
  F           -7.606032       13.871469        7.665683
  F          -10.164462       17.660775        8.752961
  F           -9.678622       16.857210       10.708136
  F           -8.364453       16.480389        9.024189
  O           -9.871984       12.008410        8.283409
  O           -8.929358       11.871990       10.575118
  O          -11.936516       15.355025        9.497917
  O          -10.481760       14.945130        7.533215
  N           -9.862812       14.019469        9.856226
  C           -7.538030       13.103884        8.757883
  C           -9.647342       16.596538        9.394187
  S            8.092033       16.002092       17.426602
  S           10.469241       17.383392       18.107257
  F            6.630595       18.180832       16.940823
  F            5.621473       16.659710       18.115422
  F            7.133374       17.914981       19.033364
  F           11.362323       19.853595       18.366776
  F           10.752118       19.373080       16.341629
  F            9.254262       19.748927       17.864744
  O            8.191063       15.146884       18.579444
  O            7.565931       15.466750       16.199114
  O           11.787014       16.953555       17.717917
  O           10.121635       17.377705       19.504251
  N            9.375757       16.853042       17.094953
  C            6.804490       17.268765       17.910442
  C           10.449870       19.189048       17.633979
  S           16.948345      -10.344172        2.919785
  S           14.595591      -10.936617        1.458293
  F           18.128947       -8.929685        0.989994
  F           19.430890      -10.343321        1.999151
  F           17.977101      -11.048022        0.552063
  F           13.547643      -10.526238       -0.929225
  F           13.878562       -8.695451        0.185753
  F           15.555064       -9.729842       -0.722039
  O           17.099709      -11.711688        3.340762
  O           17.323349       -9.287135        3.820978
  O           13.274736      -10.942481        2.031160
  O           15.152448      -12.176832        0.984757
  N           15.561788       -9.979990        2.266417
  C           18.183314      -10.158385        1.528146
  C           14.389767       -9.904413       -0.083444
  S            7.523188       -1.296385       17.353513
  S            5.276173        0.312946       16.734336
  F            6.212106       -3.620120       17.356191
  F            7.589828       -3.358436       19.013062
  F            5.686393       -2.318685       19.009091
  F            2.683576        0.075082       16.299932
  F            3.895590       -0.967036       14.833823
  F            3.644339       -1.799002       16.821137
  O            7.929463       -0.419253       18.419258
  O            8.530156       -1.950986       16.561291
  O            5.317626        1.438920       15.838046
  O            5.006442        0.545499       18.129191
  N            6.413129       -0.731013       16.389055
  C            6.695271       -2.724498       18.231793
  C            3.799504       -0.658699       16.134240
  S           13.988477        6.440705       -4.349513
  S           15.467460        5.581293       -2.091987
  F           13.476521        8.893456       -3.432668
  F           11.775349        7.894158       -4.337786
  F           12.440271        7.323678       -2.353700
  F           16.248007        6.473373        0.266358
  F           17.073029        7.603034       -1.391252
  F           15.000119        7.879956       -0.815867
  O           13.202725        5.235472       -4.364960
  O           14.343990        7.062413       -5.597388
  O           16.653156        4.768425       -2.170982
  O           14.287940        5.030661       -1.477176
  N           15.260135        6.415300       -3.419838
  C           12.860509        7.707795       -3.563066
  C           15.975385        6.971117       -0.953934
  S           -6.015856      -13.479464       18.313026
  S           -5.510698      -10.724020       18.731049
  F           -6.718280      -13.250374       15.749277
  F           -8.010573      -14.535345       16.928535
  F           -8.148057      -12.379991       17.127812
  F           -5.612665       -8.433925       17.422646
  F           -4.186122       -9.835704       16.583327
  F           -6.310696      -10.123990       16.255022
  O           -6.794196      -13.578245       19.519121
  O           -5.198896      -14.593878       17.912077
  O           -4.416819      -10.218895       19.519178
  O           -6.857107      -10.504603       19.190935
  N           -5.177598      -12.155852       18.147406
  C           -7.295809      -13.394719       16.952561
  C           -5.394874       -9.734232       17.152547
  S          -12.172824       -9.845197        0.561159
  S          -11.862176      -11.883868        2.502735
  F           -9.693662      -10.004198       -0.412067
  F          -10.405385       -7.980682       -0.079422
  F           -9.791963       -9.206047        1.601756
  F          -10.016769      -13.536275        3.414257
  F          -10.521583      -13.881772        1.333330
  F           -9.282945      -12.187639        1.881419
  O          -12.777690       -8.951738        1.513052
  O          -12.627408       -9.828429       -0.803823
  O          -12.878651      -12.853358        2.818548
  O          -11.480195      -10.926121        3.507358
  N          -12.030528      -11.343885        1.025639
  C          -10.412302       -9.231681        0.418018
  C          -10.334890      -12.928599        2.256366
  S          -18.746437       -5.349741        8.542202
  S          -17.292670       -5.279733       10.972030
  F          -18.687168       -8.001755        8.255845
  F          -18.256750       -6.887693        6.443271
  F          -16.754693       -7.052086        7.999216
  F          -16.088479       -6.923652       12.649618
  F          -18.224776       -7.267719       12.500233
  F          -16.907452       -7.921317       10.905812
  O          -17.946265       -4.301409        7.966914
  O          -20.146663       -5.421104        8.219126
  O          -17.600780       -4.396830       12.066754
  O          -16.047652       -5.107115       10.270182
  N          -18.576416       -5.565865       10.093472
  C          -18.065207       -6.913264        7.775618
  C          -17.130077       -6.946042       11.797705
  S          -18.380263       16.026526       -2.257333
  S          -18.936103       15.027005       -4.848549
  F          -16.860865       13.973968       -1.484596
  F          -18.302061       14.638745       -0.003770
  F          -18.958284       13.471847       -1.710195
  F          -18.428968       12.913727       -6.346454
  F          -16.647962       14.029936       -5.811139
  F          -17.615499       12.762266       -4.340902
  O          -19.763759       16.342759       -2.020334
  O          -17.361475       16.887117       -1.717373
  O          -18.987002       15.846450       -6.031254
  O          -20.144996       14.393905       -4.390052
  N          -18.005088       15.675798       -3.746725
  C          -18.112532       14.430706       -1.320315
  C          -17.835832       13.607429       -5.357439
  S           22.685550      -10.796137       15.192540
  S           19.976008      -10.136554       14.696826
  F           23.105476       -8.901065       17.023128
  F           24.690392       -9.104819       15.553997
  F           22.829250       -8.130095       15.015270
  F           18.156875       -8.380488       15.454347
  F           18.839832       -9.655702       17.070474
  F           20.103119       -8.045314       16.352514
  O           22.986578      -10.860250       13.787013
  O           23.342103      -11.706376       16.092821
  O           18.938354      -11.111675       14.484025
  O           20.343583       -9.265715       13.611015
  N           21.154940      -10.740027       15.561510
  C           23.355279       -9.133435       15.724718
  C           19.235685       -8.994409       15.974398
  S           25.934101        7.540118       -2.229141
  S           26.884918        6.950174       -4.831124
  F           26.400825        5.121235       -1.204511
  F           24.472490        5.968087       -0.678976
  F           24.797553        5.157070       -2.664108
  F           27.880321        4.927452       -6.203938
  F           29.134170        5.531497       -4.540370
  F           27.320884        4.398516       -4.175597
  O           24.738274        8.153291       -2.743193
  O           26.543991        8.078335       -1.042356
  O           27.656781        7.865624       -5.630531
  O           25.565496        6.583261       -5.274922
  N           27.063729        7.251746       -3.288782
  C           25.372204        5.845636       -1.672965
  C           27.863461        5.363585       -4.930875
  S           14.875941        9.611703       15.591788
  S           16.335144        7.295137       16.317492
  F           14.129323        8.731186       13.186390
  F           14.835797       10.783437       13.217756
  F           16.251918        9.145560       13.344735
  F           17.025200        4.951340       15.318850
  F           14.881574        5.182777       15.555007
  F           15.907171        6.184291       13.927178
  O           15.941687       10.483452       16.009489
  O           13.512426       10.031163       15.778827
  O           16.330096        6.724461       17.639299
  O           17.559181        7.856257       15.808242
  N           15.006276        8.108160       16.043923
  C           15.039241        9.555119       13.729945
  C           16.007059        5.825235       15.214537
  S           -8.230772       18.868412        4.054233
  S           -8.933677       17.034357        2.013506
  F          -10.579762       20.132121        4.117299
  F           -8.848569       21.440989        4.158032
  F           -9.445278       20.487226        2.303728
  F          -10.971181       16.451816        0.439953
  F          -11.412690       16.181735        2.546275
  F          -11.326452       18.178776        1.704193
  O           -6.982213       19.189002        3.415049
  O           -8.294925       18.834752        5.491194
  O           -8.540953       15.649215        2.008850
  O           -8.413805       17.906790        0.993187
  N           -8.984188       17.606262        3.487314
  C           -9.343506       20.308362        3.624472
  C          -10.766848       16.961495        1.668635
  S           -6.728106       -6.704496       11.319318
  S           -5.094307       -4.598564       12.277520
  F           -8.032597       -7.112684       13.610688
  F           -7.376338       -8.923662       12.609936
  F           -5.944628       -7.694014       13.678739
  F           -4.632764       -3.257176       14.503392
  F           -6.654508       -3.008235       13.758379
  F           -6.082403       -4.853098       14.745236
  O           -5.607431       -7.376366       10.716897
  O           -8.009710       -6.755330       10.667389
  O           -4.761352       -3.427468       11.509050
  O           -4.044835       -5.518305       12.631274
  N           -6.463478       -5.225767       11.794068
  C           -7.030801       -7.655359       12.900634
  C           -5.660044       -3.893240       13.910683
  S           15.530854       -7.506022       13.356172
  S           15.615971       -7.948893       10.559920
  F           13.183551       -8.708565       13.759595
  F           13.415663       -6.812019       14.789672
  F           13.033665       -6.848578       12.654981
  F           14.154605       -9.024676        8.643165
  F           14.793723      -10.459471       10.138944
  F           13.191462       -9.067723       10.586721
  O           15.889270       -6.120736       13.205327
  O           16.016229       -8.236009       14.497063
  O           16.811352       -8.301132        9.838906
  O           14.996758       -6.675985       10.297740
  N           15.709861       -8.401682       12.072502
  C           13.683846       -7.468061       13.645041
  C           14.368568       -9.201447        9.960038
  S            8.012566       20.086935       14.724812
  S           10.495492       20.438180       13.407956
  F            8.340016       17.492462       15.254130
  F            6.374410       18.019119       14.498585
  F            8.068188       17.926530       13.147027
  F           12.611876       19.035432       12.686800
  F           12.333242       19.119391       14.836167
  F           11.066206       17.838837       13.628063
  O            7.297488       20.773771       13.682145
  O            7.576908       20.233489       16.088200
  O           11.326428       21.604206       13.558946
  O            9.899648       20.171737       12.124821
  N            9.581568       20.222379       14.680713
  C            7.690339       18.277588       14.380194
  C           11.688178       19.025406       13.665506
