         874
  Built with Packmol                                             
  Ti          -2.868335        2.115442       11.265214
  Ti           7.802788        5.383210        1.844391
  Ti           1.352572       -1.673500        9.417113
  Ti           2.511792        7.542652        3.648414
  Ti           1.444672        9.187418        1.751989
  Ti           3.259458       -1.864257       11.359530
  Ti          -1.869782        0.416024        9.366140
  Ti           5.815984        5.614284        3.703281
  H            3.746896        1.652626        8.583439
  H           -7.024875       10.142785        6.478257
  H            4.431630       11.010612        4.650438
  H           -2.503694        6.028051       11.048460
  H            8.748737        1.507342        2.155250
  H           -6.801542        1.221893       10.903644
  H           11.114246        7.503838        2.029089
  H            4.372721       -5.862020       10.962653
  H           -2.589143        8.456181        2.095703
  H            4.656966        3.204147        6.826953
  H           -0.045224        3.670268        8.406030
  H           12.440918       -1.828167        6.378540
  H           -2.327232        0.331938       12.984230
  H            5.927385        5.077403        0.154584
  H            3.761426       -2.506617        5.844726
  H            0.745560        9.314262        7.279431
  H           -6.059913        3.661213        9.037490
  H           10.641247        3.393379        4.132134
  H           -3.728587        2.298708        5.688870
  H           -1.703972       10.903386        4.124923
  H            1.733452       12.300945        2.609537
  H            8.667985       -0.517063        3.355831
  H            4.606680        7.297451        2.297825
  H            0.215487        0.134620       10.719246
  H            7.415332        0.218685        9.728366
  H            5.955496       -0.302534       10.483299
  H            7.828656        4.670987        8.632537
  H            7.237651        5.011538        7.017709
  H            7.098177       -4.749977        9.534320
  H            5.784030       -3.695029       10.000157
  H            1.411485        1.911548        9.356085
  H            0.863759        5.227040        6.648574
  H            5.741023        9.069333        3.845371
  H            7.999135        8.609993        4.744623
  C            8.422325        4.659191        4.703706
  C           -3.853328        2.346718        8.423899
  C            3.961595       -2.592630        8.476524
  C            0.513540        9.443357        4.621320
  C            9.344336        4.085192        5.693105
  C           -4.811926        2.940026        7.452907
  C            4.917315       -3.172748        7.523270
  C           -0.392661       10.057561        5.626884
  C            9.101042        4.149763        7.100999
  C           -4.599256        2.829342        6.063538
  C            6.075072       -3.893771        7.969088
  C           -1.516055       10.792469        5.189090
  C           -0.124811        9.894234        6.980095
  C            4.657405       -3.047644        6.140915
  C           10.498947        3.426687        5.210054
  C           -5.932679        3.593124        7.958691
  C            2.813684        4.307411        6.639567
  C            1.802100        2.580168        8.590925
  C            6.161473        9.726276        4.605129
  C           -1.730084       -2.944720        6.528234
  C            8.715175        1.588330        0.011262
  C            1.839040       13.147429        0.088587
  C            6.684170        0.195343       12.990012
  C           -6.719779        1.271810       13.046845
  C            3.350517        5.224492        5.605606
  C           -1.145018       -2.033515        7.540248
  C            4.215985       -4.201651       13.101266
  C            1.796086       11.711651        0.049701
  C            5.408882       -0.466276       13.043122
  C           -5.332575        1.734605       13.064020
  C            1.482906        4.442604        7.078738
  C            3.125222        2.436827        8.154613
  C            5.424120       10.827594        5.058747
  C           -8.018869       10.319594        6.073436
  C            8.784652        0.919515        1.239780
  C           -2.508142        6.615249       11.963065
  C           -4.360552        7.730507        1.110303
  C           -7.351366        1.022025       11.821932
  C            7.441371        9.469644        5.112723
  C           12.991193       -2.694552        6.017481
  C            3.632637        3.298056        7.181208
  C            0.980621        3.578705        8.052889
  C            7.361766        0.489528       11.753548
  C           -3.089201        8.254946        1.152479
  C            4.438003       -6.388560       11.910676
  C            8.855538       -0.479663        1.318796
  N            8.938305       -1.077634        2.555968
  N            6.782516        0.288157       10.517426
  N            8.001283        4.757340        7.639127
  N            6.418775       -4.042078        9.284423
  O            7.234665        5.022637        5.076604
  O           -3.053924        1.423703        8.020113
  O            4.345224       -2.456407        9.695708
  O            0.426054        9.871897        3.422680
  O            1.318961        8.513079        5.002228
  O            2.776776       -2.264724        8.078087
  O            8.824398        4.755701        3.489805
  O           -3.903766        2.779752        9.624467
  O            6.156697        4.409127        2.505218
  O           -1.367975        1.993658       10.109628
  O            7.017801        6.727170        2.953185
  O           -3.056279        0.208461       10.609657
  O            1.659621       -2.837312       10.674383
  O            2.969458        9.121937        2.909279
  O            2.531624       -0.543378       10.208048
  O            1.322575        7.306972        2.398893
  O            4.575167        5.087631        5.244337
  O           -1.836144       -1.022528        7.923516
  O            4.066391       -3.610049       11.962095
  O            1.743514       11.006429        1.144350
  O            4.771026       -0.795498       11.956418
  O           -0.427504        9.094025        1.094098
  O            0.028867       -2.288059        7.991258
  O            2.574295        6.119616        5.117796
  O            9.199419        6.452785        1.083295
  O           -4.748114        1.988975       11.944029
  O            8.500254        3.672420        1.113292
  O           -2.542975        3.849240       12.015231
  O            4.269171        6.735574        3.019668
  O           -0.147093       -0.436062       10.017030
  O            6.748057        5.600086        0.071530
  O           -2.238358        1.302347       13.044892
  S           16.152554        7.854139       13.847564
  S           17.256225       10.457738       14.007512
  F           13.601369        8.633421       13.794020
  F           14.006856        6.959093       15.114636
  F           14.576959        8.967746       15.701541
  F           16.473735       12.974954       14.142341
  F           15.888280       11.994922       12.298095
  F           14.828122       11.561143       14.140000
  O           16.989481        7.371936       14.913990
  O           15.828446        6.973245       12.757112
  O           18.444764       10.870280       13.307474
  O           17.281234       10.403588       15.445879
  N           16.540682        9.262678       13.258133
  C           14.492696        8.130583       14.662903
  C           16.035891       11.815535       13.617724
  S           21.185119      -12.151345       14.803026
  S           23.624540      -10.785332       15.256494
  F           19.695623       -9.962966       14.469724
  F           18.796317      -11.484367       15.730045
  F           20.396717      -10.241078       16.502778
  F           24.552119       -8.320936       15.438697
  F           23.746498       -8.788939       13.480021
  F           22.404876       -8.412546       15.142275
  O           21.390334      -13.012386       15.937366
  O           20.539958      -12.678302       13.629916
  O           24.896150      -11.220058       14.739878
  O           23.413484      -10.795732       16.680504
  N           22.435474      -11.305409       14.352404
  C           19.957339      -10.880395       15.414232
  C           23.569495       -8.977424       14.794758
  S           -4.567597       11.355158        8.070341
  S           -6.145974       13.666752        8.503536
  F           -3.338609       12.260373        5.881993
  F           -4.035867       10.209418        5.743295
  F           -5.447833       11.848832        5.592172
  F           -6.614386       16.022819        7.409742
  F           -4.566272       15.784224        8.082621
  F           -5.231875       14.802798        6.266448
  O           -5.696635       10.481168        8.248241
  O           -3.272422       10.930759        8.531328
  O           -6.415210       14.222901        9.803951
  O           -7.237718       13.113864        7.745336
  N           -4.789117       12.853934        8.502378
  C           -4.341310       11.432484        6.215848
  C           -5.596587       15.147943        7.509047
  S           -5.125149        7.551541       15.955858
  S           -3.987016        5.465643       17.497312
  F           -3.764063        7.024894       13.722300
  F           -3.864459        9.129590       14.243835
  F           -2.535706        7.803854       15.330576
  F           -2.198086        3.537857       17.273217
  F           -3.884784        3.299762       15.930524
  F           -2.355615        4.776237       15.498813
  O           -4.919120        8.515672       17.003825
  O           -6.297451        7.654839       15.128126
  O           -4.729999        4.660317       18.431279
  O           -2.959852        6.340779       17.998837
  N           -4.931224        6.043213       16.367435
  C           -3.736610        7.888539       14.749740
  C           -3.061513        4.201434       16.482431
  S           15.919907        0.586795        9.662639
  S           17.028364        0.120078        7.098287
  F           18.241349        1.057979       10.890476
  F           16.887838       -0.239241       11.984572
  F           17.981534       -1.005102       10.275347
  F           19.381373        0.016422        5.906879
  F           18.915338        1.976277        6.710774
  F           19.513257        0.372375        8.042953
  O           15.094600       -0.589097        9.582770
  O           15.413804        1.754850       10.333168
  O           16.432939        0.579483        5.870571
  O           17.106786       -1.296155        7.344441
  N           16.601367        1.035956        8.315077
  C           17.345102        0.067556       10.756046
  C           18.808171        0.660503        6.940215
  S           -4.846962      -10.065171       12.527402
  S           -5.867156       -9.509320       15.110546
  F           -6.154351      -12.367634       12.198631
  F           -4.068140      -12.420254       11.601323
  F           -4.596578      -12.455025       13.704584
  F           -7.462573      -10.577851       16.921550
  F           -8.476558      -10.096946       15.065471
  F           -7.181060      -11.833173       15.174602
  O           -3.498167       -9.773910       12.935021
  O           -5.266316       -9.723030       11.194291
  O           -6.249390       -8.195011       15.557044
  O           -4.744933      -10.156684       15.738233
  N           -5.975010       -9.629196       13.537099
  C           -4.924981      -11.933368       12.518524
  C           -7.332439      -10.565414       15.582112
  S          -11.628594        5.781653       -0.558484
  S          -10.138072        7.598677       -2.139360
  F           -9.562948        4.230647        0.109483
  F          -11.351233        3.149690       -0.478217
  F          -10.112580        4.099605       -1.984060
  F           -7.664133        7.987143       -2.973367
  F           -7.868935        8.108593       -0.817498
  F           -7.903255        6.176408       -1.802483
  O          -12.645243        5.648656       -1.567924
  O          -12.008403        5.745107        0.828784
  O          -10.360026        9.021156       -2.152029
  O          -10.407161        6.843375       -3.335005
  N          -10.606755        6.962085       -0.769387
  C          -10.597797        4.232868       -0.745708
  C           -8.291277        7.454866       -1.908212
  S            9.180179       -0.764219       16.813506
  S            9.040232        2.029429       16.368147
  F           11.822450       -0.966024       16.503070
  F           10.674260       -2.508671       15.496232
  F           10.760216       -0.505307       14.669607
  F           10.621268        4.059319       15.779318
  F           11.088368        3.136393       17.685752
  F           11.654420        2.152456       15.837465
  O            8.083529       -1.019654       15.917768
  O            9.331088       -1.580792       17.988469
  O            8.183421        2.918499       17.108621
  O            8.791096        1.834819       14.963685
  N            9.395394        0.743272       17.217498
  C           10.696673       -1.199655       15.810026
  C           10.699188        2.883210       16.428841
  S           18.667858       -8.659232       11.608549
  S           16.908550      -10.601777       10.534418
  F           20.915654       -9.807465       10.743874
  F           20.991416       -9.106240       12.796766
  F           19.911240      -10.922685       12.309002
  F           16.988975      -12.868791        9.184963
  F           17.791584      -11.185341        8.077587
  F           18.953297      -12.087024        9.671984
  O           18.004972       -8.681918       12.885381
  O           19.202013       -7.416830       11.117410
  O           15.643839      -10.288278        9.921969
  O           16.917843      -11.350229       11.764129
  N           17.908495       -9.380593       10.431663
  C           20.203310       -9.692293       11.875938
  C           17.714807      -11.740807        9.294531
  S          -16.484233       15.601849        0.798737
  S          -19.052387       14.661319        0.062266
  F          -15.112372       13.895521       -0.726102
  F          -14.335809       14.133327        1.286910
  F          -16.124011       12.954464        0.945181
  F          -20.162926       12.807407       -1.453175
  F          -19.010186       14.257170       -2.581821
  F          -17.995202       12.720265       -1.436204
  O          -16.817750       15.587999        2.198311
  O          -15.617073       16.633241        0.294388
  O          -20.186733       15.518502       -0.164373
  O          -19.082996       13.749102        1.175541
  N          -17.695906       15.433349       -0.193992
  C          -15.465772       14.052059        0.559539
  C          -19.043835       13.554853       -1.441204
  S           -1.963267       11.394141       14.083973
  S           -2.527854       11.224116       16.854303
  F           -0.119440        9.465900       14.054320
  F            0.418976       11.247738       12.937637
  F            0.506340       11.256752       15.104767
  F           -1.750537        9.885674       18.992340
  F           -2.645147        8.623877       17.471811
  F           -0.629434        9.379243       17.205285
  O           -1.855691       12.828011       14.135711
  O           -2.522390       10.774428       12.912034
  O           -3.850096       11.337522       17.412591
  O           -1.556796       12.242923       17.156849
  N           -2.583722       10.709130       15.359845
  C           -0.188354       10.806615       14.055248
  C           -1.850479        9.685221       17.665308
  S            1.162175      -13.781111       16.704047
  S            1.779674      -13.140042       14.015157
  F            0.746685      -11.269646       17.503171
  F            1.937543      -12.466352       18.867565
  F            2.818947      -11.706523       17.037277
  F            2.035715      -11.027678       12.453361
  F            0.026545      -11.277667       13.231312
  F            1.601254      -10.523607       14.518322
  O            2.302262      -14.651385       16.818329
  O           -0.053095      -14.122670       17.394378
  O            1.343363      -13.916744       12.884124
  O            3.187073      -13.074113       14.310688
  N            0.797916      -13.320818       15.242027
  C            1.700637      -12.212080       17.566906
  C            1.326038      -11.393599       13.536709
  S           -9.524905       11.428268        1.724778
  S           -7.671165        9.498270        2.652764
  F           -7.927506       13.538103        2.064780
  F           -9.965835       13.828305        2.752397
  F           -8.585302       12.632260        3.921913
  F           -5.224233        9.360232        3.632722
  F           -5.291813       10.130701        1.606327
  F           -5.891105       11.391927        3.266107
  O          -10.583823       10.882766        2.531843
  O           -9.837923       11.968378        0.428474
  O           -7.500778        8.198009        2.058493
  O           -8.187634        9.586472        3.993636
  N           -8.232593       10.535944        1.599308
  C           -8.960476       12.936212        2.675490
  C           -5.923523       10.140324        2.787953
  S           -0.713689       -4.793436       12.569456
  S           -2.362368       -3.083472       14.112271
  F           -2.691764       -6.316807       11.628578
  F           -0.950239       -7.417956       12.311499
  F           -2.330656       -6.567362       13.752021
  F           -4.905774       -2.762364       14.740623
  F           -4.509839       -2.512390       12.622791
  F           -4.540221       -4.499074       13.492777
  O            0.209831       -4.978641       13.657134
  O           -0.210494       -4.745329       11.222391
  O           -2.160011       -1.662695       14.227660
  O           -2.192369       -3.906140       15.281362
  N           -1.764815       -3.634743       12.755522
  C           -1.737944       -6.357796       12.572408
  C           -4.179053       -3.226388       13.707308
  S            9.748159       16.676835       12.740060
  S            9.544294       18.063044       15.201617
  F           12.248557       17.433628       12.197873
  F           10.883557       17.552925       10.514316
  F           10.803760       19.046690       12.084814
  F           10.974758       19.660102       16.741107
  F           11.850992       17.690202       16.504095
  F           11.971278       19.131700       14.887826
  O            8.473955       17.171378       12.290546
  O           10.151838       15.344761       12.375743
  O            8.888456       17.533954       16.369012
  O            8.980803       19.217651       14.552142
  N           10.067418       16.899439       14.266683
  C           10.992219       17.745777       11.842282
  C           11.183880       18.660480       15.864632
  S          -12.305490       -8.319974       12.087428
  S          -10.477578       -9.213688       14.057812
  F          -14.244124      -10.048323       12.698326
  F          -13.868277       -9.827127       10.571913
  F          -12.499245      -10.973543       11.803029
  F          -10.286543      -11.045480       15.948550
  F          -11.878204       -9.614890       16.301380
  F          -12.130069      -11.171168       14.811659
  O          -11.294722       -8.329816       11.063472
  O          -13.323328       -7.303469       12.058685
  O           -9.637503       -8.336163       14.830532
  O           -9.861189      -10.126745       13.131071
  N          -11.781486       -8.465543       13.566037
  C          -13.277874       -9.887294       11.780340
  C          -11.248086      -10.318064       15.350651
  S           -9.398972      -12.945139        8.348472
  S           -9.202781      -10.122969        8.209669
  F           -7.729933      -13.241636       10.408833
  F           -7.424801      -14.653761        8.788766
  F           -6.755543      -12.601225        8.580547
  F           -7.944997       -8.128200        9.395300
  F           -9.278406       -9.207849       10.722267
  F           -7.374379      -10.078486       10.155359
  O           -9.210170      -13.085198        6.928975
  O          -10.283736      -13.851271        9.031275
  O          -10.317968       -9.252947        7.940801
  O           -8.136628      -10.203155        7.245643
  N           -9.685425      -11.482310        8.858502
  C           -7.729195      -13.373472        9.072837
  C           -8.409182       -9.350910        9.712628
  S           12.238085       15.675853        0.176365
  S           12.732677       14.785932        2.819436
  F           12.411695       13.271259       -0.966647
  F           13.451429       14.853353       -2.028604
  F           14.303255       14.020323       -0.216252
  F           13.272016       12.559046        4.129757
  F           11.330532       12.533774        3.163080
  F           13.132619       12.281865        1.982514
  O           13.183990       16.752869        0.301003
  O           11.044635       15.876866       -0.601692
  O           12.050078       15.296913        3.979534
  O           14.144774       15.029615        2.681388
  N           11.846889       14.951328        1.519527
  C           13.156992       14.376052       -0.804683
  C           12.601451       12.935202        3.025206
  S            9.247844       -5.229006       18.780341
  S            7.630129       -4.865362       16.484005
  F           11.104530       -6.724069       17.581927
  F           10.470217       -7.456788       19.524243
  F            9.187863       -7.715772       17.794312
  F            7.543467       -5.579899       13.944561
  F            9.277849       -4.373239       14.434822
  F            9.204530       -6.457896       15.029412
  O            8.113228       -5.573623       19.595276
  O           10.331550       -4.484955       19.365212
  O            6.972933       -3.627941       16.152719
  O            6.825193       -6.010973       16.818834
  N            8.913685       -4.607782       17.371628
  C           10.041660       -6.875866       18.387863
  C            8.473095       -5.343729       14.888594
  S           -7.226019        3.121238       -5.057012
  S           -5.286193        5.131107       -4.588073
  F           -9.244897        4.791460       -5.560179
  F           -9.749191        3.132357       -4.254467
  F           -8.596377        4.803380       -3.491008
  F           -5.087843        7.761757       -4.503314
  F           -5.633689        7.007884       -6.462445
  F           -7.108143        7.062507       -4.872566
  O           -6.847089        2.398782       -3.871810
  O           -7.640692        2.387687       -6.223225
  O           -3.919831        5.047797       -5.034149
  O           -5.556772        5.120420       -3.174167
  N           -6.238092        4.263359       -5.506028
  C           -8.786675        4.022916       -4.559360
  C           -5.816816        6.831381       -5.146884
  S            5.888609       10.722502       11.050166
  S            8.332906       10.687714       12.480761
  F            4.691852        8.823775       12.492837
  F            4.431081        8.626881       10.346899
  F            6.321694        8.090718       11.264654
  F            9.476841        9.410959       14.487788
  F            7.717528       10.533056       15.079550
  F            7.498845        8.660909       14.006259
  O            6.565032       10.684202        9.780828
  O            4.671066       11.479091       11.173710
  O            9.088044       11.868846       12.808729
  O            8.901705        9.731480       11.567228
  N            6.798332       11.025668       12.300186
  C            5.310173        8.963376       11.309427
  C            8.238497        9.774092       14.105921
  S            4.288198       -9.079835       -1.702271
  S            5.493497       -6.886213       -3.028045
  F            2.008004       -9.026210       -3.086660
  F            1.758963       -9.282302       -0.945582
  F            2.261307       -7.333754       -1.754887
  F            4.947450       -5.122243       -4.914069
  F            4.975135       -7.166859       -5.637423
  F            3.290519       -6.451607       -4.473295
  O            4.639708       -8.563163       -0.406230
  O            4.297602      -10.502558       -1.916458
  O            6.886251       -6.833027       -3.388986
  O            4.996334       -5.963448       -2.041236
  N            4.988360       -8.381787       -2.928875
  C            2.478972       -8.645814       -1.888430
  C            4.623029       -6.390867       -4.603379
  S           21.672860        4.003941        4.112986
  S           20.837226        1.301467        3.968922
  F           23.866327        3.699313        2.624834
  F           24.150705        4.884954        4.420720
  F           23.981545        2.727124        4.559715
  F           21.620423       -0.999368        2.939548
  F           21.189315        0.506349        1.439073
  F           23.022191        0.619926        2.593359
  O           21.474734        4.048918        5.537401
  O           21.394270        5.177467        3.328559
  O           19.464344        0.892217        3.825464
  O           21.534585        0.977778        5.186038
  N           21.063376        2.750968        3.377701
  C           23.521936        3.805868        3.918012
  C           21.719213        0.312152        2.654344
  S            3.830081       17.447875       -3.749022
  S            2.860633       16.648985       -1.210450
  F            3.530635       20.069170       -3.351739
  F            2.851873       19.366010       -5.289952
  F            1.656463       18.991414       -3.519405
  F            1.874675       17.709000        0.996608
  F            3.916343       18.319582        0.592575
  F            2.283272       19.171814       -0.552628
  O            3.013614       16.478061       -4.429520
  O            5.137488       17.751601       -4.267231
  O            3.428223       15.576560       -0.435455
  O            1.522542       16.503718       -1.721201
  N            3.935661       17.276159       -2.186517
  C            2.909305       19.058756       -3.980453
  C            2.736036       18.047641        0.019590
  S           -6.096167       16.019838       14.326706
  S           -7.455196       15.541004       16.765181
  F           -4.770679       13.704670       14.284671
  F           -3.571686       15.441292       13.776360
  F           -4.110565       15.060943       15.842542
  F           -7.624696       13.703268       18.652200
  F           -8.289615       12.999914       16.711159
  F           -6.170461       13.226230       17.114492
  O           -5.708610       17.343502       14.736519
  O           -6.412524       15.777959       12.944131
  O           -8.827222       15.905791       17.004646
  O           -6.420187       16.198934       17.519065
  N           -7.186611       15.319224       15.222322
  C           -4.553062       14.995386       14.582934
  C           -7.379158       13.763491       17.330358
  S           27.157837        2.135266        7.899533
  S           28.346238        1.119128        5.537846
  F           24.946132        3.057729        6.726454
  F           25.843654        4.419141        8.159225
  F           26.738290        4.159454        6.200564
  F           27.869145        0.962704        2.946561
  F           26.412149       -0.101608        4.150250
  F           26.350144        2.063548        4.036373
  O           28.376875        2.785340        8.301508
  O           26.298662        1.571145        8.906355
  O           29.070376       -0.123625        5.474118
  O           29.059276        2.350188        5.317565
  N           27.291878        1.103225        6.716748
  C           26.116208        3.519380        7.195567
  C           27.167982        1.003383        4.094559
  S           -1.865783        0.250721        0.285266
  S            0.852279        0.977441       -0.040954
  F           -1.394551       -2.258952        1.058681
  F           -2.987671       -2.047486       -0.400453
  F           -0.916498       -1.881959       -1.022552
  F            3.261175       -0.082755        0.159179
  F            2.189174       -0.033340        2.044076
  F            1.662871       -1.500655        0.535865
  O           -2.228388        0.813387       -0.988374
  O           -2.796294        0.334007        1.379485
  O            1.391097        2.259072        0.333170
  O            0.824679        0.615843       -1.434131
  N           -0.430929        0.628064        0.815230
  C           -1.774399       -1.588264       -0.040482
  C            2.049810       -0.231712        0.726269
  S           -1.893754       -8.212363       17.886731
  S           -1.621125       -9.729206       15.510334
  F           -3.074274      -10.133905       19.312473
  F           -3.982371       -8.172597       19.513598
  F           -4.312954       -9.343213       17.717899
  F           -2.207602      -12.124010       14.568099
  F           -0.815975      -12.176399       16.230957
  F           -2.920981      -11.796571       16.590668
  O           -2.422809       -7.081278       17.171902
  O           -1.048545       -7.987423       19.029152
  O           -0.462482       -9.683051       14.656937
  O           -2.876254       -9.238520       15.004038
  N           -1.247896       -9.341230       16.997584
  C           -3.402703       -9.018561       18.641347
  C           -1.903838      -11.558661       15.751016
  S          -13.556028        7.020044        2.201083
  S          -14.532653        8.572613        4.359354
  F          -15.132498        4.911853        2.635781
  F          -13.061229        4.418962        2.213025
  F          -13.616472        5.197856        4.159610
  F          -16.270173        8.406190        6.339297
  F          -17.193747        8.299705        4.379671
  F          -16.123184        6.585908        5.168026
  O          -12.186907        7.287092        2.553824
  O          -13.913219        6.906429        0.811979
  O          -14.755894        9.993253        4.289954
  O          -13.506625        8.073144        5.236995
  N          -14.634539        7.910206        2.926673
  C          -13.863183        5.293280        2.849365
  C          -16.122578        7.923946        5.091563
  S            0.619787       -4.729822       -0.267209
  S           -0.999699       -6.246292       -2.027886
  F            1.081658       -2.725513       -1.966652
  F            2.832621       -3.412902       -0.883395
  F            2.043582       -4.586045       -2.528179
  F           -1.922671       -6.157885       -4.499152
  F           -2.639182       -4.528474       -3.259759
  F           -0.605231       -4.504167       -4.012863
  O            1.401039       -5.881627        0.097791
  O            0.344700       -3.725455        0.725604
  O           -2.180822       -6.960298       -1.617988
  O            0.137444       -6.995533       -2.494791
  N           -0.707371       -5.028445       -1.061899
  C            1.700723       -3.817182       -1.489907
  C           -1.572967       -5.294419       -3.527907
  S          -13.090197       -1.043315       12.535912
  S          -11.155040       -2.831147       13.575732
  F          -13.318714       -2.229461       10.156935
  F          -13.188009       -0.064172       10.077800
  F          -11.410527       -1.245887       10.462864
  F           -9.767779       -4.952554       12.839536
  F          -11.908723       -5.298851       12.869537
  F          -11.018759       -4.151179       11.258474
  O          -12.343487        0.107484       12.969870
  O          -14.527951       -0.999929       12.568829
  O          -11.148473       -3.305243       14.935166
  O          -10.076470       -1.988759       13.129048
  N          -12.615090       -2.426569       13.121520
  C          -12.722012       -1.159725       10.706372
  C          -10.963975       -4.395439       12.575110
  S           19.388413        5.535858       11.761826
  S           21.225733        5.134961        9.643823
  F           18.857294        2.952527       12.165560
  F           17.111574        4.242547       12.154187
  F           18.087447        3.719681       10.289128
  F           22.276066        3.168817        8.230342
  F           22.782813        3.073128       10.337120
  F           20.799697        2.498972        9.672060
  O           18.686803        6.560643       11.035332
  O           19.522137        5.654535       13.189459
  O           22.437374        5.894654        9.477502
  O           20.183348        5.266301        8.659627
  N           20.778607        5.102271       11.160644
  C           18.305714        4.023167       11.572470
  C           21.801176        3.367270        9.473837
  S           18.707443       13.656745        2.169078
  S           18.088289       11.420589        0.544685
  F           16.255083       13.960526        3.175228
  F           17.209228       15.806677        2.548210
  F           16.400257       14.444902        1.066557
  F           16.024032        9.908882       -0.103724
  F           16.536218        9.800018        2.001099
  F           15.508896       11.545284        1.224333
  O           19.395378       14.319825        1.093297
  O           19.196771       13.808175        3.513597
  O           18.964412       10.292504        0.363841
  O           17.804512       12.267255       -0.584511
  N           18.363348       12.138513        1.926953
  C           17.043699       14.507473        2.236505
  C           16.447671       10.628459        0.951702
  S            5.590228       17.588066        9.767416
  S            5.145084       14.808071        9.457786
  F            3.023067       18.252332       10.062592
  F            4.145331       19.551685        8.734424
  F            3.527989       17.584081        8.062421
  F            3.148995       13.083726        9.362322
  F            3.309110       14.101916       11.270756
  F            2.497656       15.144607        9.550568
  O            6.471122       17.631616        8.630595
  O            5.861979       18.435005       10.898323
  O            5.989038       13.791316       10.029470
  O            5.084579       14.935357        8.025098
  N            5.224112       16.148786       10.293235
  C            3.976028       18.272114        9.117212
  C            3.427395       14.264007        9.945945
  S          -11.425246       14.912777       14.782184
  S          -11.900013       17.671550       15.213654
  F          -13.979102       14.158807       14.949632
  F          -12.589431       12.887777       16.029038
  F          -13.139588       14.824854       16.834781
  F          -13.902106       19.321300       15.700270
  F          -14.059573       18.328770       13.778148
  F          -14.506786       17.240137       15.600122
  O          -10.350233       14.889822       15.738246
  O          -11.336537       14.087632       13.606867
  O          -11.209819       18.723932       14.514372
  O          -11.692979       17.527799       16.631021
  N          -11.929887       16.343026       14.355826
  C          -12.869119       14.164136       15.704732
  C          -13.695436       18.157806       15.056258
  S           -5.333507      -10.105686        7.390858
  S           -6.611130       -7.695906        6.627288
  F           -2.918582       -9.035847        7.768046
  F           -2.914487      -10.914089        6.679923
  F           -3.536339       -9.087156        5.690083
  F           -6.042188       -5.148679        6.233858
  F           -5.736786       -5.786445        8.284333
  F           -4.309445       -6.347650        6.750560
  O           -5.904877      -10.826166        6.284206
  O           -5.147934      -10.781746        8.647285
  O           -7.943385       -7.330225        7.032558
  O           -6.355305       -7.953278        5.234173
  N           -5.949911       -8.683190        7.671223
  C           -3.579147       -9.755295        6.847006
  C           -5.612517       -6.164585        7.004897
  S           24.049912       17.253262       -2.018856
  S           25.804383       15.453429       -3.324548
  F           25.123947       16.981302        0.408319
  F           22.953830       16.948265        0.371998
  F           24.077328       15.213917       -0.286755
  F           27.825833       13.848958       -2.771140
  F           28.263193       15.938752       -2.389120
  F           26.999722       14.827858       -1.020082
  O           22.891832       16.658100       -2.631119
  O           24.068912       18.672999       -1.786287
  O           26.345300       15.672181       -4.640765
  O           24.895928       14.355371       -3.120991
  N           25.439499       16.824059       -2.624568
  C           24.058871       16.550469       -0.286132
  C           27.307120       15.003081       -2.312753
  S            3.226885        5.239513       15.611150
  S            0.405836        5.114148       15.391231
  F            3.672429        5.983655       13.087971
  F            4.996532        4.425985       13.817517
  F            2.949209        3.948759       13.283769
  F           -1.493370        5.450965       13.589449
  F           -0.367160        7.260079       13.993456
  F            0.507698        5.685777       12.784776
  O            3.290228        3.957942       16.262147
  O            4.152400        6.270281       15.999793
  O           -0.499969        5.553724       16.420387
  O            0.452578        3.714155       15.059130
  N            1.789814        5.873573       15.489292
  C            3.728548        4.877497       13.846609
  C           -0.264144        5.931581       13.852500
  S           16.450076       -3.826005       16.771295
  S           19.153610       -4.513836       16.281199
  F           16.738507       -1.212677       16.317409
  F           15.564871       -1.699661       18.077308
  F           17.724060       -1.899695       18.122646
  F           21.445076       -3.364010       15.653559
  F           19.929900       -3.146598       14.116863
  F           19.819763       -1.952654       15.924368
  O           16.415689       -4.593594       17.987790
  O           15.271752       -3.762866       15.948089
  O           19.565376       -5.703522       15.582653
  O           19.484102       -4.378133       17.675766
  N           17.699384       -4.071838       15.843474
  C           16.641992       -2.059797       17.354395
  C           20.131322       -3.163404       15.441451
  S           -1.071166       16.287057        7.381753
  S           -1.187151       15.782327       10.166388
  F           -2.015378       13.908898        6.625768
  F           -0.297031       14.599900        5.493681
  F           -0.033536       13.823565        7.501674
  F           -1.840800       13.848645       11.839847
  F           -3.510083       14.543747       10.642018
  F           -1.994827       13.270620        9.754404
  O            0.267622       16.806119        7.473710
  O           -1.985087       16.867548        6.434187
  O           -1.595805       16.758245       11.142839
  O            0.174211       15.314392       10.180178
  N           -1.823809       16.091854        8.751964
  C           -0.840978       14.551825        6.724251
  C           -2.197086       14.277847       10.615090
  S            2.842446       -6.766476       16.545843
  S            4.878141       -8.688317       16.975807
  F            1.577142       -7.175419       18.858949
  F            0.272522       -7.018360       17.131199
  F            1.413400       -8.831765       17.469022
  F            5.619467      -10.472854       18.773781
  F            5.668770       -8.436513       19.518997
  F            3.770156       -9.457803       19.280368
  O            2.591042       -7.247055       15.213149
  O            2.726494       -5.358298       16.817309
  O            6.256577       -8.493555       16.608584
  O            4.116919       -9.706482       16.300280
  N            4.156086       -7.304111       17.229475
  C            1.454080       -7.498933       17.561851
  C            4.984988       -9.286457       18.740906
  S            3.256552       17.702273       14.712126
  S            5.831360       16.811866       13.937571
  F            2.163367       15.275291       14.894885
  F            0.930604       16.747300       13.882311
  F            2.633023       15.871023       12.863453
  F            7.114647       14.566341       13.410653
  F            6.418672       14.692804       15.461040
  F            5.013547       14.270916       13.863435
  O            3.224931       18.696336       13.672380
  O            2.641008       17.993077       15.979659
  O            7.059023       17.396024       14.411359
  O            5.498495       16.932128       12.542151
  N            4.658451       17.033354       14.975340
  C            2.194964       16.314689       14.045814
  C            6.100860       14.982269       14.191948
  S           23.585166       -8.156413        3.555509
  S           25.336350       -9.509935        1.788100
  F           23.996460       -9.764443        5.644472
  F           21.915468       -9.259230        5.289436
  F           22.913976      -10.705047        4.017917
  F           26.924332      -11.617830        1.744055
  F           27.541108      -10.112178        3.178302
  F           25.844895      -11.392445        3.612457
  O           22.537417       -8.106845        2.570623
  O           23.743422       -7.054862        4.467453
  O           26.202518       -8.844475        0.850130
  O           24.263055      -10.326015        1.283612
  N           25.006670       -8.574613        3.020261
  C           23.080493       -9.558654        4.684825
  C           26.475021      -10.719451        2.639722
  S           11.087762        2.824895       -4.758383
  S           10.076163        3.807682       -2.302126
  F           13.643114        3.412534       -4.264879
  F           12.965131        3.934923       -6.259690
  F           12.387736        5.155448       -4.562310
  F           10.925382        4.987720       -0.099131
  F           11.760398        3.006353       -0.384436
  F           12.493015        4.671759       -1.565285
  O           10.072071        3.507256       -5.515342
  O           11.547857        1.536459       -5.203746
  O            9.032685        3.163014       -1.548186
  O            9.818329        5.101442       -2.878464
  N           10.855142        2.765399       -3.201333
  C           12.604690        3.898845       -4.963051
  C           11.395789        4.127560       -1.021101
  S          -14.005428        7.428252       11.776409
  S          -13.071313        4.794179       11.316533
  F          -16.602822        6.825004       11.685152
  F          -16.052524        8.616294       10.589583
  F          -15.599953        6.660016        9.769631
  F          -14.013591        2.371872       10.856761
  F          -14.583163        3.157185       12.796693
  F          -15.562193        3.884279       11.002942
  O          -13.110015        7.978549       10.793738
  O          -14.300391        8.189531       12.961126
  O          -11.931872        4.218742       11.982429
  O          -13.003811        5.021717        9.896629
  N          -13.726827        5.935010       12.194338
  C          -15.657147        7.367881       10.902048
  C          -14.388357        3.485823       11.512389
  S          -14.544255       -5.147761        1.040643
  S          -16.405791       -3.112732        0.395859
  F          -12.425359       -3.538232        1.236572
  F          -12.065522       -5.375533        0.138089
  F          -13.172507       -3.756203       -0.787396
  F          -16.481401       -0.507713       -0.022476
  F          -15.877693       -1.033050        1.993466
  F          -14.481457       -1.261915        0.349430
  O          -15.014702       -5.994428       -0.023344
  O          -14.109033       -5.747352        2.274002
  O          -17.751243       -3.064459        0.906053
  O          -16.205183       -3.318823       -1.014722
  N          -15.453134       -3.905964        1.378186
  C          -12.968153       -4.402673        0.364571
  C          -15.767513       -1.386050        0.705584
  S           15.060406        2.280189       15.130825
  S           17.855221        1.841004       15.266946
  F           15.053493        4.503976       16.605076
  F           13.483042        3.088773       17.097730
  F           15.522800        2.711082       17.730897
  F           20.012686        2.902415       16.355798
  F           19.038835        4.216432       14.931214
  F           18.180058        3.927194       16.901888
  O           14.771371        0.908765       15.456229
  O           14.203933        2.977989       14.209070
  O           18.649516        1.375086       14.160201
  O           17.707532        0.993174       16.420995
  N           16.559334        2.593077       14.760188
  C           14.775072        3.197144       16.735227
  C           18.816570        3.312697       15.895190
  S            9.141784       17.887363        3.029060
  S            8.366981       15.233676        2.412598
  F            7.679085       19.055752        1.127989
  F            9.703818       19.817691        1.306111
  F            9.345025       17.898774        0.361024
  F            6.862237       13.921742        0.685918
  F            5.732376       15.274052        1.950489
  F            6.928117       16.059189        0.320006
  O           10.533764       17.527990        3.088024
  O            8.637477       18.890349        3.928946
  O            8.099817       14.224482        3.404072
  O            9.496015       15.063755        1.535748
  N            8.126140       16.683403        2.997428
  C            8.953591       18.700928        1.356031
  C            6.884790       15.127777        1.282705
  S            1.800462       11.245162       18.130556
  S            3.551845       12.738966       16.480221
  F            3.382877        9.109094       18.358296
  F            1.296692        8.650634       17.971686
  F            2.562980        9.380676       16.369275
  F            5.906343       12.508883       15.309643
  F            6.016456       12.433341       17.474507
  F            5.291302       10.716132       16.365427
  O            0.672477       11.521193       17.281032
  O            1.602515       11.157111       19.552937
  O            3.759680       14.157949       16.607347
  O            2.925286       12.233253       15.286850
  N            3.090518       12.106332       17.854517
  C            2.296742        9.501248       17.673611
  C            5.287739       12.055414       16.415482
  S           24.767154       -1.340229        6.143708
  S           24.124353       -2.927357        8.399862
  F           22.566182       -1.924271        4.753274
  F           24.404061       -1.977187        3.599490
  F           23.933335       -3.593878        4.966564
  F           22.234818       -4.568291        9.238816
  F           21.527026       -2.544101        8.913011
  F           21.911276       -3.843829        7.219562
  O           26.107340       -1.860823        6.087873
  O           24.533708        0.035357        5.792471
  O           24.373282       -2.527042        9.760249
  O           24.844358       -4.053252        7.864688
  N           23.961174       -1.667833        7.457149
  C           23.862681       -2.269897        4.796870
  C           22.345612       -3.492514        8.437808
