         874
  Built with Packmol                                             
  Ti          -2.868335        2.115442       11.265214
  Ti           7.802788        5.383210        1.844391
  Ti           1.352572       -1.673500        9.417113
  Ti           2.511792        7.542652        3.648414
  Ti           1.444672        9.187418        1.751989
  Ti           3.259458       -1.864257       11.359530
  Ti          -1.869782        0.416024        9.366140
  Ti           5.815984        5.614284        3.703281
  H            3.746896        1.652626        8.583439
  H           -7.024875       10.142785        6.478257
  H            4.431630       11.010612        4.650438
  H           -2.503694        6.028051       11.048460
  H            8.748737        1.507342        2.155250
  H           -6.801542        1.221893       10.903644
  H           11.114246        7.503838        2.029089
  H            4.372721       -5.862020       10.962653
  H           -2.589143        8.456181        2.095703
  H            4.656966        3.204147        6.826953
  H           -0.045224        3.670268        8.406030
  H           12.440918       -1.828167        6.378540
  H           -2.327232        0.331938       12.984230
  H            5.927385        5.077403        0.154584
  H            3.761426       -2.506617        5.844726
  H            0.745560        9.314262        7.279431
  H           -6.059913        3.661213        9.037490
  H           10.641247        3.393379        4.132134
  H           -3.728587        2.298708        5.688870
  H           -1.703972       10.903386        4.124923
  H            1.733452       12.300945        2.609537
  H            8.667985       -0.517063        3.355831
  H            4.606680        7.297451        2.297825
  H            0.215487        0.134620       10.719246
  H            7.415332        0.218685        9.728366
  H            5.955496       -0.302534       10.483299
  H            7.828656        4.670987        8.632537
  H            7.237651        5.011538        7.017709
  H            7.098177       -4.749977        9.534320
  H            5.784030       -3.695029       10.000157
  H            1.411485        1.911548        9.356085
  H            0.863759        5.227040        6.648574
  H            5.741023        9.069333        3.845371
  H            7.999135        8.609993        4.744623
  C            8.422325        4.659191        4.703706
  C           -3.853328        2.346718        8.423899
  C            3.961595       -2.592630        8.476524
  C            0.513540        9.443357        4.621320
  C            9.344336        4.085192        5.693105
  C           -4.811926        2.940026        7.452907
  C            4.917315       -3.172748        7.523270
  C           -0.392661       10.057561        5.626884
  C            9.101042        4.149763        7.100999
  C           -4.599256        2.829342        6.063538
  C            6.075072       -3.893771        7.969088
  C           -1.516055       10.792469        5.189090
  C           -0.124811        9.894234        6.980095
  C            4.657405       -3.047644        6.140915
  C           10.498947        3.426687        5.210054
  C           -5.932679        3.593124        7.958691
  C            2.813684        4.307411        6.639567
  C            1.802100        2.580168        8.590925
  C            6.161473        9.726276        4.605129
  C           -1.730084       -2.944720        6.528234
  C            8.715175        1.588330        0.011262
  C            1.839040       13.147429        0.088587
  C            6.684170        0.195343       12.990012
  C           -6.719779        1.271810       13.046845
  C            3.350517        5.224492        5.605606
  C           -1.145018       -2.033515        7.540248
  C            4.215985       -4.201651       13.101266
  C            1.796086       11.711651        0.049701
  C            5.408882       -0.466276       13.043122
  C           -5.332575        1.734605       13.064020
  C            1.482906        4.442604        7.078738
  C            3.125222        2.436827        8.154613
  C            5.424120       10.827594        5.058747
  C           -8.018869       10.319594        6.073436
  C            8.784652        0.919515        1.239780
  C           -2.508142        6.615249       11.963065
  C           -4.360552        7.730507        1.110303
  C           -7.351366        1.022025       11.821932
  C            7.441371        9.469644        5.112723
  C           12.991193       -2.694552        6.017481
  C            3.632637        3.298056        7.181208
  C            0.980621        3.578705        8.052889
  C            7.361766        0.489528       11.753548
  C           -3.089201        8.254946        1.152479
  C            4.438003       -6.388560       11.910676
  C            8.855538       -0.479663        1.318796
  N            8.938305       -1.077634        2.555968
  N            6.782516        0.288157       10.517426
  N            8.001283        4.757340        7.639127
  N            6.418775       -4.042078        9.284423
  O            7.234665        5.022637        5.076604
  O           -3.053924        1.423703        8.020113
  O            4.345224       -2.456407        9.695708
  O            0.426054        9.871897        3.422680
  O            1.318961        8.513079        5.002228
  O            2.776776       -2.264724        8.078087
  O            8.824398        4.755701        3.489805
  O           -3.903766        2.779752        9.624467
  O            6.156697        4.409127        2.505218
  O           -1.367975        1.993658       10.109628
  O            7.017801        6.727170        2.953185
  O           -3.056279        0.208461       10.609657
  O            1.659621       -2.837312       10.674383
  O            2.969458        9.121937        2.909279
  O            2.531624       -0.543378       10.208048
  O            1.322575        7.306972        2.398893
  O            4.575167        5.087631        5.244337
  O           -1.836144       -1.022528        7.923516
  O            4.066391       -3.610049       11.962095
  O            1.743514       11.006429        1.144350
  O            4.771026       -0.795498       11.956418
  O           -0.427504        9.094025        1.094098
  O            0.028867       -2.288059        7.991258
  O            2.574295        6.119616        5.117796
  O            9.199419        6.452785        1.083295
  O           -4.748114        1.988975       11.944029
  O            8.500254        3.672420        1.113292
  O           -2.542975        3.849240       12.015231
  O            4.269171        6.735574        3.019668
  O           -0.147093       -0.436062       10.017030
  O            6.748057        5.600086        0.071530
  O           -2.238358        1.302347       13.044892
  S          -16.666414        4.999058       -4.544774
  S          -18.889610        5.522055       -2.869580
  F          -15.924040        2.742623       -3.329835
  F          -14.292527        4.096304       -3.796243
  F          -15.614872        4.522770       -2.130801
  F          -20.111004        4.503639       -0.762955
  F          -20.150212        3.193161       -2.490836
  F          -18.327129        3.409758       -1.335776
  O          -16.191959        6.352888       -4.434005
  O          -16.498267        4.296362       -5.788980
  O          -20.147641        6.038040       -3.342855
  O          -18.090040        6.337929       -1.993512
  N          -18.127729        4.741801       -4.015215
  C          -15.569889        4.036760       -3.375182
  C          -19.392773        4.066966       -1.813975
  S           -7.917528        4.092053        5.307404
  S           -9.216705        6.536395        4.707628
  F           -7.512019        3.360542        2.773801
  F           -8.241336        1.776006        4.065762
  F           -9.596091        3.320941        3.371515
  F          -10.004038        7.941574        2.616592
  F           -7.853055        7.678762        2.709686
  F           -9.120336        6.032229        2.087080
  O           -8.926281        3.725042        6.265503
  O           -6.548637        3.724210        5.554246
  O           -9.010700        7.756684        5.443377
  O          -10.510927        5.907685        4.754243
  N           -7.955450        5.587955        4.814561
  C           -8.347578        3.089236        3.788937
  C           -9.026734        7.070711        2.929095
  S           11.977004      -12.228111        2.359782
  S           10.128896      -10.179732        1.718658
  F           14.061440      -10.611006        2.758268
  F           14.504735      -12.384136        1.587234
  F           13.430756      -10.728800        0.686903
  F           10.044095       -7.557080        1.433426
  F           10.541312       -8.182468        3.449891
  F           12.029542       -8.310733        1.877177
  O           11.577060      -13.021801        1.228263
  O           12.350445      -12.887882        3.582625
  O            8.756662      -10.171366        2.154288
  O           10.410177      -10.309029        0.312735
  N           11.035309      -11.014644        2.710159
  C           13.578816      -11.433286        1.813176
  C           10.727328       -8.465815        2.153549
  S           -0.234402       -2.177667        1.408474
  S            0.500241       -4.498446       -0.039518
  F           -1.008603       -3.458262        3.617406
  F           -2.354444       -1.884139        2.967276
  F           -2.315033       -3.781447        1.917117
  F            0.531283       -7.123083        0.238269
  F            1.812206       -6.097680        1.656806
  F           -0.338890       -6.088336        1.935033
  O           -0.974124       -1.647148        0.294206
  O            0.477572       -1.273609        2.272115
  O            1.658086       -4.580260       -0.891323
  O           -0.807339       -4.591388       -0.634542
  N            0.698661       -3.405600        1.086561
  C           -1.551944       -2.875700        2.536819
  C            0.636450       -6.030971        1.017637
  S           -9.733610       20.762836        6.206679
  S           -7.117121       20.312772        5.219853
  F          -10.391602       18.187918        6.442331
  F          -11.928034       19.434794        5.549864
  F          -10.190917       18.853747        4.388411
  F           -5.525916       18.311785        4.563374
  F           -6.067154       18.320503        6.663719
  F           -7.506087       17.671268        5.176212
  O          -10.012395       21.738001        5.186107
  O          -10.285552       20.947106        7.522547
  O           -5.969286       21.092721        5.603292
  O           -7.575713       20.376286        3.856725
  N           -8.223801       20.336115        6.349654
  C          -10.600522       19.218259        5.607454
  C           -6.528880       18.553347        5.427603
  S           24.549706      -11.691241        6.580546
  S           26.620501      -10.092427        5.495188
  F           25.941800      -12.564931        8.682315
  F           24.800056      -14.098457        7.654434
  F           26.640254      -13.348849        6.784994
  F           29.134285       -9.448258        5.977667
  F           27.772445       -8.808466        7.539884
  F           28.333070      -10.897626        7.379201
  O           24.261222      -12.285991        5.302546
  O           23.469265      -11.437580        7.496192
  O           26.408173       -8.797812        4.902096
  O           27.073122      -11.173338        4.658993
  N           25.489880      -10.427456        6.549318
  C           25.549880      -12.995201        7.472549
  C           28.036971       -9.796714        6.674564
  S           -3.056643        9.084972       -3.514025
  S           -4.046920       11.713859       -3.152491
  F           -3.373065        9.027507       -6.162660
  F           -4.029275        7.231409       -5.135411
  F           -5.240094        9.029285       -5.059760
  F           -5.059748       13.699447       -4.566163
  F           -3.017294       13.215355       -5.112515
  F           -4.643301       11.927436       -5.746610
  O           -3.861545        8.572364       -2.437178
  O           -1.745754        8.534153       -3.733731
  O           -3.481602       12.665095       -2.231385
  O           -5.379198       11.223533       -2.913593
  N           -2.965525       10.654769       -3.611457
  C           -3.983145        8.574556       -5.055906
  C           -4.190555       12.686663       -4.739243
  S           15.624150       16.730523       17.925949
  S           17.237010       16.480603       15.611079
  F           14.855789       14.176846       18.009865
  F           13.260973       15.611348       18.342409
  F           14.026805       15.284004       16.339783
  F           17.959237       14.658161       13.843611
  F           18.616561       14.202146       15.859657
  F           16.537811       13.921340       15.307699
  O           14.980214       17.913243       17.419239
  O           15.881167       16.621732       19.337406
  O           18.505490       17.140170       15.441376
  O           16.140476       16.854113       14.756350
  N           16.909204       16.263708       17.143149
  C           14.375886       15.370786       17.627154
  C           17.606959       14.712194       15.141365
  S           16.126962        1.164650        7.034198
  S           16.057565       -0.149327        9.542395
  F           15.283468       -0.921650        5.600824
  F           16.959443        0.151438        4.733986
  F           17.274594       -1.173688        6.421850
  F           15.505346       -2.520367       10.562236
  F           13.796452       -1.576973        9.616640
  F           15.359386       -2.459034        8.398479
  O           17.441966        1.692916        7.283059
  O           15.179916        1.958521        6.297330
  O           15.614126        0.472894       10.762671
  O           17.438538       -0.538187        9.423411
  N           15.395588        0.537347        8.280649
  C           16.428777       -0.284615        5.891891
  C           15.119736       -1.763227        9.518575
  S           11.023831       -8.939313       -3.210617
  S           10.721929      -11.693809       -2.624094
  F            9.778712       -9.016315       -5.569099
  F           11.623773       -7.872872       -5.558674
  F           11.689868      -10.040773       -5.556472
  F            9.728234      -13.888237       -3.702938
  F            8.227204      -12.372317       -3.311330
  F            9.578416      -12.150770       -4.993547
  O           12.418512       -8.958451       -2.857440
  O           10.242830       -7.766200       -2.920885
  O           10.418349      -12.207010       -1.313623
  O           11.999933      -12.001249       -3.211157
  N           10.195216      -10.211717       -2.790567
  C           11.028439       -8.981441       -5.079983
  C            9.488174      -12.564154       -3.721869
  S          -14.462299       -4.227837        2.129087
  S          -17.205118       -3.529059        2.023953
  F          -13.537853       -1.726133        2.203708
  F          -12.472099       -3.042796        0.846362
  F          -14.425452       -2.272997        0.302314
  F          -18.737368       -1.381306        1.945129
  F          -17.572942       -1.534757        3.768595
  F          -16.616175       -0.926568        1.919430
  O          -14.602351       -5.170441        1.051071
  O          -13.547233       -4.518484        3.200666
  O          -18.241299       -4.235806        2.730853
  O          -17.200616       -3.560949        0.584710
  N          -15.808681       -3.693214        2.748352
  C          -13.691178       -2.727383        1.322652
  C          -17.541014       -1.741733        2.445141
  S            2.918481       -8.138659        4.443852
  S            4.968972      -10.032374        4.925235
  F            0.967874       -9.533416        5.613670
  F            0.427366       -8.649431        3.706253
  F            1.685595      -10.415025        3.767097
  F            5.298465      -12.416095        6.009742
  F            4.650667      -10.911703        7.431582
  F            3.235091      -11.745752        6.015525
  O            3.301374       -7.989462        3.064951
  O            2.429352       -6.993121        5.163989
  O            6.313809       -9.681454        5.300919
  O            4.746019      -10.659845        3.648900
  N            3.945374       -8.907166        5.358698
  C            1.421450       -9.257244        4.380679
  C            4.503587      -11.342192        6.171250
  S           27.707950       -2.130144        4.090474
  S           26.301195        0.179425        4.932693
  F           28.663149       -1.070491        1.835829
  F           27.868669       -3.079405        1.623964
  F           26.518813       -1.391960        1.809928
  F           25.786319        2.636346        4.117042
  F           27.895412        2.278253        4.474756
  F           26.947690        1.482553        2.693353
  O           26.578379       -2.982685        4.350234
  O           29.035141       -2.632062        4.328689
  O           26.235500        0.625322        6.300074
  O           25.094052       -0.271197        4.290664
  N           27.610136       -0.669882        4.673676
  C           27.681842       -1.894760        2.235685
  C           26.770812        1.726351        3.999290
  S           -3.024848       11.461029       11.003281
  S           -0.977654       10.812092       12.849974
  F           -4.645660        9.446475       11.661486
  F           -4.425171        9.767657        9.526059
  F           -2.833863        8.815433       10.650858
  F           -0.410016        8.990096       14.673424
  F           -2.176292       10.155417       15.149618
  F           -2.273748        8.611331       13.629417
  O           -2.082105       11.626276        9.928961
  O           -4.183634       12.312171       11.056881
  O           -0.237327       11.789828       13.604175
  O           -0.283404       10.022966       11.866230
  N           -2.404143       11.364688       12.448099
  C           -3.766639        9.771570       10.700287
  C           -1.501289        9.576300       14.147428
  S            7.694756        6.362195       11.272460
  S            7.416707        9.017859       10.327717
  F           10.355676        6.278498       11.095863
  F            9.344453        4.511397       10.343135
  F            9.354131        6.337861        9.173476
  F            8.905061       11.008433        9.439311
  F            9.336006       10.469900       11.495700
  F           10.041243        9.212335        9.875242
  O            6.656629        5.882230       10.399442
  O            7.837839        5.778182       12.579579
  O            6.477672        9.967262       10.865971
  O            7.243693        8.561836        8.973255
  N            7.805134        7.928073       11.406248
  C            9.277968        5.854002       10.417177
  C            9.019889        9.973520       10.291928
  S           13.266692       14.712498       -4.200371
  S           10.606237       14.233297       -5.045799
  F           13.045397       17.368121       -4.068529
  F           14.865133       16.659315       -5.016145
  F           12.982099       16.585623       -6.089885
  F            8.413967       15.568774       -5.660047
  F            9.023653       15.829079       -3.594862
  F           10.096488       16.851157       -5.178873
  O           13.805253       13.840496       -5.210222
  O           13.908464       14.776979       -2.914264
  O            9.800210       13.136239       -4.577127
  O           10.996742       14.265694       -6.431048
  N           11.709022       14.624178       -3.981462
  C           13.544922       16.429064       -4.887623
  C            9.479006       15.708245       -4.849230
  S           17.201781        2.742325        3.157451
  S           15.193875        0.999606        2.180903
  F           15.846550        5.000282        2.728888
  F           17.928608        5.066791        2.118616
  F           16.476501        4.001092        0.910380
  F           12.784786        1.099516        1.107052
  F           12.855253        1.891788        3.124923
  F           13.644985        3.057018        1.474689
  O           18.228052        2.077110        2.399498
  O           17.519901        3.268209        4.458354
  O           14.866753       -0.266188        2.783917
  O           15.767188        1.012031        0.860442
  N           15.819840        1.990658        3.242845
  C           16.833722        4.284874        2.166793
  C           13.528887        1.816738        1.969079
  S           20.938627       20.049789       18.347960
  S           21.263834       17.368929       17.493777
  F           18.459864       19.746451       19.287328
  F           18.764151       21.540699       18.104152
  F           18.598104       19.611251       17.127513
  F           19.908927       15.105965       17.393435
  F           20.255718       15.806198       19.416767
  F           18.754545       16.766033       18.179874
  O           21.439232       20.567528       17.102338
  O           21.235348       20.750760       19.568902
  O           22.487475       16.623768       17.636284
  O           20.796853       17.690382       16.170503
  N           21.161348       18.508419       18.585929
  C           19.083695       20.236730       18.204402
  C           19.971120       16.203870       18.169270
  S          -12.854811        0.653612        1.239569
  S          -12.209612        2.679640       -0.631614
  F          -10.415156        0.466723        2.303452
  F          -11.368257       -1.438977        1.889052
  F          -10.537821       -0.264541        0.265709
  F          -10.133009        4.099495       -1.430727
  F          -10.668874        4.458749        0.640082
  F           -9.638596        2.631513        0.088317
  O          -13.532615       -0.131263        0.242179
  O          -13.359995        0.664013        2.586709
  O          -13.079816        3.779963       -0.955500
  O          -11.915778        1.704215       -1.648799
  N          -12.502874        2.131626        0.822832
  C          -11.194813       -0.186354        1.427157
  C          -10.571108        3.511289       -0.302335
  S           21.095792        4.976970        0.211786
  S           20.294835        2.430141       -0.734011
  F           19.505028        6.387999       -1.399784
  F           21.533384        7.145107       -1.243650
  F           21.122246        5.378934       -2.433507
  F           18.685676        1.361489       -2.532744
  F           17.635290        2.499213       -1.013948
  F           18.716864        3.530147       -2.586235
  O           22.490353        4.632973        0.127535
  O           20.647183        5.831144        1.279138
  O           20.098665        1.283821        0.114717
  O           21.364277        2.405770       -1.697420
  N           20.086130        3.775855        0.070498
  C           20.793522        6.022234       -1.308866
  C           18.741759        2.468189       -1.769033
  S           11.457836      -12.219483       16.555216
  S           11.768000      -10.919213       14.058118
  F           12.233469      -14.630052       15.714832
  F           10.464544      -14.638064       16.972871
  F           10.324123      -13.995657       14.906048
  F           12.463437      -11.467497       11.571634
  F           14.063521      -11.794037       12.999069
  F           12.428527      -13.212565       12.860210
  O           10.154721      -11.644002       16.757570
  O           12.320020      -12.419958       17.689478
  O           12.294562       -9.587855       13.906167
  O           10.392388      -11.165369       13.712350
  N           12.305585      -11.595692       15.382926
  C           11.100099      -13.966894       15.994049
  C           12.741893      -11.910401       12.811587
  S           13.835022        4.895505       17.865857
  S           11.347959        3.559841       17.635817
  F           12.821768        7.362036       17.956570
  F           14.547960        7.141815       16.659039
  F           12.610741        6.401570       16.023913
  F            8.771589        4.109256       17.470561
  F            9.662668        4.742364       19.343959
  F           10.026492        5.877968       17.532123
  O           14.410214        4.130145       16.791794
  O           14.664026        5.275727       18.978641
  O           11.035950        2.323298       18.304010
  O           11.427829        3.571313       16.198477
  N           12.459043        4.366185       18.421336
  C           13.419300        6.540121       17.079257
  C            9.876635        4.640764       18.025139
  S           19.744967      -11.249972       -1.292740
  S           22.469091      -11.994849       -1.508868
  F           18.904232      -12.643535       -3.406940
  F           18.106961      -10.628696       -3.278074
  F           20.154142      -10.947361       -3.919688
  F           24.050109      -13.430963       -3.059611
  F           22.524165      -14.610468       -2.067275
  F           21.997006      -13.356622       -3.756856
  O           20.078940       -9.860301       -1.126884
  O           18.616451      -11.789915       -0.582095
  O           23.310886      -12.296387       -0.380450
  O           22.766243      -10.833481       -2.305977
  N           20.947140      -12.260829       -1.170253
  C           19.207936      -11.377574       -3.079257
  C           22.764698      -13.433594       -2.660992
  S           19.407443        0.938863       10.593157
  S           17.606863        3.067935       10.095801
  F           19.436100        1.209575       13.247321
  F           21.389612        0.913606       12.348425
  F           20.403127        2.838896       12.192637
  F           16.263550        4.921569       11.409727
  F           15.670681        2.902213       11.934293
  F           17.536395        3.713984       12.685859
  O           20.312826        1.389794        9.569841
  O           19.245556       -0.473647       10.813868
  O           16.563692        3.022172        9.104555
  O           18.691042        3.998624        9.920215
  N           17.984099        1.614250       10.592017
  C           20.197726        1.518111       12.185719
  C           16.720883        3.673965       11.623064
  S           -5.036039       -0.941395        1.266753
  S           -2.773139        0.674196        1.806711
  F           -6.660972        1.066095        0.597225
  F           -7.550552       -0.416888        1.909181
  F           -6.140834        1.028188        2.702031
  F           -2.073687        3.219106        1.839031
  F           -2.643348        2.513633       -0.131314
  F           -4.166968        2.907930        1.361275
  O           -4.872182       -1.679763        2.490761
  O           -5.518250       -1.623409        0.095245
  O           -1.425799        0.313949        1.449269
  O           -3.120383        0.766884        3.200730
  N           -3.821596       -0.027272        0.852552
  C           -6.417938        0.260622        1.643368
  C           -2.931512        2.423346        1.174136
  S           17.382384       10.620663        6.413415
  S           14.602439       10.408457        5.914142
  F           17.581280       13.209321        5.798613
  F           19.155492       11.961899        4.975439
  F           17.174897       11.934920        4.091878
  F           12.582530       11.893930        5.089408
  F           13.451504       12.589399        6.951039
  F           14.482708       12.940849        5.075456
  O           17.666640        9.427970        5.660477
  O           18.166195       10.915116        7.583475
  O           13.697298        9.638362        6.726882
  O           14.836063        9.996905        4.554545
  N           15.863606       10.870822        6.749255
  C           17.838376       12.011443        5.249744
  C           13.740280       12.056617        5.755991
  S           -7.947835        8.160242       18.054498
  S          -10.459360        6.854168       18.148372
  F           -6.565651        6.049000       17.187945
  F           -5.609577        7.158956       18.789738
  F           -7.281768        5.847993       19.224845
  F          -11.512424        4.474268       17.707937
  F          -10.655457        5.372767       15.929518
  F           -9.359153        4.524145       17.447460
  O           -8.126150        8.720930       19.367535
  O           -7.259728        8.928373       17.051211
  O          -11.699711        7.469994       17.754470
  O          -10.269077        6.498244       19.530243
  N           -9.232411        7.520077       17.404800
  C           -6.794750        6.714492       18.331142
  C          -10.488602        5.218076       17.249980
  S          -14.771333       -7.615894        8.390825
  S          -13.606669      -10.178313        8.074645
  F          -17.141846       -8.254012        7.345758
  F          -16.334276       -6.358508        6.662592
  F          -15.528831       -8.221057        5.896867
  F          -14.209448      -12.563285        7.117872
  F          -15.455888      -11.973325        8.792029
  F          -15.785013      -11.098974        6.834505
  O          -13.618539       -6.960173        7.832859
  O          -15.496945       -6.974260        9.454731
  O          -12.742796      -10.793234        9.048537
  O          -13.061149       -9.817652        6.792152
  N          -14.581953       -9.136522        8.756724
  C          -16.010992       -7.623470        6.990998
  C          -14.843298      -11.522459        7.688922
  S           15.583959        4.194064       -5.773824
  S           18.218638        5.153334       -5.372990
  F           14.575874        5.188935       -3.512699
  F           13.980687        3.146782       -3.945349
  F           15.975969        3.562197       -3.203430
  F           19.625897        6.497392       -3.589740
  F           18.009520        7.656982       -4.454113
  F           17.578222        6.132550       -2.972627
  O           16.054301        2.879466       -6.121452
  O           14.420500        4.720822       -6.436388
  O           19.046145        5.689376       -6.422162
  O           18.613781        3.923865       -4.736810
  N           16.684002        5.320470       -5.717511
  C           15.006807        4.016327       -4.004182
  C           18.353281        6.435723       -4.023133
  S           18.223251       -7.512611        7.693487
  S           19.613646       -5.083229        8.126273
  F           15.823732       -6.402678        7.334252
  F           15.825674       -8.155198        8.615068
  F           16.557176       -6.257961        9.369763
  F           19.144295       -2.490122        8.275791
  F           18.703574       -3.327947        6.324310
  F           17.349917       -3.674023        7.983393
  O           18.835054       -8.133085        8.838451
  O           17.946248       -8.309559        6.528048
  O           20.930936       -4.809819        7.613570
  O           19.430118       -5.183896        9.550576
  N           18.864818       -6.150241        7.230460
  C           16.513992       -7.044761        8.290044
  C           18.641244       -3.565248        7.641577
  S           14.384675      -13.129231       10.025647
  S           15.342684      -12.166468        7.540148
  F           12.397069      -14.592753        9.012622
  F           11.853478      -13.410367       10.749946
  F           12.094239      -12.454385        8.818030
  F           14.782663      -12.323233        4.965531
  F           15.325433      -14.232221        5.840535
  F           13.365811      -13.383590        6.220554
  O           14.410952      -11.814604       10.609854
  O           14.705219      -14.267592       10.845092
  O           16.738660      -12.015457        7.221848
  O           14.520311      -10.988492        7.632519
  N           15.128191      -13.278108        8.644678
  C           12.581426      -13.408489        9.617435
  C           14.664057      -13.088905        6.065923
  S            7.736438       19.325828        4.735970
  S            9.650223       17.238057        4.703732
  F            8.147253       20.122144        2.222844
  F            7.997108       21.734668        3.668196
  F            9.805874       20.543177        3.554721
  F           11.429830       16.158597        3.080583
  F            9.392419       15.975062        2.359655
  F           10.421006       17.880227        2.229010
  O            8.219556       19.826448        5.995419
  O            6.328371       19.392964        4.447972
  O            9.450813       15.956472        5.328750
  O           10.672011       18.110830        5.220136
  N            8.268388       17.903349        4.316878
  C            8.472790       20.490582        3.472062
  C           10.245826       16.792167        2.991658
  S           13.177208       -2.815923       18.200930
  S           13.023876       -0.264343       16.980959
  F           10.750029       -3.631832       17.451407
  F           11.249435       -4.063402       19.519295
  F           10.720493       -2.044625       18.928598
  F           11.330133        1.208242       15.591867
  F           11.916360       -0.613478       14.571016
  F           10.503085       -0.698475       16.214226
  O           13.667553       -2.260015       19.434121
  O           13.660417       -4.100604       17.769411
  O           14.123625        0.366880       16.299065
  O           12.524884        0.330922       18.193034
  N           13.173147       -1.838891       16.965030
  C           11.368460       -3.147275       18.539991
  C           11.614043       -0.095276       15.769123
  S            9.545634        8.493560       15.133290
  S            7.394396       10.328706       14.969536
  F           11.350851       10.254146       16.005196
  F           12.062463        8.931978       14.437618
  F           10.736363       10.577821       13.950974
  F            6.895552       12.891151       15.359252
  F            7.495200       11.852074       17.166240
  F            8.977202       12.363106       15.667165
  O            9.270277        7.966041       13.823276
  O           10.024539        7.606863       16.160189
  O            6.040201       10.013698       15.343431
  O            7.685565       10.610341       13.588102
  N            8.426072        9.416359       15.747357
  C           10.999285        9.638676       14.865080
  C            7.717141       11.943903       15.848022
  S           28.499368        8.176937       10.516703
  S           28.095130        6.201929        8.527147
  F           26.200641        7.753928       11.803408
  F           26.687584        9.845637       11.488032
  F           25.952444        8.641603        9.840599
  F           26.286350        4.429372        7.783370
  F           27.101104        4.043751        9.756169
  F           25.661127        5.640619        9.471235
  O           28.889888        9.160577        9.541932
  O           29.135253        8.177324       11.807343
  O           29.135770        5.342333        8.026111
  O           27.499104        7.162626        7.635928
  N           28.420232        6.692367        9.995314
  C           26.730403        8.622386       10.927394
  C           26.709459        5.014106        8.919261
  S          -15.904945       15.778464       12.191968
  S          -13.132892       15.268153       12.470727
  F          -15.685434       18.431466       12.012836
  F          -17.278267       17.742921       13.316911
  F          -15.215083       17.646853       13.978884
  F          -10.845986       16.577938       12.616907
  F          -11.865907       16.846696       10.721651
  F          -12.576896       17.879893       12.491315
  O          -16.233298       14.911984       13.292708
  O          -16.797641       15.851224       11.065957
  O          -12.453529       14.162248       11.847582
  O          -13.228594       15.304044       13.906697
  N          -14.427138       15.672426       11.656339
  C          -16.015740       17.497622       12.918982
  C          -12.053821       16.730204       12.043206
  S           -9.154277       17.132391       -1.621625
  S           -6.400299       17.227761       -2.276538
  F          -10.030173       18.096624       -3.950090
  F          -10.987424       18.953190       -2.200294
  F           -8.975502       19.555911       -2.741644
  F           -4.823885       17.962426       -4.261993
  F           -6.160910       16.337511       -4.787805
  F           -6.923048       18.362597       -4.636542
  O           -8.930704       17.756246       -0.344498
  O          -10.173764       16.124176       -1.741004
  O           -5.451474       16.209940       -1.906884
  O           -6.267242       18.541822       -1.703828
  N           -7.862906       16.633554       -2.373675
  C           -9.813504       18.515661       -2.693217
  C           -6.069852       17.481530       -4.096199
  S            1.042007       19.008403        4.233572
  S            3.560455       19.593875        5.389879
  F            1.319545       16.355282        4.284651
  F            0.519512       17.144182        2.427395
  F            2.633211       17.343885        2.870744
  F            5.710434       18.346816        6.278295
  F            3.918419       17.868683        7.402810
  F            4.225612       17.008103        5.435643
  O            1.233835       19.976236        3.186321
  O           -0.278289       18.805659        4.768190
  O            3.777798       20.642706        6.351952
  O            4.176810       19.702372        4.093425
  N            2.063125       19.085871        5.430807
  C            1.410762       17.370310        3.410773
  C            4.388876       18.115477        6.172707
  S           -2.378680       18.458481       16.426710
  S           -4.161102       20.466742       17.327965
  F           -3.882452       17.647476       14.377409
  F           -3.019783       16.041611       15.555892
  F           -4.715064       17.158646       16.319056
  F           -6.528733       21.473836       16.738954
  F           -5.068427       21.740435       15.157531
  F           -5.970926       19.795101       15.482925
  O           -2.202358       17.937957       17.756446
  O           -1.264739       18.448798       15.516135
  O           -3.739824       21.755037       17.813445
  O           -4.793542       19.552873       18.243016
  N           -3.094966       19.858384       16.330472
  C           -3.576225       17.265436       15.627424
  C           -5.500153       20.888972       16.097751
  S           15.361851       -2.782127       -4.385162
  S           13.611329       -1.033604       -3.006488
  F           17.380589       -1.050289       -4.595226
  F           16.953656       -2.164161       -6.408741
  F           15.656976       -0.533609       -5.805346
  F           13.532342        1.448237       -2.111461
  F           15.071618        0.246998       -1.166941
  F           15.356335        0.979486       -3.188600
  O           14.332031       -3.176636       -5.309319
  O           16.336992       -3.753081       -3.965102
  O           12.752095       -1.444641       -1.926842
  O           13.013937       -0.592518       -4.239785
  N           14.873835       -1.979572       -3.120329
  C           16.390453       -1.553726       -5.349183
  C           14.451548        0.489788       -2.329677
  S           -8.269524       -9.604517       -1.603453
  S           -7.391885       -7.601726       -3.403725
  F           -6.282804      -11.315713       -2.096849
  F           -8.253769      -12.220945       -2.009231
  F           -7.661181      -11.076392       -3.753651
  F           -5.460956       -7.165241       -5.149532
  F           -4.739929       -7.398342       -3.117231
  F           -5.376335       -9.136652       -4.247707
  O           -9.620932       -9.531936       -2.091984
  O           -8.041528       -9.858960       -0.205820
  O           -7.452820       -6.190279       -3.126282
  O           -8.207943       -8.137099       -4.461970
  N           -7.312601       -8.441474       -2.065713
  C           -7.572931      -11.135011       -2.421177
  C           -5.640708       -7.845845       -4.002514
  S           24.859484       19.261680        6.598526
  S           26.674913       18.089932        8.429817
  F           23.045017       17.308946        6.713543
  F           23.485098       18.016104        4.709029
  F           24.893141       16.727768        5.739450
  F           26.939435       15.906983        9.889820
  F           25.224233       17.109526       10.452351
  F           25.158395       15.903151        8.650953
  O           25.907245       19.547615        5.654772
  O           23.764407       20.185292        6.732126
  O           27.409897       18.834220        9.419112
  O           27.399403       17.447711        7.364395
  N           25.334951       18.833483        8.038191
  C           24.030397       17.734837        5.907373
  C           25.946301       16.677782        9.409468
  S          -15.098552        1.335617        9.488558
  S          -16.302634       -1.101222       10.285051
  F          -14.504998        0.557412        7.006466
  F          -12.910458        1.621084        8.025222
  F          -13.339461       -0.442319        8.537560
  F          -16.815553       -3.505645        9.324575
  F          -17.833864       -1.920342        8.250182
  F          -15.711064       -2.245906        7.946144
  O          -14.309978        1.404835       10.690055
  O          -15.599472        2.552625        8.907119
  O          -17.482957       -1.182987       11.105431
  O          -15.056116       -1.593093       10.811086
  N          -16.255296        0.266042        9.491272
  C          -13.898350        0.721913        8.192714
  C          -16.688322       -2.247785        8.863291
  S          -14.823968       20.439376        4.226073
  S          -16.222286       18.563850        5.822791
  F          -16.987829       21.732664        3.352114
  F          -15.512939       21.300972        1.819089
  F          -16.796299       19.720475        2.566873
  F          -18.697740       17.910884        6.465139
  F          -18.146126       19.908044        7.106651
  F          -18.580913       19.522122        5.016977
  O          -14.010669       19.412383        3.631041
  O          -14.246128       21.732138        4.480968
  O          -15.774986       18.120068        7.117337
  O          -16.268016       17.614910        4.741181
  N          -15.658792       20.003592        5.489092
  C          -16.110882       20.811821        2.921671
  C          -18.009724       19.014153        6.117843
  S           22.109269       15.509081        9.691804
  S           20.977429       18.030455       10.311493
  F           19.791123       14.205478        9.478476
  F           21.321479       13.149489       10.598618
  F           20.267449       14.814668       11.504356
  F           18.613845       19.139482       10.699275
  F           18.876327       18.365878        8.690020
  F           18.512929       17.002689       10.337554
  O           23.062073       15.609021       10.765308
  O           22.498775       14.864576        8.465835
  O           21.474374       19.281118        9.799870
  O           21.071794       17.771806       11.724523
  N           21.335825       16.835533        9.339150
  C           20.791052       14.363688       10.360167
  C           19.142738       18.131019        9.982017
  S           -2.353438       20.534915        9.484675
  S            0.415995       21.023972        9.821520
  F           -2.091030       18.030828        8.601848
  F           -3.504583       19.239658        7.482733
  F           -1.372636       19.528308        7.207699
  F            2.734769       19.811844        9.473843
  F            1.468572       18.832297       10.937297
  F            1.038192       18.627490        8.821278
  O           -2.548233       21.782945        8.795684
  O           -3.391857       20.041694       10.349847
  O            0.972639       21.760302       10.926435
  O            0.521959       21.575489        8.495980
  N           -0.967829       20.366981       10.215388
  C           -2.316606       19.261720        8.115754
  C            1.463315       19.479758        9.764201
  S            2.358175       19.664157       -2.962051
  S            1.264741       17.191792       -2.116939
  F            0.248156       21.150310       -2.285396
  F            1.088995       21.609376       -4.233233
  F           -0.117547       19.827250       -3.964076
  F           -0.954760       16.221532       -1.068484
  F            0.061081       17.629405        0.231680
  F           -1.056739       18.348804       -1.482278
  O            2.782240       19.111472       -4.220996
  O            3.172817       20.664497       -2.325041
  O            2.022281       16.164979       -1.450112
  O            0.742595       16.926030       -3.431926
  N            1.904128       18.618111       -1.874997
  C            0.799155       20.607049       -3.382454
  C           -0.252999       17.369640       -1.044746
  S           -6.152705       -3.490180       15.023423
  S           -3.499776       -3.482420       14.031299
  F           -6.088787       -5.981428       15.976465
  F           -7.894585       -5.479235       14.881606
  F           -6.049926       -5.873341       13.811055
  F           -1.416017       -5.090428       13.833553
  F           -1.966589       -4.652291       15.885228
  F           -3.155243       -6.040209       14.716684
  O           -6.672799       -2.940934       13.799469
  O           -6.751075       -3.106742       16.274435
  O           -2.612365       -2.352242       14.121135
  O           -3.940536       -3.917433       12.731702
  N           -4.585751       -3.445627       15.180666
  C           -6.559080       -5.311936       14.912100
  C           -2.458063       -4.896861       14.662924
  S           24.351769        5.961329       -2.791079
  S           23.954514        8.616618       -1.888844
  F           27.018155        6.055196       -2.774795
  F           26.157577        5.133078       -4.541409
  F           26.110057        7.289026       -4.309465
  F           25.356969       10.750759       -1.221450
  F           25.719719        9.049435        0.074071
  F           26.580703        9.099456       -1.916134
  O           23.389663        6.116368       -3.849639
  O           24.467053        4.689336       -2.128625
  O           22.932683        9.001204       -0.950321
  O           23.876829        9.107967       -3.239769
  N           24.357211        7.098645       -1.700879
  C           26.003617        6.130815       -3.650730
  C           25.494542        9.412249       -1.195988
  S          -13.122267        8.822648       10.741254
  S          -11.077333        9.291710       12.644049
  F          -14.313873        6.852650       12.089540
  F          -14.061524        6.471078        9.967620
  F          -12.362683        6.320204       11.307523
  F          -10.229519        8.361291       14.964045
  F          -12.222351        9.212052       15.060432
  F          -11.918681        7.261682       14.161237
  O          -12.183851        8.812147        9.650613
  O          -14.435218        9.372530       10.531748
  O          -10.596783       10.601448       12.999757
  O          -10.185478        8.384233       11.970599
  N          -12.566662        9.356504       12.115429
  C          -13.476801        7.013268       11.052342
  C          -11.392510        8.486627       14.298518
