15
 i =       59, E =     -1553.1539139026
  S         1.0852477868       -2.5779862167        3.3152823066
  S         2.3943431367       -0.1641959478        4.2976400689
  F         2.2318581775       -2.6373105029        0.9422669369
  F         0.1113247302       -3.2673414022        0.9456923595
  F         0.6735647325       -1.1046890377        1.0731051778
  F         4.6310423369        1.2076362223        4.5687064342
  F         4.9985883564       -0.7556647149        3.6305355731
  F         4.0743615419        0.8884770266        2.4703922056
  O        -7.0068866354       12.4453952538        3.7167676114
  O        -3.0322352500      -11.1575658315       16.5938407871
  O         2.5292782655       -0.2031733005        5.7517342566
  O         1.4866400694        0.7893276476        3.6753318636
  N         2.3391723103       -1.6609052636        3.7026859065
  C         0.9977644689       -2.3696588858        1.4457142950
  C         4.1326737894        0.2916524396        3.6875951798
