15
 i =       92, E =     -1553.2108304719
  S         1.1342005204       -2.5828173422        3.3289862706
  S         2.4103908964       -0.2430367195        4.3279942974
  F         2.2438037446       -2.6944429168        0.8866221603
  F         0.1136206359       -3.2430263112        0.9373899535
  F         0.7086495485       -1.1368885465        1.0997284182
  F         4.6292656381        1.2081208741        4.5692225247
  F         5.0004571792       -0.7427285997        3.6350557159
  F         4.0471694272        0.8673097021        2.4791969977
  O        -6.6526837317       12.5605201796        3.7497459822
  O        -3.1881647692      -11.0627303095       16.6003562428
  O         2.5705514219       -0.2663565400        5.7814188099
  O         1.4811698965        0.7154146849        3.7431202669
  N         2.4313356074       -1.7270111142        3.7058819831
  C         1.0479332438       -2.4000205548        1.4643129117
  C         4.1149466608        0.2868986084        3.7045297943
