120
Lattice="32.018782 0.0 0.0 -14.043870532898428 28.753623292648026 0.0 -8.625062807759862 -14.478403582935226 26.22054754850901" Properties=species:S:1:pos:R:3 i=1 E=-1553.1926290931 pbc="T T T"
S       -1.10874824       0.07944265       1.94163873
S        1.22939896       0.84906133       0.52294806
F       12.38410336       0.06253124       1.20496992
F        9.30427009      -6.25747959      12.95398291
F        2.29616368       6.22474226      12.94169419
F        4.97926801       7.26541335      11.21476413
F       -2.43925484      -6.07602391      11.13443458
F       -9.38520860       6.49322060      11.71799969
O       -1.13624010       1.34817599       2.67144600
O       14.43637837      -1.69617894       2.68518523
O        2.59366986       0.60831373       0.98505552
O        0.74423205       2.21881393       0.37144077
N        0.21741372      -0.25425194       1.10473658
C       13.61138030      -0.22142622       0.68668378
C       -9.83420575       7.77660461      11.79784052
S       -5.42127964      -7.15975914      15.05191251
S       -3.08313244      -6.39014046      13.63322184
F        8.07157195      -7.17667056      14.31524370
F        4.99173869     -13.49668139      26.06425668
F       -2.01636773      -1.01445953      26.05196797
F        0.66673661       0.02621156      24.32503791
F       -6.75178624     -13.31522570      24.24470835
F      -13.69774001      -0.74598119      24.82827346
O       -5.44877151      -5.89102580      15.78171977
O       10.12384697      -8.93538073      15.79545900
O       -1.71886154      -6.63088806      14.09532930
O       -3.56829936      -5.02038786      13.48171454
N       -4.09511768      -7.49345373      14.21501036
C        9.29884890      -7.46062801      13.79695756
C      -14.14673715       0.53740282      24.90811430
S       -8.13068351      14.45625429       1.94163873
S       -5.79253631      15.22587298       0.52294806
F        5.36216809      14.43934288       1.20496992
F        2.28233483       8.11933205      12.95398291
F       -4.72577159      20.60155391      12.94169419
F       -2.04266725      21.64222500      11.21476413
F       -9.46119010       8.30078774      11.13443458
F      -16.40714387      20.87003225      11.71799969
O       -8.15817537      15.72498764       2.67144600
O        7.41444310      12.68063270       2.68518523
O       -4.42826540      14.98512538       0.98505552
O       -6.27770322      16.59562558       0.37144077
N       -6.80452155      14.12255971       1.10473658
C        6.58944504      14.15538543       0.68668378
C      -16.85614102      22.15341626      11.79784052
S      -12.44321491       7.21705250      15.05191251
S      -10.10506771       7.98667119      13.63322184
F        1.04963669       7.20014109      14.31524370
F       -2.03019658       0.88013026      26.06425668
F       -9.03830300      13.36235212      26.05196797
F       -6.35519866      14.40302321      24.32503791
F      -13.77372151       1.06158595      24.24470835
F      -20.71967527      13.63083046      24.82827346
O      -12.47070677       8.48578585      15.78171977
O        3.10191170       5.44143091      15.79545900
O       -8.74079681       7.74592358      14.09532930
O      -10.59023462       9.35642379      13.48171454
N      -11.11705295       6.88335792      14.21501036
C        2.27691363       6.91618364      13.79695756
C      -21.16867242      14.91421447      24.90811430
S       14.90064276       0.07944265       1.94163873
S       17.23878996       0.84906133       0.52294806
F       28.39349436       0.06253124       1.20496992
F       25.31366109      -6.25747959      12.95398291
F       18.30555468       6.22474226      12.94169419
F       20.98865901       7.26541335      11.21476413
F       13.57013616      -6.07602391      11.13443458
F        6.62418240       6.49322060      11.71799969
O       14.87315090       1.34817599       2.67144600
O       30.44576937      -1.69617894       2.68518523
O       18.60306086       0.60831373       0.98505552
O       16.75362305       2.21881393       0.37144077
N       16.22680472      -0.25425194       1.10473658
C       29.62077130      -0.22142622       0.68668378
C        6.17518525       7.77660461      11.79784052
S       10.58811136      -7.15975914      15.05191251
S       12.92625856      -6.39014046      13.63322184
F       24.08096295      -7.17667056      14.31524370
F       21.00112969     -13.49668139      26.06425668
F       13.99302327      -1.01445953      26.05196797
F       16.67612761       0.02621156      24.32503791
F        9.25760476     -13.31522570      24.24470835
F        2.31165099      -0.74598119      24.82827346
O       10.56061949      -5.89102580      15.78171977
O       26.13323797      -8.93538073      15.79545900
O       14.29052946      -6.63088806      14.09532930
O       12.44109164      -5.02038786      13.48171454
N       11.91427332      -7.49345373      14.21501036
C       25.30823990      -7.46062801      13.79695756
C        1.86265385       0.53740282      24.90811430
S        7.87870749      14.45625429       1.94163873
S       10.21685469      15.22587298       0.52294806
F       21.37155909      14.43934288       1.20496992
F       18.29172583       8.11933205      12.95398291
F       11.28361941      20.60155391      12.94169419
F       13.96672375      21.64222500      11.21476413
F        6.54820090       8.30078774      11.13443458
F       -0.39775287      20.87003225      11.71799969
O        7.85121563      15.72498764       2.67144600
O       23.42383410      12.68063270       2.68518523
O       11.58112560      14.98512538       0.98505552
O        9.73168778      16.59562558       0.37144077
N        9.20486945      14.12255971       1.10473658
C       22.59883604      14.15538543       0.68668378
C       -0.84675002      22.15341626      11.79784052
S        3.56617609       7.21705250      15.05191251
S        5.90432329       7.98667119      13.63322184
F       17.05902769       7.20014109      14.31524370
F       13.97919442       0.88013026      26.06425668
F        6.97108800      13.36235212      26.05196797
F        9.65419234      14.40302321      24.32503791
F        2.23566949       1.06158595      24.24470835
F       -4.71028427      13.63083046      24.82827346
O        3.53868423       8.48578585      15.78171977
O       19.11130270       5.44143091      15.79545900
O        7.26859419       7.74592358      14.09532930
O        5.41915638       9.35642379      13.48171454
N        4.89233805       6.88335792      14.21501036
C       18.28630463       6.91618364      13.79695756
C       -5.15928142      14.91421447      24.90811430
