40
 i =        1, E =     -1627.5533069358
  H        10.8885850704        9.4438749024       14.2543064944
  H        10.8898782849        8.7437410083       12.6221479312
  H        10.9279364172        7.1049678182       14.5731489569
  C        10.3072243043        8.8400888327       13.5461897553
  C         9.9798373053        7.4715636862       14.1500205472
  N         9.1159187164        9.6560337903       13.2110688619
  H        10.1125755968        6.3805806398       12.2973787954
  H        10.2904264510        4.6739025600       14.1556492418
  H         9.2950488296        7.5981658467       15.0013905447
  H         8.9705075743        9.3791605120       11.0745874413
  C         8.5846170256        9.8131436473       11.9866398961
  C         9.4351726935        6.4304193024       13.1632040018
  H         8.6685130371       10.4790541185       15.1531329031
  C         9.3140067434        5.0388838739       13.8055677618
  C         8.3924205460       10.4264245644       14.1087510378
  N         7.5383663093       10.6563348828       12.0772882984
  H         8.4564799059        6.7502508762       12.7763440322
  H         8.6348300255        5.0518261677       14.6690445160
  C         7.4042732574       11.0564800931       13.4001817309
  H         8.9199564641        4.2964786800       13.0975500814
  H         7.1775717749       10.8244014762       10.0205794394
  C         6.6667142411       11.0486246651       10.9627061546
  H         6.4648246074       12.1260068801       11.0150229610
  H         6.6353073774       11.7478612267       13.7246230070
  H         5.7273356299       10.4861262932       11.0153940835
  F         5.4079350727        3.4091063987       13.6920273435
  C         4.3716742035        3.0812295960       14.5120162431
  F         4.7766810265        2.0565959426       15.3164228321
  F         4.1034643771        4.1493662078       15.3109837735
  O         3.3760756858        1.5036041633       12.6489181497
  N         2.7378584034        3.9279485741       12.6496633331
  S         2.8772442821        2.5744997964       13.5024721255
  F         2.7450605478        6.5524247616       14.1565336218
  S         1.4242421691        4.8318664143       12.5788578827
  C         1.5222007991        5.9574093806       14.0761574768
  O         1.8309475963        2.2618843147       14.4744751346
  F         1.2965558202        5.2889416683       15.2372290596
  F         0.5891562010        6.9498225534       13.9779463023
  O         0.1801458403        4.0994140453       12.7653367555
  O         1.5672554019        5.7594968292       11.4662523892
