120
Lattice="32.018782 0.0 0.0 -14.043870532898428 28.753623292648026 0.0 -8.625062807759862 -14.478403582935226 26.22054754850901" Properties=species:S:1:pos:R:3 i=45 E=-1553.1943025755 pbc="T T T"
S       -1.11587820       0.09450860       1.93782063
S        1.27141057       0.84821700       0.54541838
F       12.38381616       0.06450939       1.21766933
F        9.31747322      -6.24921667      12.95324135
F        2.30829372       6.21724748      12.94639032
F        4.97281443       7.29658547      11.27304445
F       -2.42667552      -6.06201341      11.14306779
F       -9.38431747       6.49092187      11.73516316
O       -1.14415605       1.35296310       2.67328551
O       14.44400176      -1.68689669       2.68233073
O        2.61920062       0.57480323       1.02842906
O        0.82112472       2.23015083       0.43487137
N        0.23732769      -0.22927646       1.14450611
C       13.60789017      -0.21514583       0.67784634
C       -9.81649059       7.78325064      11.80830098
S       -5.42840960      -7.14469319      15.04809440
S       -3.04112083      -6.39098479      13.65569216
F        8.07128476      -7.17469240      14.32794310
F        5.00494181     -13.48841847      26.06351512
F       -2.00423768      -1.02195431      26.05666410
F        0.66028303       0.05738368      24.38331822
F       -6.73920693     -13.30121520      24.25334156
F      -13.69684888      -0.74827992      24.84543693
O       -5.45668745      -5.88623869      15.78355929
O       10.13147036      -8.92609848      15.79260451
O       -1.69333078      -6.66439856      14.13870284
O       -3.49140668      -5.00905096      13.54514514
N       -4.07520371      -7.46847825      14.25477989
C        9.29535876      -7.45434762      13.78812012
C      -14.12902199       0.54404885      24.91857475
S       -8.13781347      14.47132025       1.93782063
S       -5.75052470      15.22502864       0.54541838
F        5.36188089      14.44132103       1.21766933
F        2.29553795       8.12759497      12.95324135
F       -4.71364154      20.59405913      12.94639032
F       -2.04912084      21.67339712      11.27304445
F       -9.44861079       8.31479824      11.14306779
F      -16.40625274      20.86773352      11.73516316
O       -8.16609132      15.72977475       2.67328551
O        7.42206650      12.68991495       2.68233073
O       -4.40273464      14.95161488       1.02842906
O       -6.20081055      16.60696248       0.43487137
N       -6.78460757      14.14753519       1.14450611
C        6.58595490      14.16166581       0.67784634
C      -16.83842586      22.16006228      11.80830098
S      -12.45034487       7.23211846      15.04809440
S      -10.06305610       7.98582685      13.65569216
F        1.04934949       7.20211924      14.32794310
F       -2.01699346       0.88839318      26.06351512
F       -9.02617295      13.35485734      26.05666410
F       -6.36165224      14.43419533      24.38331822
F      -13.76114219       1.07559645      24.25334156
F      -20.71878414      13.62853173      24.84543693
O      -12.47862272       8.49057296      15.78355929
O        3.10953509       5.45071316      15.79260451
O       -8.71526605       7.71241309      14.13870284
O      -10.51334195       9.36776069      13.54514514
N      -11.09713898       6.90833340      14.25477989
C        2.27342350       6.92246402      13.78812012
C      -21.15095726      14.92086049      24.91857475
S       14.89351280       0.09450860       1.93782063
S       17.28080157       0.84821700       0.54541838
F       28.39320716       0.06450939       1.21766933
F       25.32686422      -6.24921667      12.95324135
F       18.31768472       6.21724748      12.94639032
F       20.98220543       7.29658547      11.27304445
F       13.58271548      -6.06201341      11.14306779
F        6.62507353       6.49092187      11.73516316
O       14.86523495       1.35296310       2.67328551
O       30.45339276      -1.68689669       2.68233073
O       18.62859162       0.57480323       1.02842906
O       16.83051572       2.23015083       0.43487137
N       16.24671869      -0.22927646       1.14450611
C       29.61728117      -0.21514583       0.67784634
C        6.19290041       7.78325064      11.80830098
S       10.58098140      -7.14469319      15.04809440
S       12.96827017      -6.39098479      13.65569216
F       24.08067576      -7.17469240      14.32794310
F       21.01433281     -13.48841847      26.06351512
F       14.00515332      -1.02195431      26.05666410
F       16.66967403       0.05738368      24.38331822
F        9.27018407     -13.30121520      24.25334156
F        2.31254212      -0.74827992      24.84543693
O       10.55270355      -5.88623869      15.78355929
O       26.14086136      -8.92609848      15.79260451
O       14.31606022      -6.66439856      14.13870284
O       12.51798432      -5.00905096      13.54514514
N       11.93418729      -7.46847825      14.25477989
C       25.30474976      -7.45434762      13.78812012
C        1.88036901       0.54404885      24.91857475
S        7.87157753      14.47132025       1.93782063
S       10.25886630      15.22502864       0.54541838
F       21.37127189      14.44132103       1.21766933
F       18.30492895       8.12759497      12.95324135
F       11.29574946      20.59405913      12.94639032
F       13.96027016      21.67339712      11.27304445
F        6.56078021       8.31479824      11.14306779
F       -0.39686174      20.86773352      11.73516316
O        7.84329968      15.72977475       2.67328551
O       23.43145750      12.68991495       2.68233073
O       11.60665636      14.95161488       1.02842906
O        9.80858045      16.60696248       0.43487137
N        9.22478343      14.14753519       1.14450611
C       22.59534590      14.16166581       0.67784634
C       -0.82903486      22.16006228      11.80830098
S        3.55904613       7.23211846      15.04809440
S        5.94633490       7.98582685      13.65569216
F       17.05874049       7.20211924      14.32794310
F       13.99239754       0.88839318      26.06351512
F        6.98321805      13.35485734      26.05666410
F        9.64773876      14.43419533      24.38331822
F        2.24824881       1.07559645      24.25334156
F       -4.70939314      13.62853173      24.84543693
O        3.53076828       8.49057296      15.78355929
O       19.11892609       5.45071316      15.79260451
O        7.29412495       7.71241309      14.13870284
O        5.49604905       9.36776069      13.54514514
N        4.91225202       6.90833340      14.25477989
C       18.28281450       6.92246402      13.78812012
C       -5.14156626      14.92086049      24.91857475
