200
Lattice="32.018782 0.0 0.0 -14.043870532898428 28.753623292648026 0.0 -8.625062807759862 -14.478403582935226 26.22054754850901" Properties=species:S:1:pos:R:3 i=194 E=-1376.2795438848 pbc="T T T"
N        2.63591132       3.15688001      12.44492357
N        1.34630870       4.27119392      13.80827091
C        2.29476925       3.31763512      13.73640039
C        1.07375301       4.72501633      12.53066614
C        0.67933652       4.71529632      15.03683939
H        2.71060469       2.77232516      14.57483953
H        0.32171602       5.48258727      12.34675548
H        0.17701833       5.66527542      14.83954825
H       -0.06253106       3.96632539      15.34007370
H        1.42481375       4.84916466      15.82596875
C        1.88748813       4.03146048      11.67566245
C        5.73944328       3.68747862      12.24337457
H        3.97677060       1.61524064      12.79868231
H        5.16881883       4.48400156      12.74273848
H        6.08102959       3.00700523      13.03785855
C        6.95690776       4.28972536      11.52620738
H        6.64834025       4.98803891      10.73479182
H        7.56850258       3.49696958      11.07060890
H        7.60461533       4.84413510      12.21899872
C        3.65228941       2.20942525      11.93634591
C        4.83552849       2.91455727      11.27526825
H        3.14787722       1.52568272      11.23990784
H        5.42091592       2.12955860      10.77234385
H        4.46914603       3.57374858      10.47479613
H        1.98726826       4.07581263      10.59917237
N       -1.67662008      -4.08232178      25.55519734
N       -2.96622270      -2.96800787      26.91854468
C       -2.01776216      -3.92156667      26.84667416
C       -3.23877839      -2.51418546      25.64093992
C       -3.63319489      -2.52390548      28.14711316
H       -1.60192671      -4.46687663      27.68511330
H       -3.99081539      -1.75661453      25.45702925
H       -4.13551308      -1.57392638      27.94982203
H       -4.37506246      -3.27287640      28.45034747
H       -2.88771765      -2.39003713      28.93624253
C       -2.42504328      -3.20774132      24.78593622
C        1.42691188      -3.55172317      25.35364834
H       -0.33576081      -5.62396115      25.90895609
H        0.85628742      -2.75520024      25.85301226
H        1.76849819      -4.23219656      26.14813233
C        2.64437635      -2.94947643      24.63648115
H        2.33580885      -2.25116288      23.84506559
H        3.25597117      -3.74223221      24.18088268
H        3.29208393      -2.39506669      25.32927249
C       -0.66024199      -5.02977654      25.04661968
C        0.52299709      -4.32464452      24.38554202
H       -1.16465418      -5.71351907      24.35018162
H        1.10838451      -5.10964319      23.88261762
H        0.15661463      -3.66545321      23.58506990
H       -2.32526315      -3.16338916      23.70944614
N       -4.38602394      17.53369165      12.44492357
N       -5.67562657      18.64800556      13.80827091
C       -4.72716602      17.69444677      13.73640039
C       -5.94818225      19.10182798      12.53066614
C       -6.34259875      19.09210796      15.03683939
H       -4.31133058      17.14913680      14.57483953
H       -6.70021925      19.85939891      12.34675548
H       -6.84491694      20.04208706      14.83954825
H       -7.08446632      18.34313704      15.34007370
H       -5.59712152      19.22597630      15.82596875
C       -5.13444714      18.40827212      11.67566245
C       -1.28249198      18.06429027      12.24337457
H       -3.04516467      15.99205229      12.79868231
H       -1.85311644      18.86081320      12.74273848
H       -0.94090567      17.38381687      13.03785855
C       -0.06502751      18.66653701      11.52620738
H       -0.37359502      19.36485056      10.73479182
H        0.54656731      17.87378122      11.07060890
H        0.58268006      19.22094675      12.21899872
C       -3.36964586      16.58623690      11.93634591
C       -2.18640677      17.29136892      11.27526825
H       -3.87405804      15.90249437      11.23990784
H       -1.60101935      16.50637025      10.77234385
H       -2.55278923      17.95056023      10.47479613
H       -5.03466701      18.45262428      10.59917237
N       -8.69855535      10.29448986      25.55519734
N       -9.98815797      11.40880377      26.91854468
C       -9.03969742      10.45524498      26.84667416
C      -10.26071366      11.86262619      25.64093992
C      -10.65513016      11.85290617      28.14711316
H       -8.62386198       9.90993501      27.68511330
H      -11.01275065      12.62019712      25.45702925
H      -11.15744834      12.80288527      27.94982203
H      -11.39699773      11.10393525      28.45034747
H       -9.90965292      11.98677451      28.93624253
C       -9.44697854      11.16907033      24.78593622
C       -5.59502339      10.82508847      25.35364834
H       -7.35769607       8.75285049      25.90895609
H       -6.16564784      11.62161141      25.85301226
H       -5.25343708      10.14461508      26.14813233
C       -4.37755891      11.42733522      24.63648115
H       -4.68612642      12.12564877      23.84506559
H       -3.76596409      10.63457943      24.18088268
H       -3.72985134      11.98174495      25.32927249
C       -7.68217726       9.34703511      25.04661968
C       -6.49893818      10.05216713      24.38554202
H       -8.18658945       8.66329258      24.35018162
H       -5.91355075       9.26716845      23.88261762
H       -6.86532064      10.71135844      23.58506990
H       -9.34719842      11.21342248      23.70944614
N       18.64530232       3.15688001      12.44492357
N       17.35569970       4.27119392      13.80827091
C       18.30416025       3.31763512      13.73640039
C       17.08314401       4.72501633      12.53066614
C       16.68872752       4.71529632      15.03683939
H       18.71999569       2.77232516      14.57483953
H       16.33110702       5.48258727      12.34675548
H       16.18640933       5.66527542      14.83954825
H       15.94685994       3.96632539      15.34007370
H       17.43420475       4.84916466      15.82596875
C       17.89687913       4.03146048      11.67566245
C       21.74883428       3.68747862      12.24337457
H       19.98616160       1.61524064      12.79868231
H       21.17820983       4.48400156      12.74273848
H       22.09042059       3.00700523      13.03785855
C       22.96629876       4.28972536      11.52620738
H       22.65773125       4.98803891      10.73479182
H       23.57789358       3.49696958      11.07060890
H       23.61400633       4.84413510      12.21899872
C       19.66168041       2.20942525      11.93634591
C       20.84491949       2.91455727      11.27526825
H       19.15726822       1.52568272      11.23990784
H       21.43030692       2.12955860      10.77234385
H       20.47853703       3.57374858      10.47479613
H       17.99665926       4.07581263      10.59917237
N       14.33277092      -4.08232178      25.55519734
N       13.04316830      -2.96800787      26.91854468
C       13.99162884      -3.92156667      26.84667416
C       12.77061261      -2.51418546      25.64093992
C       12.37619611      -2.52390548      28.14711316
H       14.40746429      -4.46687663      27.68511330
H       12.01857561      -1.75661453      25.45702925
H       11.87387792      -1.57392638      27.94982203
H       11.63432854      -3.27287640      28.45034747
H       13.12167335      -2.39003713      28.93624253
C       13.58434772      -3.20774132      24.78593622
C       17.43630288      -3.55172317      25.35364834
H       15.67363019      -5.62396115      25.90895609
H       16.86567842      -2.75520024      25.85301226
H       17.77788919      -4.23219656      26.14813233
C       18.65376735      -2.94947643      24.63648115
H       18.34519985      -2.25116288      23.84506559
H       19.26536217      -3.74223221      24.18088268
H       19.30147493      -2.39506669      25.32927249
C       15.34914901      -5.02977654      25.04661968
C       16.53238809      -4.32464452      24.38554202
H       14.84473682      -5.71351907      24.35018162
H       17.11777551      -5.10964319      23.88261762
H       16.16600563      -3.66545321      23.58506990
H       13.68412785      -3.16338916      23.70944614
N       11.62336706      17.53369165      12.44492357
N       10.33376443      18.64800556      13.80827091
C       11.28222498      17.69444677      13.73640039
C       10.06120875      19.10182798      12.53066614
C        9.66679225      19.09210796      15.03683939
H       11.69806042      17.14913680      14.57483953
H        9.30917175      19.85939891      12.34675548
H        9.16447406      20.04208706      14.83954825
H        8.92492468      18.34313704      15.34007370
H       10.41226948      19.22597630      15.82596875
C       10.87494386      18.40827212      11.67566245
C       14.72689902      18.06429027      12.24337457
H       12.96422633      15.99205229      12.79868231
H       14.15627456      18.86081320      12.74273848
H       15.06848533      17.38381687      13.03785855
C       15.94436349      18.66653701      11.52620738
H       15.63579598      19.36485056      10.73479182
H       16.55595831      17.87378122      11.07060890
H       16.59207106      19.22094675      12.21899872
C       12.63974514      16.58623690      11.93634591
C       13.82298423      17.29136892      11.27526825
H       12.13533296      15.90249437      11.23990784
H       14.40837165      16.50637025      10.77234385
H       13.45660177      17.95056023      10.47479613
H       10.97472399      18.45262428      10.59917237
N        7.31083565      10.29448986      25.55519734
N        6.02123303      11.40880377      26.91854468
C        6.96969358      10.45524498      26.84667416
C        5.74867734      11.86262619      25.64093992
C        5.35426084      11.85290617      28.14711316
H        7.38552902       9.90993501      27.68511330
H        4.99664035      12.62019712      25.45702925
H        4.85194266      12.80288527      27.94982203
H        4.61239327      11.10393525      28.45034747
H        6.09973808      11.98677451      28.93624253
C        6.56241246      11.16907033      24.78593622
C       10.41436761      10.82508847      25.35364834
H        8.65169493       8.75285049      25.90895609
H        9.84374316      11.62161141      25.85301226
H       10.75595392      10.14461508      26.14813233
C       11.63183209      11.42733522      24.63648115
H       11.32326458      12.12564877      23.84506559
H       12.24342691      10.63457943      24.18088268
H       12.27953966      11.98174495      25.32927249
C        8.32721374       9.34703511      25.04661968
C        9.51045282      10.05216713      24.38554202
H        7.82280155       8.66329258      24.35018162
H       10.09584025       9.26716845      23.88261762
H        9.14407036      10.71135844      23.58506990
H        6.66219258      11.21342248      23.70944614
