19
Coordinates from ORCA-job input E -344.475088453875
  N      -2.048904     -0.539512     -0.080456
  N      -0.266718      0.691736     -0.370189
  C      -3.095854     -1.547602     -0.298451
  C      -1.993784      0.353031      0.977611
  C      -0.875188      1.121516      0.796717
  C      -0.990447     -0.318365     -0.883063
  C       2.215799      0.746883     -0.074579
  C       1.016158      1.197572     -0.913175
  H       2.441814     -0.274491     -0.075642
  H      -4.064058     -1.047773     -0.417995
  H      -3.128335     -2.229854      0.558661
  H      -2.862928     -2.113354     -1.206058
  H      -2.747785      0.369399      1.754212
  H      -0.469707      1.930757      1.390347
  H      -0.761102     -0.861670     -1.790515
  H       3.104937      1.221577     -0.519085
  H       2.133528      1.160456      0.941358
  H       0.934681      2.291145     -0.956207
  H       1.087259      0.826622     -1.943451
19
Coordinates from ORCA-job input E -344.478494471136
  N      -2.037922     -0.535129     -0.079684
  N      -0.267816      0.688243     -0.364728
  C      -3.079778     -1.542603     -0.298049
  C      -1.987837      0.355293      0.970870
  C      -0.876829      1.119000      0.793194
  C      -0.986248     -0.314292     -0.873241
  C       2.208194      0.760101     -0.081569
  C       1.009178      1.197842     -0.910295
  H       2.389100     -0.309010     -0.078549
  H      -4.042036     -1.048516     -0.420775
  H      -3.113674     -2.218307      0.554648
  H      -2.844010     -2.105808     -1.197311
  H      -2.739399      0.373132      1.740098
  H      -0.478128      1.925581      1.382046
  H      -0.757282     -0.854538     -1.775318
  H       3.099160      1.220063     -0.521709
  H       2.130098      1.149400      0.934302
  H       0.927849      2.283178     -0.948357
  H       1.076746      0.834443     -1.935532
19
Coordinates from ORCA-job input E -344.479041908360
  N      -2.032904     -0.534484     -0.079695
  N      -0.264650      0.686607     -0.360941
  C      -3.073122     -1.542458     -0.298583
  C      -1.985875      0.356880      0.968436
  C      -0.876853      1.119308      0.793055
  C      -0.980608     -0.314893     -0.867270
  C       2.208478      0.768903     -0.087694
  C       1.006986      1.201732     -0.909923
  H       2.339996     -0.315397     -0.078162
  H      -4.034770     -1.050258     -0.425183
  H      -3.109654     -2.215524      0.554890
  H      -2.834495     -2.107462     -1.194848
  H      -2.738645      0.376280      1.735631
  H      -0.481975      1.927230      1.381606
  H      -0.749914     -0.855856     -1.768082
  H       3.105428      1.207386     -0.528187
  H       2.137505      1.139632      0.934301
  H       0.923167      2.286751     -0.943340
  H       1.071272      0.843694     -1.935971
19
Coordinates from ORCA-job input E -344.479141055193
  N      -2.031213     -0.534531     -0.080144
  N      -0.261928      0.687622     -0.359218
  C      -3.069711     -1.544522     -0.298380
  C      -1.986818      0.359122      0.967261
  C      -0.877586      1.121959      0.793325
  C      -0.977361     -0.314489     -0.865982
  C       2.209722      0.770870     -0.090807
  C       1.006250      1.206862     -0.909921
  H       2.311148     -0.316808     -0.077080
  H      -4.032421     -1.054024     -0.427296
  H      -3.106823     -2.216136      0.556782
  H      -2.829038     -2.111481     -1.193420
  H      -2.740629      0.379135      1.733970
  H      -0.484823      1.930861      1.382672
  H      -0.744899     -0.856271     -1.766350
  H       3.111938      1.193144     -0.533496
  H       2.145066      1.131793      0.935858
  H       0.919527      2.292653     -0.940120
  H       1.068963      0.852315     -1.937614
19
Coordinates from ORCA-job input E -344.479152413476
  N      -2.030943     -0.534476     -0.080391
  N      -0.261097      0.688411     -0.358506
  C      -3.068760     -1.545251     -0.298487
  C      -1.987559      0.359822      0.967094
  C      -0.878358      1.123400      0.793474
  C      -0.975734     -0.314857     -0.865322
  C       2.209909      0.770168     -0.091717
  C       1.005746      1.209714     -0.909679
  H       2.303209     -0.316776     -0.076764
  H      -4.031893     -1.055307     -0.428280
  H      -3.106050     -2.216369      0.557338
  H      -2.827318     -2.112918     -1.193130
  H      -2.741734      0.379878      1.733676
  H      -0.486436      1.932717      1.383159
  H      -0.742036     -0.857369     -1.765081
  H       3.114023      1.185912     -0.536612
  H       2.148650      1.129344      0.936111
  H       0.917119      2.295615     -0.938831
  H       1.068629      0.856416     -1.938013
19
Coordinates from ORCA-job input E -344.479154166488
  N      -2.030814     -0.534240     -0.080495
  N      -0.261121      0.689234     -0.358154
  C      -3.067762     -1.546000     -0.298187
  C      -1.988513      0.360797      0.966489
  C      -0.879244      1.124530      0.793293
  C      -0.975434     -0.314254     -0.865334
  C       2.209676      0.768766     -0.092110
  C       1.005520      1.211355     -0.909039
  H       2.300316     -0.317780     -0.077429
  H      -4.031304     -1.056847     -0.428319
  H      -3.104627     -2.216746      0.558014
  H      -2.825811     -2.113977     -1.192553
  H      -2.743010      0.380953      1.732798
  H      -0.487699      1.933909      1.383177
  H      -0.741021     -0.857083     -1.764748
  H       3.114598      1.181375     -0.538424
  H       2.150557      1.127693      0.935961
  H       0.916288      2.297188     -0.937096
  H       1.068769      0.859197     -1.937807
19
Coordinates from ORCA-job input E -344.479154532668
  N      -2.030770     -0.534119     -0.080504
  N      -0.261214      0.689575     -0.357887
  C      -3.067423     -1.546188     -0.298191
  C      -1.988858      0.361032      0.966355
  C      -0.879898      1.125204      0.793071
  C      -0.974954     -0.314427     -0.864871
  C       2.209540      0.768079     -0.092433
  C       1.005397      1.212192     -0.908550
  H       2.299215     -0.318519     -0.078169
  H      -4.031081     -1.057308     -0.428422
  H      -3.104147     -2.216856      0.558062
  H      -2.825283     -2.114174     -1.192491
  H      -2.743519      0.381247      1.732489
  H      -0.488739      1.934865      1.382817
  H      -0.739969     -0.857656     -1.763896
  H       3.114711      1.179255     -0.539628
  H       2.151678      1.127085      0.935640
  H       0.915865      2.297966     -0.935768
  H       1.068812      0.860819     -1.937586
19
Coordinates from ORCA-job input E -344.479154659523
  N      -2.030684     -0.534035     -0.080464
  N      -0.261377      0.689902     -0.357797
  C      -3.066996     -1.546485     -0.298012
  C      -1.989311      0.361534      0.966003
  C      -0.880331      1.125684      0.792885
  C      -0.974812     -0.314299     -0.864700
  C       2.209435      0.767448     -0.092695
  C       1.005350      1.212652     -0.908165
  H       2.298593     -0.319332     -0.079160
  H      -4.030799     -1.057938     -0.428293
  H      -3.103488     -2.217053      0.558315
  H      -2.824686     -2.114490     -1.192236
  H      -2.744223      0.381964      1.731871
  H      -0.489369      1.935486      1.382551
  H      -0.739511     -0.857738     -1.763499
  H       3.114729      1.178107     -0.540147
  H       2.152246      1.126136      0.935494
  H       0.915927      2.298426     -0.934431
  H       1.068673      0.862105     -1.937479
19
Coordinates from ORCA-job input E -344.479154726671
  N      -2.030601     -0.533977     -0.080414
  N      -0.261517      0.690191     -0.357770
  C      -3.066638     -1.546707     -0.297853
  C      -1.989619      0.361877      0.965776
  C      -0.880824      1.126277      0.792583
  C      -0.974648     -0.314285     -0.864492
  C       2.209387      0.766862     -0.092932
  C       1.005344      1.212979     -0.907867
  H       2.298120     -0.320072     -0.080184
  H      -4.030585     -1.058436     -0.427987
  H      -3.102827     -2.217321      0.558439
  H      -2.824294     -2.114591     -1.192129
  H      -2.744704      0.382440      1.731459
  H      -0.490159      1.936385      1.382036
  H      -0.739068     -0.857952     -1.763059
  H       3.114774      1.177328     -0.540383
  H       2.152625      1.125026      0.935449
  H       0.916154      2.298793     -0.933165
  H       1.068445      0.863257     -1.937468
19
Coordinates from ORCA-job input E -344.479154749812
  N      -2.030486     -0.533915     -0.080337
  N      -0.261682      0.690615     -0.357779
  C      -3.066185     -1.547006     -0.297620
  C      -1.990055      0.362410      0.965449
  C      -0.881399      1.127029      0.792241
  C      -0.974366     -0.314338     -0.864189
  C       2.209325      0.766063     -0.093275
  C       1.005332      1.213416     -0.907566
  H       2.297601     -0.320971     -0.081692
  H      -4.030330     -1.059081     -0.427544
  H      -3.101978     -2.217684      0.558634
  H      -2.823821     -2.114740     -1.191978
  H      -2.745396      0.383181      1.730868
  H      -0.491100      1.937517      1.381427
  H      -0.738394     -0.858348     -1.762444
  H       3.114819      1.176573     -0.540473
  H       2.152894      1.123249      0.935458
  H       0.916539      2.299297     -0.931572
  H       1.068045      0.864808     -1.937567
