SimulationType                MonteCarlo
NumberOfCycles                200000
NumberOfInitializationCycles  20000
PrintEvery                    10000
RestartFile                   no

Forcefield                    GarciaPerez2006ForceField
UseChargesFromCIFFile yes

Framework 0
FrameworkName BAMOF_OPT_with_charge
UnitCells 2 2 3
ExternalTemperature    77.0
ExternalPressure    10100.0

Component 0 MoleculeName             N2
            MoleculeDefinition       ExampleDefinitions
            FugacityCoefficient      1.0
            TranslationProbability   0.5
            RotationProbability      0.5
            ReinsertionProbability   0.5
            SwapProbability          1.0
            CreateNumberOfMolecules  0


