15

S   1.160219  0.171179  0.907809
S   1.854038 -0.812879  3.471527
F   1.618487  2.740966  1.459963
F  -0.220796  2.365327  0.370123
F  -0.104326  1.920064  2.489637
F   2.643287  0.077492  5.827620
F   4.061781  0.488312  4.239046
F   2.243908  1.660683  4.399015
O  -7.072744  13.771759  0.874719
O  -2.419382 -6.859211  12.797811
O   2.588431 -2.031458  3.691985
O   0.487096 -0.735942  3.916507
N   2.179793 -0.201843  2.049466
C   0.582334  1.895394  1.343075
C   2.755952  0.429463  4.533553