25
 i =        1, E =     -1375.7538864183
  H        11.0249858121       11.4773468005       14.7037535520
  H        10.8224613754       10.0184839741       13.9961050414
  H        11.4612919540        9.3419350484       16.2568602706
  C        10.2963046735       10.3172890616       14.9390932382
  C        10.3660860490        9.4538612841       16.1608754565
  N         9.0248638908       10.9409378974       14.5009726906
  H         9.8486831755        7.8594423789       15.1542321776
  H        10.8016882087        7.3878555732       17.4927573674
  H        10.1256276336       10.1862777940       16.9583935749
  H         8.4810144572        9.7989382124       12.7356641512
  C         8.2743846421       10.6205878726       13.3888956412
  C         9.4648060075        8.2970730553       16.0922638720
  H         8.8371994430       12.5818628219       15.9462331009
  C         9.7255186759        7.6289015435       17.4251305267
  C         8.2541051709       11.7498810300       15.3240363659
  N         7.1132253024       11.2754870368       13.5196340517
  H         8.5044689795        8.8368398113       15.9423869265
  H         9.4828949545        8.3242459995       18.2499845636
  C         7.1066714845       12.0519899057       14.6566816226
  H         9.0857514359        6.7540067730       17.3928372578
  H         6.0547662008       10.3410162608       12.0757726930
  C         5.8744748630       11.1512967767       12.7753598699
  H         5.6851555268       12.1117516122       12.2761663809
  H         6.3612322315       12.8476181766       14.9078125956
  H         5.0518306475       10.9294223315       13.4708926533
