200
Lattice="32.018782 0.0 0.0 -14.043870532898428 28.753623292648026 0.0 -8.625062807759862 -14.478403582935226 26.22054754850901" Properties=species:S:1:pos:R:3 i=52 E=-1376.2793533296 pbc="T T T"
N        2.62458043       3.15070935      12.46264295
N        1.34600205       4.28371430      13.82079370
C        2.29031220       3.32559852      13.75403940
C        1.06905199       4.72586062      12.53999069
C        0.68353733       4.73953394      15.04738746
H        2.70763071       2.78680626      14.59612966
H        0.31932254       5.48480100      12.35204329
H        0.18982951       5.69323836      14.84606920
H       -0.06494216       3.99830294      15.35332933
H        1.43031702       4.86933305      15.83601761
C        1.87597791       4.02050346      11.68821175
C        5.73024532       3.67113469      12.24627708
H        3.96244364       1.60798566      12.82369537
H        5.16447645       4.47259152      12.74316836
H        6.07401328       2.99501264      13.04344957
C        6.94598262       4.26484522      11.51868846
H        6.63514855       4.95994849      10.72538550
H        7.55148675       3.46727501      11.06362184
H        7.59986910       4.82037682      12.20459511
C        3.63678511       2.19684315      11.95805824
C        4.81947489       2.89449726      11.28761187
H        3.12847421       1.50970451      11.26769584
H        5.40030923       2.10518106      10.78655966
H        4.45146241       3.54994735      10.48485303
H        1.97175075       4.05425787      10.61088217
N       -1.68795097      -4.08849244      25.57291672
N       -2.96652935      -2.95548749      26.93106748
C       -2.02221920      -3.91360327      26.86431317
C       -3.24347941      -2.51334117      25.65026447
C       -3.62899408      -2.49966785      28.15766123
H       -1.60490069      -4.45239553      27.70640343
H       -3.99320886      -1.75440079      25.46231706
H       -4.12270190      -1.54596343      27.95634297
H       -4.37747356      -3.24089885      28.46360310
H       -2.88221439      -2.36986874      28.94629138
C       -2.43655349      -3.21869833      24.79848552
C        1.41771392      -3.56806710      25.35655086
H       -0.35008776      -5.63121613      25.93396914
H        0.85194505      -2.76661027      25.85344214
H        1.76148187      -4.24418915      26.15372334
C        2.63345122      -2.97435658      24.62896223
H        2.32261715      -2.27925330      23.83565927
H        3.23895535      -3.77192678      24.17389562
H        3.28733770      -2.41882497      25.31486889
C       -0.67574629      -5.04235864      25.06833202
C        0.50694349      -4.34470453      24.39788564
H       -1.18405719      -5.72949728      24.37796962
H        1.08777783      -5.13402073      23.89683343
H        0.13893101      -3.68925444      23.59512680
H       -2.34078066      -3.18494392      23.72115595
N       -4.39735483      17.52752099      12.46264295
N       -5.67593321      18.66052595      13.82079370
C       -4.73162306      17.70241017      13.75403940
C       -5.95288327      19.10267227      12.53999069
C       -6.33839794      19.11634559      15.04738746
H       -4.31430456      17.16361790      14.59612966
H       -6.70261272      19.86161265      12.35204329
H       -6.83210576      20.07005001      14.84606920
H       -7.08687742      18.37511459      15.35332933
H       -5.59161825      19.24614470      15.83601761
C       -5.14595735      18.39731511      11.68821175
C       -1.29168995      18.04794634      12.24627708
H       -3.05949162      15.98479731      12.82369537
H       -1.85745881      18.84940317      12.74316836
H       -0.94792199      17.37182429      13.04344957
C       -0.07595264      18.64165686      11.51868846
H       -0.38678671      19.33676014      10.72538550
H        0.52955148      17.84408666      11.06362184
H        0.57793384      19.19718847      12.20459511
C       -3.38515016      16.57365480      11.95805824
C       -2.20246037      17.27130890      11.28761187
H       -3.89346105      15.88651616      11.26769584
H       -1.62162603      16.48199271      10.78655966
H       -2.57047286      17.92675900      10.48485303
H       -5.05018452      18.43106952      10.61088217
N       -8.70988624      10.28831920      25.57291672
N       -9.98846462      11.42132415      26.93106748
C       -9.04415447      10.46320838      26.86431317
C      -10.26541468      11.86347048      25.65026447
C      -10.65092934      11.87714379      28.15766123
H       -8.62683596       9.92441611      27.70640343
H      -11.01514413      12.62241086      25.46231706
H      -11.14463716      12.83084822      27.95634297
H      -11.39940883      11.13591280      28.46360310
H       -9.90414965      12.00694291      28.94629138
C       -9.45848876      11.15811332      24.79848552
C       -5.60422135      10.80874455      25.35655086
H       -7.37202303       8.74559552      25.93396914
H       -6.16999022      11.61020138      25.85344214
H       -5.26045339      10.13262250      26.15372334
C       -4.38848405      11.40245507      24.62896223
H       -4.69931812      12.09755835      23.83565927
H       -3.78297992      10.60488487      24.17389562
H       -3.73459757      11.95798667      25.31486889
C       -7.69768156       9.33445300      25.06833202
C       -6.51499178      10.03210711      24.39788564
H       -8.20599246       8.64731437      24.37796962
H       -5.93415744       9.24279092      23.89683343
H       -6.88300426      10.68755721      23.59512680
H       -9.36271592      11.19186773      23.72115595
N       18.63397143       3.15070935      12.46264295
N       17.35539305       4.28371430      13.82079370
C       18.29970320       3.32559852      13.75403940
C       17.07844299       4.72586062      12.53999069
C       16.69292833       4.73953394      15.04738746
H       18.71702171       2.78680626      14.59612966
H       16.32871354       5.48480100      12.35204329
H       16.19922051       5.69323836      14.84606920
H       15.94444884       3.99830294      15.35332933
H       17.43970802       4.86933305      15.83601761
C       17.88536891       4.02050346      11.68821175
C       21.73963632       3.67113469      12.24627708
H       19.97183464       1.60798566      12.82369537
H       21.17386745       4.47259152      12.74316836
H       22.08340428       2.99501264      13.04344957
C       22.95537362       4.26484522      11.51868846
H       22.64453955       4.95994849      10.72538550
H       23.56087775       3.46727501      11.06362184
H       23.60926010       4.82037682      12.20459511
C       19.64617611       2.19684315      11.95805824
C       20.82886589       2.89449726      11.28761187
H       19.13786521       1.50970451      11.26769584
H       21.40970023       2.10518106      10.78655966
H       20.46085341       3.54994735      10.48485303
H       17.98114175       4.05425787      10.61088217
N       14.32144003      -4.08849244      25.57291672
N       13.04286165      -2.95548749      26.93106748
C       13.98717180      -3.91360327      26.86431317
C       12.76591159      -2.51334117      25.65026447
C       12.38039692      -2.49966785      28.15766123
H       14.40449031      -4.45239553      27.70640343
H       12.01618214      -1.75440079      25.46231706
H       11.88668910      -1.54596343      27.95634297
H       11.63191744      -3.24089885      28.46360310
H       13.12717661      -2.36986874      28.94629138
C       13.57283751      -3.21869833      24.79848552
C       17.42710492      -3.56806710      25.35655086
H       15.65930324      -5.63121613      25.93396914
H       16.86133605      -2.76661027      25.85344214
H       17.77087287      -4.24418915      26.15372334
C       18.64284222      -2.97435658      24.62896223
H       18.33200815      -2.27925330      23.83565927
H       19.24834635      -3.77192678      24.17389562
H       19.29672870      -2.41882497      25.31486889
C       15.33364471      -5.04235864      25.06833202
C       16.51633449      -4.34470453      24.39788564
H       14.82533381      -5.72949728      24.37796962
H       17.09716883      -5.13402073      23.89683343
H       16.14832201      -3.68925444      23.59512680
H       13.66861034      -3.18494392      23.72115595
N       11.61203617      17.52752099      12.46264295
N       10.33345779      18.66052595      13.82079370
C       11.27776794      17.70241017      13.75403940
C       10.05650773      19.10267227      12.53999069
C        9.67099306      19.11634559      15.04738746
H       11.69508644      17.16361790      14.59612966
H        9.30677828      19.86161265      12.35204329
H        9.17728524      20.07005001      14.84606920
H        8.92251358      18.37511459      15.35332933
H       10.41777275      19.24614470      15.83601761
C       10.86343365      18.39731511      11.68821175
C       14.71770105      18.04794634      12.24627708
H       12.94989938      15.98479731      12.82369537
H       14.15193219      18.84940317      12.74316836
H       15.06146901      17.37182429      13.04344957
C       15.93343836      18.64165686      11.51868846
H       15.62260429      19.33676014      10.72538550
H       16.53894248      17.84408666      11.06362184
H       16.58732484      19.19718847      12.20459511
C       12.62424084      16.57365480      11.95805824
C       13.80693063      17.27130890      11.28761187
H       12.11592995      15.88651616      11.26769584
H       14.38776497      16.48199271      10.78655966
H       13.43891814      17.92675900      10.48485303
H       10.95920648      18.43106952      10.61088217
N        7.29950476      10.28831920      25.57291672
N        6.02092638      11.42132415      26.93106748
C        6.96523653      10.46320838      26.86431317
C        5.74397632      11.86347048      25.65026447
C        5.35846166      11.87714379      28.15766123
H        7.38255504       9.92441611      27.70640343
H        4.99424687      12.62241086      25.46231706
H        4.86475384      12.83084822      27.95634297
H        4.60998217      11.13591280      28.46360310
H        6.10524135      12.00694291      28.94629138
C        6.55090224      11.15811332      24.79848552
C       10.40516965      10.80874455      25.35655086
H        8.63736797       8.74559552      25.93396914
H        9.83940078      11.61020138      25.85344214
H       10.74893761      10.13262250      26.15372334
C       11.62090695      11.40245507      24.62896223
H       11.31007288      12.09755835      23.83565927
H       12.22641108      10.60488487      24.17389562
H       12.27479343      11.95798667      25.31486889
C        8.31170944       9.33445300      25.06833202
C        9.49439922      10.03210711      24.39788564
H        7.80339854       8.64731437      24.37796962
H       10.07523356       9.24279092      23.89683343
H        9.12638674      10.68755721      23.59512680
H        6.64667508      11.19186773      23.72115595
