120
Lattice="32.008514 0.0 0.0 -12.398571412536722 30.280097380190625 0.0 -9.472523905389702 -14.929449512315577 26.824217628519282" Properties=species:S:1:pos:R:3 i=12 E=-1648.7661054389 pbc="T T T"
S        2.77816482       4.36432400       2.34038911
S        4.57968557       2.11496662       2.49766748
F        0.53866900       2.99602920       1.84112650
F        0.90612996       4.70300162       0.48928412
F        2.02308121       2.83047824       0.22817506
F        4.34456331      -0.51421019       2.07083105
F        3.41270260       0.15730046       3.94710237
F        2.42466376       0.53640722       2.01094697
O        3.64810173       5.18038580       1.48361297
O        1.94292823       5.03611643       3.32340602
O        5.63925735       1.93935239       3.48623930
O        4.92048869       2.22863458       1.08637882
N        3.45676847       3.11667708       3.06205603
C        1.50096832       3.67157533       1.15349872
C        3.62764714       0.49355176       2.64257866
S       -1.95809713      -3.10040075      15.75249792
S       -0.15657638      -5.34975814      15.90977629
F       -4.19759295      -4.46869555      15.25323531
F       -3.83013199      -2.76172314      13.90139293
F       -2.71318074      -4.63424651      13.64028388
F       -0.39169864      -7.97893495      15.48293986
F       -1.32355935      -7.30742430      17.35921118
F       -2.31159819      -6.92831754      15.42305578
O       -1.08816022      -2.28433896      14.89572178
O       -2.79333372      -2.42860832      16.73551483
O        0.90299539      -5.52537237      16.89834811
O        0.18422673      -5.23609018      14.49848764
N       -1.27949348      -4.34804768      16.47416484
C       -3.23529363      -3.79314943      14.56560754
C       -1.10861481      -6.97117299      16.05468748
S       -3.42112089      19.50437269       2.34038911
S       -1.61960013      17.25501531       2.49766748
F       -5.66061671      18.13607789       1.84112650
F       -5.29315575      19.84305031       0.48928412
F       -4.17620449      17.97052693       0.22817506
F       -1.85472239      14.62583850       2.07083105
F       -2.78658310      15.29734915       3.94710237
F       -3.77462194      15.67645591       2.01094697
O       -2.55118397      20.32043449       1.48361297
O       -4.25635748      20.17616512       3.32340602
O       -0.56002836      17.07940108       3.48623930
O       -1.27879702      17.36868327       1.08637882
N       -2.74251724      18.25672577       3.06205603
C       -4.69831739      18.81162402       1.15349872
C       -2.57163857      15.63360045       2.64257866
S       -8.15738284      12.03964794      15.75249792
S       -6.35586209       9.79029055      15.90977629
F      -10.39687866      10.67135314      15.25323531
F      -10.02941770      12.37832555      13.90139293
F       -8.91246645      10.50580218      13.64028388
F       -6.59098435       7.16111374      15.48293986
F       -7.52284506       7.83262439      17.35921118
F       -8.51088390       8.21173115      15.42305578
O       -7.28744593      12.85570973      14.89572178
O       -8.99261943      12.71144037      16.73551483
O       -5.29629031       9.61467632      16.89834811
O       -6.01505897       9.90395851      14.49848764
N       -7.47877919      10.79200101      16.47416484
C       -9.43457934      11.34689926      14.56560754
C       -7.30790052       8.16887570      16.05468748
S       18.78242182       4.36432400       2.34038911
S       20.58394257       2.11496662       2.49766748
F       16.54292600       2.99602920       1.84112650
F       16.91038696       4.70300162       0.48928412
F       18.02733821       2.83047824       0.22817506
F       20.34882031      -0.51421019       2.07083105
F       19.41695960       0.15730046       3.94710237
F       18.42892076       0.53640722       2.01094697
O       19.65235873       5.18038580       1.48361297
O       17.94718523       5.03611643       3.32340602
O       21.64351435       1.93935239       3.48623930
O       20.92474569       2.22863458       1.08637882
N       19.46102547       3.11667708       3.06205603
C       17.50522532       3.67157533       1.15349872
C       19.63190414       0.49355176       2.64257866
S       14.04615987      -3.10040075      15.75249792
S       15.84768062      -5.34975814      15.90977629
F       11.80666405      -4.46869555      15.25323531
F       12.17412501      -2.76172314      13.90139293
F       13.29107626      -4.63424651      13.64028388
F       15.61255836      -7.97893495      15.48293986
F       14.68069765      -7.30742430      17.35921118
F       13.69265881      -6.92831754      15.42305578
O       14.91609678      -2.28433896      14.89572178
O       13.21092328      -2.42860832      16.73551483
O       16.90725239      -5.52537237      16.89834811
O       16.18848373      -5.23609018      14.49848764
N       14.72476352      -4.34804768      16.47416484
C       12.76896337      -3.79314943      14.56560754
C       14.89564219      -6.97117299      16.05468748
S       12.58313611      19.50437269       2.34038911
S       14.38465687      17.25501531       2.49766748
F       10.34364029      18.13607789       1.84112650
F       10.71110125      19.84305031       0.48928412
F       11.82805251      17.97052693       0.22817506
F       14.14953461      14.62583850       2.07083105
F       13.21767390      15.29734915       3.94710237
F       12.22963506      15.67645591       2.01094697
O       13.45307303      20.32043449       1.48361297
O       11.74789952      20.17616512       3.32340602
O       15.44422864      17.07940108       3.48623930
O       14.72545998      17.36868327       1.08637882
N       13.26173976      18.25672577       3.06205603
C       11.30593961      18.81162402       1.15349872
C       13.43261843      15.63360045       2.64257866
S        7.84687416      12.03964794      15.75249792
S        9.64839491       9.79029055      15.90977629
F        5.60737834      10.67135314      15.25323531
F        5.97483930      12.37832555      13.90139293
F        7.09179055      10.50580218      13.64028388
F        9.41327265       7.16111374      15.48293986
F        8.48141194       7.83262439      17.35921118
F        7.49337310       8.21173115      15.42305578
O        8.71681107      12.85570973      14.89572178
O        7.01163757      12.71144037      16.73551483
O       10.70796669       9.61467632      16.89834811
O        9.98919803       9.90395851      14.49848764
N        8.52547781      10.79200101      16.47416484
C        6.56967766      11.34689926      14.56560754
C        8.69635648       8.16887570      16.05468748
