     143
 i =        1, E =     -1362.5024005135
 Ti        -2.8554412275        2.2297552023       11.2463997376
 Ti         7.9750361372        5.1109759087        1.8815884590
 Ti         1.2412501725       -1.7064359003        9.4264167275
 Ti         2.7524399572        7.4556982217        3.6533856854
 Ti         1.7538636066        9.1340074835        1.7489992761
 Ti         3.1294509489       -1.9607790113       11.3797851157
 Ti        -1.9062424331        0.4938697679        9.3549220956
 Ti         5.9872196349        5.4135291545        3.7290505139
  H        -2.3535633405        6.1268493589       11.0269464147
  H         8.7838182692        1.2049235062        2.2022738280
  H        -6.8153402829        1.4731364326       10.8639462888
  H        11.3571854627        7.1152746386        2.0822439711
  H         4.1050561102       -5.9953192240       10.9938617654
  H        -2.3046587250        8.5441078771        2.0710528544
  H         2.2483227416        7.4972046805       -0.1240856530
  H         6.0995098835        4.8682810071        0.1816520579
  H         3.6393581673       -2.6278875760        5.8686855121
  H         1.0290002525        9.2927178727        7.2723491616
  H        -5.9788559853        3.8824961801        8.9990117263
  H        10.7297936241        3.0266509341        4.1875866199
  H        -3.6777504886        2.4350551746        5.6651730010
  H        -1.3462097746       10.9618665172        4.1022410020
  H         2.1461089590       12.2368412643        2.6044666559
  H         8.6259872755       -0.8139157359        3.4047620809
  H         4.8450628364        7.1358276907        2.3147574648
  H         0.1605495998        0.1419586050       10.7200431207
  H         7.3641928865       -0.0259262801        9.7694475146
  H         5.8830690568       -0.4949903845       10.5167838780
  H         7.9383140644        4.4077101934        8.6705462286
  H         7.3685955079        4.7662922969        7.0520033226
  H         6.8753795927       -4.9807560768        9.5794177180
  H         5.5962333884       -3.8801753764       10.0368132478
  C         8.5530729679        4.3697397450        4.7451165122
  C        -3.8159860881        2.4911482223        8.3993672259
  C         3.8217512968       -2.7171409750        8.5016953248
  C         0.8163222919        9.4262097651        4.6127464438
  C         9.4490945171        3.7654249789        5.7403075387
  C        -4.7478898544        3.1161630702        7.4223197345
  C         4.7619496050       -3.3314885688        7.5545060905
  C        -0.0734961757       10.0730082809        5.6125375410
  C         9.2003320117        3.8403379320        7.1467295982
  C        -4.5314958052        2.9961849930        6.0342986467
  C         5.8914015844       -4.0917916103        8.0075721095
  C        -1.1682245463       10.8459647331        5.1676114376
  C         0.1809983144        9.9022489854        6.9674226282
  C         4.5142427545       -3.1993541867        6.1705827262
  C        10.5827700278        3.0664391747        5.2646011390
  C        -5.8480538207        3.8085779709        7.9210015912
  C         8.7648457616        1.2839919179        0.0581788735
  C         2.2951141395       13.0755804678        0.0831884338
  C        11.2492805643        7.0471067992       -0.0678265088
  C        -2.1090524932        8.5895436928       -0.0872147688
  C         3.4991550479        5.1125196139        5.6179769661
  C        -1.2569325686       -1.9818509278        7.5361152190
  C         8.6289901492        2.7388490768        0.0349816308
  C         2.2023612446       11.6420626106        0.0457001001
  C         9.9514462067        6.4302791305       -0.0209632126
  C        -0.7067419424        9.0038865702       -0.0627532411
  C         8.8041952533        0.6148782872        1.2878585046
  C        -2.3426355784        6.7152464699       11.9408405593
  C        11.9045814380        7.3219103563        1.1661325386
  C        -7.3768282153        1.2937570617       11.7793041825
  C         7.3089352380        0.2493959041       11.7937985755
  C        -2.8062425180        8.3591244287        1.1252557037
  C         4.1466994579       -6.5224813999       11.9429135854
  C         2.3088909704       13.8267716787        1.3124676864
  N         2.3639483306       13.2279373199        2.5506291126
  N         6.7299028116        0.0665537039       10.5548285882
  N         8.1194480092        4.4865797445        7.6780189907
  N         6.2224102367       -4.2500397509        9.3249668354
  O         7.3767471197        4.7748322575        5.1109120325
  O        -3.0469952939        1.5402833349        8.0010835721
  O         4.2032070062       -2.5926580701        9.7228049399
  O         0.7504487680        9.8558769389        3.4131455420
  O         1.5867814080        8.4689944204        4.9992014838
  O         2.6513279936       -2.3487002355        8.0961808048
  O         8.9649471389        4.4504944906        3.5333713572
  O        -3.8580004447        2.9273964403        9.5990816562
  O         6.2924421741        4.1956221636        2.5343584486
  O        -1.3537777445        2.0542292323       10.0994381128
  O         7.2312292183        6.4829102070        2.9843368550
  O        -3.1059579023        0.3295510405       10.5921069055
  O         1.5005519650       -2.8783994707       10.6868338867
  O         3.2689881161        9.0170122681        2.9149099339
  O         2.4545011374       -0.6169106861       10.2226572901
  O         1.5627560531        7.2599015844        2.3974784864
  O         4.7202789587        4.9326523019        5.2637286453
  O        -1.9145971892       -0.9469149414        7.9143440185
  O         3.8717747218       -3.7326396698       11.9888918734
  O         2.1192516778       10.9406259840        1.1408947382
  O         4.6739207346       -0.9444567772       11.9837644370
  O        -0.1166826275        9.1048959282        1.0808205737
  O        -0.0951096162       -2.2763968180        7.9939334694
  O         2.7573236718        6.0334070783        5.1246353914
  O         9.4121105306        6.1301029737        1.1270244293
  O        -4.7422236300        2.1697109245       11.9148398400
  O         8.6165459101        3.3757775590        1.1564294107
  O        -2.4740258157        3.9520513270       11.9961067322
  O         4.4842306190        6.5870717772        3.0354307639
  O        -0.2177092848       -0.4167384271       10.0164501758
  O         6.9383389381        5.3619521282        0.1026298021
  O         2.3706876007        8.4640018112       -0.0641145578
  H         3.7544912861        1.5331889175        8.6022411932
  H        -0.1862524437       -4.2223072338        6.4831982776
  H         4.7863067879       10.8561956246        4.6618662094
  H         4.7276840129        3.0496539975        6.8489964043
  H         0.0358665231        3.6814300833        8.4012198112
  H        -3.6653355697       -1.6939952058        6.3605888863
  H         1.4251951018        1.8743232488        9.3614578100
  H         1.0083229825        5.2030490226        6.6469734719
  H         6.0317597492        8.8693798394        3.8665250259
  H        -7.7319620122        8.8902177800        4.6893636081
  C         2.9249773076        4.2160779636        6.6500193258
  C         1.8430752277        2.5278111413        8.5976908006
  C         6.4705678210        9.5122883596        4.6278530591
  C        -1.8677435423       -2.8736229870        6.5219571373
  C         1.5972941331        4.3981208203        7.0816021001
  C         3.1628167188        2.3378922437        8.1690081994
  C         5.7695111064       10.6392362581        5.0759429047
  C        -1.1712427753       -4.0116209971        6.0725888608
  C         7.7379448941        9.2119941459        5.1428775793
  C        -3.1436211436       -2.5795269664        6.0036440638
  C         3.7053061745        3.1795889972        7.1974438070
  C         1.0598479883        3.5535925868        8.0539572534
  H         0.2510087834        5.3948439272       12.3473190926
  H         1.9333002312        3.9957402704       10.6113109295
  C         1.0176782697        4.6536817220       12.5379019645
  H         4.4923938186        3.6068266098       10.5085711836
  C         1.8390444113        3.9627733988       11.6886327562
  H         0.1476138879        5.6359004995       14.8410315528
  N         1.3102965937        4.2284257303       13.8207886242
  C         4.8327601357        2.9987809409       11.3562700783
  H         5.3099256481        3.6546374946       12.0949796534
  C         0.6521150237        4.6890831760       15.0476979129
  N         2.6118949503        3.1176075095       12.4667322155
  H        -0.0860176389        3.9432603663       15.3670070407
  H         5.5806526469        2.2853586322       10.9823461538
  C         2.2769688794        3.2932757672       13.7584157496
  C         3.6776504574        2.2178066301       11.9743440032
  H         3.2223356855        1.5190579995       11.2593233736
  H         1.4045737837        4.8347496581       15.8279212142
  H         2.7116291295        2.7733592586       14.6037134566
  H         4.0075696678        1.6290446004       12.8375838298
     143
 i =        2, E =     -1362.5023869569
 Ti        -2.8554412275        2.2297552023       11.2463997376
 Ti         7.9750361372        5.1109759087        1.8815884590
 Ti         1.2412501725       -1.7064359003        9.4264167275
 Ti         2.7524399572        7.4556982217        3.6533856854
 Ti         1.7538636066        9.1340074835        1.7489992761
 Ti         3.1294509489       -1.9607790113       11.3797851157
 Ti        -1.9062424331        0.4938697679        9.3549220956
 Ti         5.9872196349        5.4135291545        3.7290505139
  H        -2.3535633405        6.1268493589       11.0269464147
  H         8.7838182692        1.2049235062        2.2022738280
  H        -6.8153402829        1.4731364326       10.8639462888
  H        11.3571854627        7.1152746386        2.0822439711
  H         4.1050561102       -5.9953192240       10.9938617654
  H        -2.3046587250        8.5441078771        2.0710528544
  H         2.2483227416        7.4972046805       -0.1240856530
  H         6.0995098835        4.8682810071        0.1816520579
  H         3.6393581673       -2.6278875760        5.8686855121
  H         1.0290002525        9.2927178727        7.2723491616
  H        -5.9788559853        3.8824961801        8.9990117263
  H        10.7297936241        3.0266509341        4.1875866199
  H        -3.6777504886        2.4350551746        5.6651730010
  H        -1.3462097746       10.9618665172        4.1022410020
  H         2.1461089590       12.2368412643        2.6044666559
  H         8.6259872755       -0.8139157359        3.4047620809
  H         4.8450628364        7.1358276907        2.3147574648
  H         0.1605495998        0.1419586050       10.7200431207
  H         7.3641928865       -0.0259262801        9.7694475146
  H         5.8830690568       -0.4949903845       10.5167838780
  H         7.9383140644        4.4077101934        8.6705462286
  H         7.3685955079        4.7662922969        7.0520033226
  H         6.8753795927       -4.9807560768        9.5794177180
  H         5.5962333884       -3.8801753764       10.0368132478
  C         8.5530729679        4.3697397450        4.7451165122
  C        -3.8159860881        2.4911482223        8.3993672259
  C         3.8217512968       -2.7171409750        8.5016953248
  C         0.8163222919        9.4262097651        4.6127464438
  C         9.4490945171        3.7654249789        5.7403075387
  C        -4.7478898544        3.1161630702        7.4223197345
  C         4.7619496050       -3.3314885688        7.5545060905
  C        -0.0734961757       10.0730082809        5.6125375410
  C         9.2003320117        3.8403379320        7.1467295982
  C        -4.5314958052        2.9961849930        6.0342986467
  C         5.8914015844       -4.0917916103        8.0075721095
  C        -1.1682245463       10.8459647331        5.1676114376
  C         0.1809983144        9.9022489854        6.9674226282
  C         4.5142427545       -3.1993541867        6.1705827262
  C        10.5827700278        3.0664391747        5.2646011390
  C        -5.8480538207        3.8085779709        7.9210015912
  C         8.7648457616        1.2839919179        0.0581788735
  C         2.2951141395       13.0755804678        0.0831884338
  C        11.2492805643        7.0471067992       -0.0678265088
  C        -2.1090524932        8.5895436928       -0.0872147688
  C         3.4991550479        5.1125196139        5.6179769661
  C        -1.2569325686       -1.9818509278        7.5361152190
  C         8.6289901492        2.7388490768        0.0349816308
  C         2.2023612446       11.6420626106        0.0457001001
  C         9.9514462067        6.4302791305       -0.0209632126
  C        -0.7067419424        9.0038865702       -0.0627532411
  C         8.8041952533        0.6148782872        1.2878585046
  C        -2.3426355784        6.7152464699       11.9408405593
  C        11.9045814380        7.3219103563        1.1661325386
  C        -7.3768282153        1.2937570617       11.7793041825
  C         7.3089352380        0.2493959041       11.7937985755
  C        -2.8062425180        8.3591244287        1.1252557037
  C         4.1466994579       -6.5224813999       11.9429135854
  C         2.3088909704       13.8267716787        1.3124676864
  N         2.3639483306       13.2279373199        2.5506291126
  N         6.7299028116        0.0665537039       10.5548285882
  N         8.1194480092        4.4865797445        7.6780189907
  N         6.2224102367       -4.2500397509        9.3249668354
  O         7.3767471197        4.7748322575        5.1109120325
  O        -3.0469952939        1.5402833349        8.0010835721
  O         4.2032070062       -2.5926580701        9.7228049399
  O         0.7504487680        9.8558769389        3.4131455420
  O         1.5867814080        8.4689944204        4.9992014838
  O         2.6513279936       -2.3487002355        8.0961808048
  O         8.9649471389        4.4504944906        3.5333713572
  O        -3.8580004447        2.9273964403        9.5990816562
  O         6.2924421741        4.1956221636        2.5343584486
  O        -1.3537777445        2.0542292323       10.0994381128
  O         7.2312292183        6.4829102070        2.9843368550
  O        -3.1059579023        0.3295510405       10.5921069055
  O         1.5005519650       -2.8783994707       10.6868338867
  O         3.2689881161        9.0170122681        2.9149099339
  O         2.4545011374       -0.6169106861       10.2226572901
  O         1.5627560531        7.2599015844        2.3974784864
  O         4.7202789587        4.9326523019        5.2637286453
  O        -1.9145971892       -0.9469149414        7.9143440185
  O         3.8717747218       -3.7326396698       11.9888918734
  O         2.1192516778       10.9406259840        1.1408947382
  O         4.6739207346       -0.9444567772       11.9837644370
  O        -0.1166826275        9.1048959282        1.0808205737
  O        -0.0951096162       -2.2763968180        7.9939334694
  O         2.7573236718        6.0334070783        5.1246353914
  O         9.4121105306        6.1301029737        1.1270244293
  O        -4.7422236300        2.1697109245       11.9148398400
  O         8.6165459101        3.3757775590        1.1564294107
  O        -2.4740258157        3.9520513270       11.9961067322
  O         4.4842306190        6.5870717772        3.0354307639
  O        -0.2177092848       -0.4167384271       10.0164501758
  O         6.9383389381        5.3619521282        0.1026298021
  O         2.3706876007        8.4640018112       -0.0641145578
  H         3.7544912861        1.5331889175        8.6022411932
  H        -0.1862524437       -4.2223072338        6.4831982776
  H         4.7863067879       10.8561956246        4.6618662094
  H         4.7276840129        3.0496539975        6.8489964043
  H         0.0358665231        3.6814300833        8.4012198112
  H        -3.6653355697       -1.6939952058        6.3605888863
  H         1.4251951018        1.8743232488        9.3614578100
  H         1.0083229825        5.2030490226        6.6469734719
  H         6.0317597492        8.8693798394        3.8665250259
  H        -7.7319620122        8.8902177800        4.6893636081
  C         2.9249773076        4.2160779636        6.6500193258
  C         1.8430752277        2.5278111413        8.5976908006
  C         6.4705678210        9.5122883596        4.6278530591
  C        -1.8677435423       -2.8736229870        6.5219571373
  C         1.5972941331        4.3981208203        7.0816021001
  C         3.1628167188        2.3378922437        8.1690081994
  C         5.7695111064       10.6392362581        5.0759429047
  C        -1.1712427753       -4.0116209971        6.0725888608
  C         7.7379448941        9.2119941459        5.1428775793
  C        -3.1436211436       -2.5795269664        6.0036440638
  C         3.7053061745        3.1795889972        7.1974438070
  C         1.0598479883        3.5535925868        8.0539572534
  H         0.2510087834        5.3948439272       12.3473190926
  H         1.9333002312        3.9957402704       10.6113109295
  C         1.0176782697        4.6536817220       12.5379019645
  H         4.4923938186        3.6068266098       10.5085711836
  C         1.8390444113        3.9627733988       11.6886327562
  H         0.1476138879        5.6359004995       14.8410315528
  N         1.3102965937        4.2284257303       13.8207886242
  C         4.8327601357        2.9987809409       11.3562700783
  H         5.3099256481        3.6546374946       12.0949796534
  C         0.6521150237        4.6890831760       15.0476979129
  N         2.6118949503        3.1176075095       12.4667322155
  H        -0.0860176389        3.9432603663       15.3670070407
  H         5.5806526469        2.2853586322       10.9823461538
  C         2.2769688794        3.2932757672       13.7584157496
  C         3.6776504574        2.2178066301       11.9743440032
  H         3.2223356855        1.5190579995       11.2593233736
  H         1.4045737837        4.8347496581       15.8279212142
  H         2.7116291295        2.7733592586       14.6037134566
  H         4.0075696678        1.6290446004       12.8375838298
