147
Final Frame from Quantum Espresso Output
Ti -2.6856875592 2.9737353512 11.8635508337
Ti 8.2758354606 5.9016946318 2.2779980868
Ti 1.7969680946 -0.4769599169 9.9185178975
Ti 3.7238326322 9.2516410492 4.1759147792
Ti 2.0915442522 10.1818873998 2.2305657212
Ti 3.2863138008 -1.4708480466 11.9287603965
Ti -1.2770744051 1.5877352802 10.0192800319
Ti 6.6311263953 7.0185879949 4.1267619485
H 3.8541215593 2.1950834598 7.4290685116
H 0.1522048429 -3.4852008787 8.1634767198
H 5.3592781197 12.0881476804 6.1053259965
H -2.7466539780 6.9052573469 11.7382825801
H 8.2439930758 1.9104389282 2.5048125443
H -6.2874317873 1.1390076353 11.5226533935
H 11.8061523597 7.5929213664 2.4792386486
H 3.2692011176 -5.6298783984 11.5306943325
H -1.8702779050 8.9715247683 2.4518915607
H 5.0404102527 4.1760390802 6.4268478218
H 0.2715516333 4.5211235293 7.7717412322
H -3.5178979777 -1.1989979913 7.9857721171
H 3.0043174237 8.7422816152 0.3004644950
H 7.4178909008 7.4526691435 0.4226584703
H 0.7274999018 1.2237293313 11.5694171979
H 4.7047853379 7.5281237980 2.5260063621
H 3.8988057794 -1.9830237492 6.4753866894
H 1.5931407110 10.4762373656 7.7944171824
H -5.7505555609 4.7156746239 9.5169815209
H 11.1278800206 3.9211432894 4.7317106616
H -3.4947350489 2.9923450285 6.2943220151
H -0.7904676488 12.4053021199 4.7690589552
H 0.3355406422 6.8304381713 7.1044716584
H 1.7572915814 7.5558967553 6.3476370400
H 2.1883731750 13.2853814875 3.0854244493
H 8.2476393546 -0.1753183891 3.7631142895
H 7.8357218058 -0.0854663945 10.4024160005
H 6.3980443078 -0.7102495021 11.2139323887
H 10.2240640114 9.6655919371 6.6584262680
H 9.1074161474 8.9816553641 5.5206739217
H 8.4645071079 5.9689769252 9.0522722160
H 8.0460838645 6.3042981026 7.3817997736
H 7.0862189980 -4.7607793057 9.9498469534
H 5.7114223899 -3.8010574869 10.4816883544
C 9.0613294240 5.4932333232 5.1412055907
C -3.6471504295 3.1573392384 9.0405948490
C 4.0771069035 -2.2262017563 9.1059654120
C 1.3774764257 10.8089279807 5.1061409061
C 9.8848530661 4.8518861503 6.2038448785
C -4.5371681822 3.8124064137 8.0125614368
C 4.9784090932 -2.8603506839 8.1049474757
C 0.4731307996 11.3508448135 6.1744200886
C 9.6232209697 5.0123847376 7.6079218247
C -4.2843684254 3.6616951068 6.6327832544
C 6.1101578062 -3.6711186045 8.4787249689
C -0.6627854139 12.1014599264 5.8065177193
C 0.6797319310 10.9998920216 7.5055056293
C 4.7989460554 -2.5341416702 6.7467454204
C 10.9314009945 3.9998586638 5.8000608425
C -5.5675997259 4.6461523669 8.4441812712
C 3.3531866083 5.4830376121 6.5281180481
C 1.9799354984 3.2430002228 7.6364462615
C 7.1442175498 10.8654491565 6.0959457780
C -1.6468268151 -2.2769565566 8.1452071121
C 8.1807198098 1.8685960922 0.3796890152
C 2.1351317318 14.1131254714 0.5307681722
C 11.8225528123 7.2471319666 0.3485826100
C -1.6272388307 8.7908923074 0.3247715486
C 4.1040260082 6.6045148636 5.8894196059
C 1.2650427800 2.0533078345 8.2384256866
C 6.4921436614 9.8208124719 5.3374487470
C -0.9959851513 -1.2031066902 8.8862293398
C 8.1715998688 3.3362671722 0.3567056482
C 2.0649753314 12.6757071497 0.4928805605
C 10.5537404681 6.5075858062 0.3882960052
C -0.3118813178 9.4943722419 0.3543965272
C 1.9729900293 5.5963087006 6.9169299722
C 3.3410004084 3.1432519026 7.2725504855
C 6.3250657654 11.9089009267 6.5877363699
C -0.8237123313 -3.2951894543 7.6948653266
C 8.3032517762 1.2571382177 1.6172499368
C -2.7417574888 7.5302137010 12.6342963061
C 12.3840512299 7.7092079025 1.5619850604
C -6.8926230832 1.0987340311 12.4276205779
C 8.4401488274 10.6095967253 6.6354577632
C -2.9096699676 -2.0113322728 7.5955733094
C 3.9949803108 4.2463092455 6.7286560186
C 1.3183320144 4.4542782074 7.4680388131
C 7.8023587386 0.1578761260 12.4391429160
C -2.3463560260 8.6538061511 1.5255806367
C 3.4361419383 -6.1078863227 12.4978029043
C 2.1048607297 14.8733168497 1.7621653931
N 1.2836435719 6.7535475686 6.7639845987
N 2.2435880633 14.3061507574 3.0129050594
N 7.2965515755 -0.2324363137 11.2423362612
N 9.3639659646 9.7471844078 6.1374957988
N 8.6618970605 5.8620101614 8.0642772337
N 6.2935591971 -4.1564217947 9.7275465714
O 8.0801655572 6.2565678016 5.4775878857
O -2.7481861599 2.3326661346 8.6757444423
O 4.3695336387 -2.3382326716 10.3475928101
O 1.0484115760 10.9910963677 3.8871702420
O 2.3951685270 10.1245610262 5.4738220381
O 3.0867682899 -1.5225950694 8.6931278631
O 9.3391604840 5.2388379216 3.9163387713
O -3.8261190934 3.5159391451 10.2562680921
O 6.6478117318 5.5155689502 3.1481426255
O -1.1516696519 3.2009951975 10.8727440381
O 8.0291105293 7.5526460418 2.9654417978
O -2.5367045829 1.2145045537 11.3111514577
O 1.7454126399 -1.9251712036 11.0739081639
O 3.6461208770 10.7178454027 3.1126632360
O 3.1076339678 0.1362400731 11.0668483939
O 2.4109933020 8.5809425871 3.0224866215
O 5.3460393575 6.4354439102 5.6163750066
O 0.0152525383 2.1270804052 8.4553461415
O 7.1336249814 8.7667113355 5.0581882463
O -1.6915775366 -0.2073726419 9.2133676013
O 3.3428020975 -3.3900869074 12.5251443508
O 1.9623616204 12.0781774508 1.6143856510
O 5.2561804988 -1.1555376548 12.6287648883
O 0.2168420881 9.7941547236 1.4743875805
O 5.2394868422 9.9572076430 5.1268988559
O 0.2646703327 -1.2587139465 8.9874945955
O 3.4885615400 7.6908016187 5.6173753107
O 1.9708455062 1.0274637545 8.5157913488
O 10.0788126439 6.2885707235 1.5519401045
O -4.5615482555 2.5460055401 12.5392618747
O 8.3177614305 4.0163844094 1.4187851050
O -2.7174116157 4.8231586012 12.6976838135
O 5.1064276978 8.0032291231 3.2726250683
O 0.3513469750 0.6983437396 10.8432217182
O 7.5205539213 6.4840722469 0.4335425542
O 2.7910012270 9.6872983659 0.3925097261
O 2.3751173900 7.5305720817 15.0937415589
F 3.2567939778 10.5756397587 14.4056560694
O 1.0986001205 9.1506660713 12.8106849500
F 5.0352713174 6.3770872665 15.8495097379
F 2.7652030437 11.7609931987 12.6205068589
S 3.1863748849 6.9568080269 14.0360904773
C 3.3419501196 10.6024714616 13.0557270373
F 5.3229552097 8.3596774577 14.9424701513
C 4.9621368032 7.0776759175 14.6858704988
O 3.0370903682 5.5513345391 13.7044646043
S 2.4463843276 9.0962633148 12.2803588930
N 3.3244832351 7.8356615732 12.6906281268
F 4.6507967287 10.6406110308 12.7077065155
F 5.8617584101 6.5511327160 13.8174362832
O 2.6180871596 9.3235150066 10.8426159927
