40
 i =        1, E =     -1627.5552599118
  H         2.4684653624        7.2420541195        9.9423724435
  H         0.9317601108        6.5346934699        9.3747909737
  C         1.5563837729        6.7166951061       10.2591527623
  H         2.4601606916        4.7392735133       10.2803119908
  H         1.0117491933        7.3827556723       10.9436931691
  C         1.8967327600        5.3947582758       10.9575213613
  H         2.5888128032        5.5897946627       11.7802042806
  H         1.3664134139        2.6217784204       11.4139662286
  H        -0.0540577426        4.4957517682       10.6609351487
  C         0.6542837206        4.6761367871       11.4811903411
  H         3.2536872929        1.8255788391       12.7838187417
  H         0.1323466101        5.3291539084       12.1936994763
  C         2.9256613328        2.6157449671       13.4446729427
  C         0.9093833958        3.3157837167       12.1286600497
  H         5.5329503459        2.3660650068       14.4008724372
  N         1.8267867953        3.3737166238       13.2853880259
  H         5.0556034389        2.9585199600       16.0143946967
  N         3.5256417782        2.9864699401       14.5926558961
  C         4.7342639413        2.3707139338       15.1501401800
  H        -0.0305689527        2.8706594381       12.4789160030
  C         2.7980489850        4.0112577392       15.1637195190
  H         0.9399547893        4.9938204124       14.4169504299
  C         1.7311367153        4.2592871294       14.3426119591
  H         3.1122193033        4.4984612209       16.0748001713
  H         4.4883982244        1.3492541152       15.4634745895
  F         3.7101787309        9.5768933594       14.9813504991
  F         5.2845026019        8.3516821991       15.9198905280
  O         3.0637914212        6.6702656188       15.1117301930
  C         4.6792230739        8.6508323076       14.7426044770
  S         3.8801187804        7.1420041344       13.9948133400
  F         5.5974504680        9.2018538709       13.9093424490
  O         3.1984869850        7.6107570246       12.7950098065
  N         5.2044287940        6.2471127744       13.8058807314
  S         5.6335596084        5.3926437817       12.5285505913
  O         4.5470518631        4.7553477878       11.7838948921
  F         5.3695236047        7.5063417360       10.8782359131
  F         7.3373700222        7.3432314761       11.8289615694
  O         6.7900845314        4.5846776331       12.8812378091
  C         6.3081741272        6.6301366764       11.3063082198
  F         6.7854333728        5.9837410520       10.1974350483
