15

F        3.7107000000      9.5781000000     14.9905000000                 
F        5.2810000000      8.3510000000     15.9249000000                 
O        3.0651000000      6.6143000000     15.0942000000                 
C        4.6780000000      8.6501000000     14.7456000000                 
S        3.8739000000      7.1402000000     13.9972000000                 
F        5.5985000000      9.1871000000     13.9047000000                 
O        3.1958000000      7.5977000000     12.7907000000                 
N        5.2010000000      6.2508000000     13.7980000000                 
S        5.6280000000      5.4065000000     12.5138000000                 
O        4.5290000000      4.7735000000     11.7786000000                 
F        5.3595000000      7.5119000000     10.8757000000                 
F        7.3287000000      7.3388000000     11.8498000000                 
O        6.7751000000      4.5914000000     12.8788000000                 
C        6.3072000000      6.6402000000     11.2924000000                 
F        6.7790000000      5.9692000000     10.2008000000                 
