--------------------------------------------------------------------------
WARNING: There was an error initializing an OpenFabrics device.

  Local host:   ga01
  Local device: mlx5_0
--------------------------------------------------------------------------

     Program PWSCF v.7.3.1 starts on 19Jun2025 at 19: 2:45 

     This program is part of the open-source Quantum ESPRESSO suite
     for quantum simulation of materials; please cite
         "P. Giannozzi et al., J. Phys.:Condens. Matter 21 395502 (2009);
         "P. Giannozzi et al., J. Phys.:Condens. Matter 29 465901 (2017);
         "P. Giannozzi et al., J. Chem. Phys. 152 154105 (2020);
          URL http://www.quantum-espresso.org", 
     in publications or presentations arising from this work. More details at
     http://www.quantum-espresso.org/quote

     Parallel version (MPI), running on    29 processors

     MPI processes distributed on     1 nodes
     53679 MiB available memory on the printing compute node when the environment starts

     Waiting for input...
     Reading input from standard input

     Current dimensions of program PWSCF are:
     Max number of different atomic species (ntypx) = 10
     Max number of k-points (npk) =  40000
     Max angular momentum in pseudopotentials (lmaxx) =  4
     file C.pbe-n-kjpaw_psl.1.0.0.UPF: wavefunction(s)  2S 2P renormalized
     file O.pbe-n-kjpaw_psl.0.1.UPF: wavefunction(s)  2P renormalized

     R & G space division:  proc/nbgrp/npool/nimage =      29
     Subspace diagonalization in iterative solution of the eigenvalue problem:
     one sub-group per band group will be used
     custom distributed-memory algorithm (size of sub-group:  4*  4 procs)


     Parallelization info
     --------------------
     sticks:   dense  smooth     PW     G-vecs:    dense   smooth      PW
     Min        1442     721    180               191891    67838    8477
     Max        1443     722    181               191894    67840    8478
     Sum       41835   20921   5225              5564879  1967325  245841

     Using Slab Decomposition



     bravais-lattice index     =            0
     lattice parameter (alat)  =      30.1491  a.u.
     unit-cell volume          =   20353.3775 (a.u.)^3
     number of atoms/cell      =          149
     number of atomic types    =            5
     number of electrons       =       583.00
     number of Kohn-Sham states=          350
     kinetic-energy cutoff     =      80.0000  Ry
     charge density cutoff     =     640.0000  Ry
     scf convergence threshold =      1.0E-07
     mixing beta               =       0.2000
     number of iterations used =            8  plain     mixing
     energy convergence thresh.=      1.0E-04
     force convergence thresh. =      1.0E-03
     press convergence thresh. =      5.0E-01
     Exchange-correlation= SLA  PW   PBX  PBC
                           (   1   4   3   4   0   0   0)
     nstep                     =          300


     celldm(1)=  30.149070  celldm(2)=   0.000000  celldm(3)=   0.000000
     celldm(4)=   0.000000  celldm(5)=   0.000000  celldm(6)=   0.000000

     crystal axes: (cart. coord. in units of alat)
               a(1) = (   0.999374  -0.034929   0.005614 )  
               a(2) = (  -0.409708   0.918648  -0.003543 )  
               a(3) = (  -0.290503  -0.442929   0.820779 )  

     reciprocal axes: (cart. coord. in units 2 pi/alat)
               b(1) = (  1.013109  0.454164  0.603662 )  
               b(2) = (  0.035253  1.106629  0.609664 )  
               b(3) = ( -0.006777  0.001670  1.216857 )  


     PseudoPot. # 1 for Ti read from file:
     /home/yongsang/PSID_SIMULATION_TOOLS/qe/qepseudo/SSSP_1.3.0_PBE_efficiency/ti_pbe_v1.4.uspp.F.UPF
     MD5 check sum: 88a00a6731bd790ddea75d31a80cb452
     Pseudo is Ultrasoft + core correction, Zval = 12.0
     Generated by new atomic code, or converted to UPF format
     Using radial grid of  851 points,  6 beta functions with: 
                l(1) =   0
                l(2) =   0
                l(3) =   1
                l(4) =   1
                l(5) =   2
                l(6) =   2
     Q(r) pseudized with  6 coefficients,  rinner =    1.000   1.000   1.000
                                                       1.000   1.000

     PseudoPot. # 2 for N  read from file:
     /home/yongsang/PSID_SIMULATION_TOOLS/qe/qepseudo/SSSP_1.3.0_PBE_efficiency/N.pbe-n-radius_5.UPF
     MD5 check sum: 16739722b17309cd8fe442a2ace49922
     Pseudo is Ultrasoft + core correction, Zval =  5.0
     Generated using "atomic" code by A. Dal Corso  v.5.1
     Using radial grid of 1085 points,  4 beta functions with: 
                l(1) =   0
                l(2) =   0
                l(3) =   1
                l(4) =   1
     Q(r) pseudized with 0 coefficients 


     PseudoPot. # 3 for C  read from file:
     /home/yongsang/PSID_SIMULATION_TOOLS/qe/qepseudo/SSSP_1.3.0_PBE_efficiency/C.pbe-n-kjpaw_psl.1.0.0.UPF
     MD5 check sum: 5d2aebdfa2cae82b50a7e79e9516da0f
     Pseudo is Projector augmented-wave + core cor, Zval =  4.0
     Generated using "atomic" code by A. Dal Corso  v.5.1
     Shape of augmentation charge: PSQ
     Using radial grid of 1073 points,  4 beta functions with: 
                l(1) =   0
                l(2) =   0
                l(3) =   1
                l(4) =   1
     Q(r) pseudized with 0 coefficients 


     PseudoPot. # 4 for H  read from file:
     /home/yongsang/PSID_SIMULATION_TOOLS/qe/qepseudo/SSSP_1.3.0_PBE_efficiency/H.pbe-rrkjus_psl.1.0.0.UPF
     MD5 check sum: f52b6d4d1c606e5624b1dc7b2218f220
     Pseudo is Ultrasoft, Zval =  1.0
     Generated using "atomic" code by A. Dal Corso  v.5.1
     Using radial grid of  929 points,  2 beta functions with: 
                l(1) =   0
                l(2) =   0
     Q(r) pseudized with 0 coefficients 


     PseudoPot. # 5 for O  read from file:
     /home/yongsang/PSID_SIMULATION_TOOLS/qe/qepseudo/SSSP_1.3.0_PBE_efficiency/O.pbe-n-kjpaw_psl.0.1.UPF
     MD5 check sum: 0234752ac141de4415c5fc33072bef88
     Pseudo is Projector augmented-wave + core cor, Zval =  6.0
     Generated using "atomic" code by A. Dal Corso  v.5.0.99 svn rev. 10869
     Shape of augmentation charge: BESSEL
     Using radial grid of 1095 points,  4 beta functions with: 
                l(1) =   0
                l(2) =   0
                l(3) =   1
                l(4) =   1
     Q(r) pseudized with 0 coefficients 


     atomic species   valence    mass     pseudopotential
     Ti               12.00    47.86700     Ti( 1.00)
     N                 5.00    14.00674     N ( 1.00)
     C                 4.00    12.01070     C ( 1.00)
     H                 1.00     1.00794     H ( 1.00)
     O                 6.00    15.99940     O ( 1.00)

     No symmetry found


                                    s                        frac. trans.

      isym =  1     identity                                     

 cryst.   s( 1) = (     1          0          0      )
                  (     0          1          0      )
                  (     0          0          1      )

 cart.    s( 1) = (  1.0000000  0.0000000  0.0000000 )
                  ( -0.0000000  1.0000000  0.0000000 )
                  (  0.0000000  0.0000000  1.0000000 )


   Cartesian axes

     site n.     atom                  positions (alat units)
         1        Ti     tau(   1) = (  -0.1804553   0.1299376   0.7045593  )
         2        Ti     tau(   2) = (   0.4808696   0.3356238   0.1142846  )
         3        Ti     tau(   3) = (   0.0834739  -0.1040879   0.5850597  )
         4        Ti     tau(   4) = (   0.1539507   0.4739642   0.2308940  )
         5        Ti     tau(   5) = (   0.0893802   0.5748699   0.1104255  )
         6        Ti     tau(   6) = (   0.1986668  -0.1192689   0.7089606  )
         7        Ti     tau(   7) = (  -0.1201558   0.0254297   0.5837246  )
         8        Ti     tau(   8) = (   0.3605176   0.3512460   0.2336262  )
         9        H      tau(   9) = (   0.2307536   0.1087093   0.5434700  )
        10        H      tau(  10) = (  -0.4434406   0.6361008   0.4075585  )
        11        H      tau(  11) = (   0.2717428   0.6868674   0.2901787  )
        12        H      tau(  12) = (  -0.1446616   0.3779230   0.6917382  )
        13        H      tau(  13) = (   0.5324792   0.0908137   0.1327387  )
        14        H      tau(  14) = (  -0.4239197   0.0674192   0.6837528  )
        15        H      tau(  15) = (   0.6874252   0.4770787   0.1259424  )
        16        H      tau(  16) = (   0.2865364  -0.3695359   0.6860413  )
        17        H      tau(  17) = (  -0.1686672   0.5397550   0.1303538  )
        18        H      tau(  18) = (   0.2876026   0.2035100   0.4315139  )
        19        H      tau(  19) = (  -0.0089362   0.2309047   0.5254290  )
        20        H      tau(  20) = (   0.7730760  -0.1191103   0.3979811  )
        21        H      tau(  21) = (  -0.1491381   0.0185211   0.8143479  )
        22        H      tau(  22) = (   0.3650957   0.3146870   0.0064760  )
        23        H      tau(  23) = (   0.2430877  -0.1445488   0.3641028  )
        24        H      tau(  24) = (   0.0441094   0.5873663   0.4562359  )
        25        H      tau(  25) = (  -0.3730491   0.2431955   0.5645416  )
        26        H      tau(  26) = (   0.6627847   0.2110848   0.2573623  )
        27        H      tau(  27) = (  -0.2346799   0.1438424   0.3553472  )
        28        H      tau(  28) = (  -0.0999718   0.6991174   0.2574751  )
        29        H      tau(  29) = (   0.0946296   0.7693184   0.1610215  )
        30        H      tau(  30) = (   0.5247383  -0.0360545   0.2073667  )
        31        H      tau(  31) = (   0.2865552   0.4595160   0.1484894  )
        32        H      tau(  32) = (   0.0140082   0.0111080   0.6636672  )
        33        H      tau(  33) = (   0.4661011   0.0008430   0.6102499  )
        34        H      tau(  34) = (   0.3728002  -0.0308972   0.6572764  )
        35        H      tau(  35) = (   0.4997950   0.3161637   0.5391677  )
        36        H      tau(  36) = (   0.4591744   0.3308289   0.4382821  )
        37        H      tau(  37) = (   0.4433773  -0.2963477   0.5962881  )
        38        H      tau(  38) = (   0.3599002  -0.2313046   0.6255832  )
        39        H      tau(  39) = (   0.0832069   0.1241103   0.5895920  )
        40        H      tau(  40) = (   0.0477022   0.3258634   0.4133639  )
        41        H      tau(  41) = (   0.3551836   0.5652248   0.2419068  )
        42        H      tau(  42) = (   0.4964323   0.5380865   0.3002795  )
        43        C      tau(  43) = (   0.5260263   0.2956538   0.2927392  )
        44        C      tau(  44) = (  -0.2403699   0.1509038   0.5269164  )
        45        C      tau(  45) = (   0.2489200  -0.1581207   0.5292838  )
        46        C      tau(  46) = (   0.0333780   0.5992597   0.2891458  )
        47        C      tau(  47) = (   0.5851556   0.2620250   0.3546520  )
        48        C      tau(  48) = (  -0.2985584   0.1903398   0.4659657  )
        49        C      tau(  49) = (   0.3101854  -0.1927198   0.4701765  )
        50        C      tau(  50) = (  -0.0222155   0.6396836   0.3517882  )
        51        C      tau(  51) = (   0.5731857   0.2714570   0.4430507  )
        52        C      tau(  52) = (  -0.2874766   0.1800811   0.3788419  )
        53        C      tau(  53) = (   0.3808665  -0.2408068   0.4984067  )
        54        C      tau(  54) = (  -0.0901286   0.6894993   0.3242883  )
        55        C      tau(  55) = (  -0.0084454   0.6265836   0.4368536  )
        56        C      tau(  56) = (   0.2975122  -0.1810652   0.3833692  )
        57        C      tau(  57) = (   0.6555214   0.2170080   0.3250166  )
        58        C      tau(  58) = (  -0.3662314   0.2360939   0.4969017  )
        59        C      tau(  59) = (   0.1711230   0.2704322   0.4161945  )
        60        C      tau(  60) = (   0.1077860   0.1647848   0.5405792  )
        61        C      tau(  61) = (   0.3806352   0.6069317   0.2896209  )
        62        C      tau(  62) = (  -0.1109701  -0.1878007   0.4092157  )
        63        C      tau(  63) = (   0.2739210  -0.3579296   0.8209882  )
        64        C      tau(  64) = (   0.1129903   0.8240049   0.0037645  )
        65        C      tau(  65) = (   0.4149352   0.0094151   0.8137982  )
        66        C      tau(  66) = (  -0.4240864   0.0799745   0.8174023  )
        67        C      tau(  67) = (   0.2050908   0.3271138   0.3509872  )
        68        C      tau(  68) = (  -0.0748424  -0.1293189   0.4716219  )
        69        C      tau(  69) = (   0.2617123  -0.2658171   0.8197496  )
        70        C      tau(  70) = (   0.1122049   0.7330358   0.0009151  )
        71        C      tau(  71) = (   0.3339258  -0.0320135   0.8170375  )
        72        C      tau(  72) = (  -0.3366881   0.1113832   0.8189147  )
        73        C      tau(  73) = (   0.0872291   0.2782126   0.4422472  )
        74        C      tau(  74) = (   0.1911183   0.1563576   0.5146281  )
        75        C      tau(  75) = (   0.3337460   0.6758734   0.3167774  )
        76        C      tau(  76) = (  -0.5059075   0.6462843   0.3819138  )
        77        C      tau(  77) = (   0.5409466   0.0541325   0.0756603  )
        78        C      tau(  78) = (  -0.1518653   0.4146375   0.7488517  )
        79        C      tau(  79) = (  -0.2771521   0.4876640   0.0685644  )
        80        C      tau(  80) = (  -0.4600512   0.0581289   0.7410769  )
        81        C      tau(  81) = (   0.4605677   0.5919281   0.3223765  )
        82        C      tau(  82) = (   0.8084128  -0.1734741   0.3764858  )
        83        C      tau(  83) = (   0.2228385   0.2089494   0.4525692  )
        84        C      tau(  84) = (   0.0558398   0.2254065   0.5043111  )
        85        C      tau(  85) = (   0.4592408   0.0224392   0.7366430  )
        86        C      tau(  86) = (  -0.1981115   0.5222681   0.0713868  )
        87        C      tau(  87) = (   0.2844335  -0.4029979   0.7454620  )
        88        C      tau(  88) = (   0.5456701  -0.0339735   0.0806847  )
        89        N      tau(  89) = (   0.5413690  -0.0712132   0.1573592  )
        90        N      tau(  90) = (   0.4270606   0.0021129   0.6601026  )
        91        N      tau(  91) = (   0.5074212   0.3145949   0.4763422  )
        92        N      tau(  92) = (   0.3989946  -0.2539375   0.5807630  )
        93        O      tau(  93) = (   0.4522169   0.3201050   0.3170996  )
        94        O      tau(  94) = (  -0.1902490   0.0929367   0.5012141  )
        95        O      tau(  95) = (   0.2699226  -0.1534524   0.6068239  )
        96        O      tau(  96) = (   0.0280315   0.6240262   0.2133927  )
        97        O      tau(  97) = (   0.0830120   0.5402458   0.3133839  )
        98        O      tau(  98) = (   0.1757431  -0.1351550   0.5031791  )
        99        O      tau(  99) = (   0.5482531   0.2979366   0.2158341  )
       100        O      tau( 100) = (  -0.2444836   0.1750536   0.6029685  )
       101        O      tau( 101) = (   0.3807047   0.2749013   0.1583583  )
       102        O      tau( 102) = (  -0.0868781   0.1228742   0.6356564  )
       103        O      tau( 103) = (   0.4342361   0.4205444   0.1802986  )
       104        O      tau( 104) = (  -0.1946284   0.0128775   0.6623929  )
       105        O      tau( 105) = (   0.1014642  -0.1792017   0.6629733  )
       106        O      tau( 106) = (   0.1848378   0.5711273   0.1789203  )
       107        O      tau( 107) = (   0.1553942  -0.0341835   0.6420021  )
       108        O      tau( 108) = (   0.0786031   0.4595542   0.1526357  )
       109        O      tau( 109) = (   0.2814469   0.3178718   0.3279600  )
       110        O      tau( 110) = (  -0.1194068  -0.0675966   0.4970214  )
       111        O      tau( 111) = (   0.2539206  -0.2298598   0.7485978  )
       112        O      tau( 112) = (   0.1091600   0.6907259   0.0696826  )
       113        O      tau( 113) = (   0.2963470  -0.0524313   0.7485470  )
       114        O      tau( 114) = (  -0.0312338   0.5737160   0.0684973  )
       115        O      tau( 115) = (  -0.0001686  -0.1426395   0.4978733  )
       116        O      tau( 116) = (   0.1570840   0.3834438   0.3201990  )
       117        O      tau( 117) = (   0.5710126   0.4046276   0.0667542  )
       118        O      tau( 118) = (  -0.3008599   0.1269835   0.7492052  )
       119        O      tau( 119) = (   0.5286018   0.2263761   0.0679959  )
       120        O      tau( 120) = (  -0.1571680   0.2415383   0.7513689  )
       121        O      tau( 121) = (   0.2649202   0.4240206   0.1932018  )
       122        O      tau( 122) = (  -0.0097498  -0.0254992   0.6209863  )
       123        O      tau( 123) = (   0.4171121   0.3463614   0.0020139  )
       124        O      tau( 124) = (  -0.1444472   0.0793114   0.8175126  )
       125        H      tau( 125) = (   0.3604662   0.3660337   0.5887466  )
       126        H      tau( 126) = (   0.3256078   0.2533819   0.6913317  )
       127        C      tau( 127) = (   0.3055675   0.4049820   0.6004301  )
       128        H      tau( 128) = (   0.4291936   0.4321187   0.7194226  )
       129        C      tau( 129) = (   0.2651752   0.2833206   0.6905347  )
       130        H      tau( 130) = (   0.2524848   0.1504837   0.7841918  )
       131        H      tau( 131) = (   0.2758778   0.4179086   0.5402927  )
       132        H      tau( 132) = (   0.3701636   0.5207078   0.6032504  )
       133        N      tau( 133) = (   0.2463864   0.3534294   0.6493803  )
       134        C      tau( 134) = (   0.3295163   0.4856321   0.6458531  )
       135        C      tau( 135) = (   0.1914125   0.1805955   0.7822974  )
       136        C      tau( 136) = (   0.3740877   0.4718585   0.7294586  )
       137        H      tau( 137) = (   0.1457707   0.1377367   0.7552118  )
       138        N      tau( 138) = (   0.1969826   0.2562250   0.7305784  )
       139        H      tau( 139) = (   0.4440544   0.5887607   0.7303001  )
       140        C      tau( 140) = (   0.4009036   0.5540629   0.7705033  )
       141        H      tau( 141) = (   0.3328955   0.4376834   0.7724711  )
       142        H      tau( 142) = (   0.4324828   0.5426174   0.8300129  )
       143        C      tau( 143) = (   0.1633753   0.3721245   0.6638561  )
       144        H      tau( 144) = (   0.1725553   0.1976778   0.8455895  )
       145        C      tau( 145) = (   0.1323308   0.3112137   0.7145477  )
       146        H      tau( 146) = (   0.2736370   0.5243727   0.6548900  )
       147        H      tau( 147) = (   0.1335746   0.4262683   0.6369821  )
       148        H      tau( 148) = (   0.3469233   0.5942907   0.7828928  )
       149        H      tau( 149) = (   0.0705083   0.3022469   0.7398996  )

     --------------------------------------------
     DFT-D3 Dispersion Correction (3-body terms):
     --------------------------------------------
       Reference C6 values for interpolation: 

         atom   Coordination number   C6
         H          0.912             6.05
         H          0.000            15.18
         C          0.000            98.23
         C          0.987            86.49
         C          1.998            58.72
         C          2.999            51.56
         C          3.984            36.41
         N          0.000            50.54
         N          0.994            44.25
         N          2.014            39.35
         N          2.990            31.16
         O          0.000            31.01
         O          0.993            25.63
         O          1.989            20.74
         Ti         0.000          2723.84
         Ti         1.830           604.00
         Ti         3.868           643.18

       Values used:

         atom   Coordination number  R0_AB[au]  C6      C8
         Ti         7.312            3.557    643.18  76289.64
         Ti         7.276            3.557    643.18  76289.64
         Ti         6.310            3.557    643.18  76289.64
         Ti         6.296            3.557    643.18  76289.64
         Ti         7.412            3.557    643.18  76289.64
         Ti         7.250            3.557    643.18  76289.64
         Ti         6.297            3.557    643.18  76289.64
         Ti         6.292            3.557    643.18  76289.64
         H          1.004            2.062      6.18     74.68
         H          1.015            2.062      6.17     74.57
         H          1.000            2.062      6.18     74.72
         H          1.002            2.062      6.18     74.70
         H          1.005            2.062      6.18     74.67
         H          1.011            2.062      6.17     74.60
         H          1.014            2.062      6.17     74.57
         H          1.001            2.062      6.18     74.70
         H          1.004            2.062      6.18     74.68
         H          1.004            2.062      6.18     74.67
         H          1.004            2.062      6.18     74.67
         H          0.999            2.062      6.18     74.74
         H          1.058            2.062      6.14     74.19
         H          1.057            2.062      6.14     74.20
         H          1.018            2.062      6.17     74.54
         H          1.014            2.062      6.17     74.57
         H          1.002            2.062      6.18     74.70
         H          1.002            2.062      6.18     74.70
         H          1.001            2.062      6.18     74.71
         H          1.007            2.062      6.17     74.64
         H          0.481            2.062      9.63    116.45
         H          1.007            2.062      6.17     74.64
         H          1.106            2.062      6.11     73.90
         H          1.108            2.062      6.11     73.88
         H          1.008            2.062      6.17     74.64
         H          1.015            2.062      6.17     74.57
         H          1.006            2.062      6.18     74.65
         H          1.012            2.062      6.17     74.59
         H          1.007            2.062      6.17     74.64
         H          1.013            2.062      6.17     74.58
         H          1.006            2.062      6.18     74.65
         H          1.004            2.062      6.18     74.67
         H          1.007            2.062      6.17     74.65
         H          1.031            2.062      6.16     74.41
         C          3.355            2.750     47.36   1369.87
         C          3.368            2.750     47.06   1361.15
         C          3.357            2.750     47.32   1368.52
         C          3.361            2.750     47.23   1365.85
         C          3.127            2.750     50.71   1466.65
         C          3.097            2.750     50.90   1472.18
         C          3.389            2.750     46.50   1344.82
         C          3.390            2.750     46.48   1344.40
         C          3.021            2.750     51.27   1482.71
         C          3.022            2.750     51.26   1482.58
         C          3.200            2.750     50.05   1447.64
         C          3.203            2.750     50.02   1446.65
         C          3.381            2.750     46.72   1351.24
         C          3.350            2.750     47.50   1373.74
         C          3.042            2.750     51.18   1480.11
         C          3.043            2.750     51.17   1480.07
         C          3.188            2.750     50.19   1451.57
         C          3.141            2.750     50.61   1463.64
         C          3.113            2.750     50.80   1469.33
         C          3.252            2.750     49.39   1428.33
         C          3.183            2.750     50.23   1452.84
         C          3.120            2.750     50.76   1468.02
         C          3.539            2.750     42.15   1219.17
         C          3.250            2.750     49.41   1429.01
         C          3.220            2.750     49.82   1440.94
         C          3.207            2.750     49.98   1445.53
         C          3.246            2.750     49.46   1430.58
         C          3.248            2.750     49.45   1430.05
         C          3.486            2.750     43.70   1263.89
         C          3.384            2.750     46.64   1348.86
         C          3.167            2.750     50.39   1457.31
         C          3.131            2.750     50.68   1465.81
         C          2.974            2.750     51.43   1487.53
         C          3.142            2.750     50.60   1463.36
         C          3.222            2.750     49.80   1440.22
         C          3.143            2.750     50.59   1463.02
         C          3.387            2.750     46.57   1346.92
         C          3.315            2.750     48.26   1395.74
         C          3.264            2.750     49.19   1422.68
         C          2.992            2.750     51.37   1485.76
         C          3.168            2.750     50.38   1456.99
         C          3.131            2.750     50.68   1465.72
         C          3.197            2.750     50.09   1448.57
         C          3.378            2.750     46.80   1353.41
         C          3.072            2.750     51.04   1476.16
         C          3.193            2.750     50.13   1449.77
         N          2.564            2.478     34.16    753.66
         N          3.128            2.478     31.22    688.75
         N          3.052            2.478     31.27    689.76
         N          3.114            2.478     31.23    688.90
         O          2.045            2.345     20.80    419.66
         O          2.036            2.345     20.80    419.74
         O          2.068            2.345     20.79    419.49
         O          2.049            2.345     20.79    419.63
         O          2.039            2.345     20.80    419.71
         O          2.038            2.345     20.80    419.73
         O          2.061            2.345     20.79    419.54
         O          2.059            2.345     20.79    419.55
         O          1.993            2.345     20.82    420.21
         O          2.012            2.345     20.81    419.98
         O          2.011            2.345     20.81    419.99
         O          1.994            2.345     20.82    420.21
         O          1.999            2.345     20.82    420.14
         O          2.012            2.345     20.81    419.99
         O          2.012            2.345     20.81    419.98
         O          1.999            2.345     20.82    420.14
         O          2.030            2.345     20.80    419.80
         O          2.037            2.345     20.80    419.73
         O          2.019            2.345     20.81    419.91
         O          2.048            2.345     20.79    419.64
         O          2.053            2.345     20.79    419.60
         O          2.093            2.345     20.78    419.32
         O          2.030            2.345     20.80    419.80
         O          2.032            2.345     20.80    419.78
         O          2.040            2.345     20.80    419.71
         O          2.040            2.345     20.80    419.71
         O          2.019            2.345     20.81    419.91
         O          2.031            2.345     20.80    419.79
         O          2.952            2.345     20.74    418.58
         O          2.952            2.345     20.74    418.58
         O          2.859            2.345     20.74    418.58
         O          2.853            2.345     20.74    418.58
         H          1.005            2.062      6.18     74.67
         H          1.003            2.062      6.18     74.68
         C          4.091            2.750     36.53   1056.53
         H          1.003            2.062      6.18     74.69
         C          3.465            2.750     44.33   1282.13
         H          1.001            2.062      6.18     74.71
         H          1.004            2.062      6.18     74.68
         H          1.004            2.062      6.18     74.67
         N          3.297            2.478     31.18    687.83
         C          4.057            2.750     36.57   1057.55
         C          4.057            2.750     36.57   1057.56
         C          4.028            2.750     36.61   1058.69
         H          1.000            2.062      6.18     74.72
         N          3.269            2.478     31.18    687.91
         H          0.999            2.062      6.18     74.73
         C          4.017            2.750     36.62   1059.18
         H          1.004            2.062      6.18     74.68
         H          0.999            2.062      6.18     74.73
         C          3.367            2.750     47.08   1361.57
         H          1.000            2.062      6.18     74.72
         C          3.363            2.750     47.18   1364.60
         H          1.004            2.062      6.18     74.68
         H          1.003            2.062      6.18     74.68
         H          0.999            2.062      6.18     74.73
         H          1.003            2.062      6.18     74.68

         Molecular C6 ( Ry / a.u.^6 ) =    751575.87


   Crystallographic axes

     site n.     atom                  positions (cryst. coord.)
         1        Ti     tau(   1) = (  0.3015080  0.5669754  0.8587881  )
         2        Ti     tau(   2) = (  0.7085907  0.4580384  0.1363695  )
         3        Ti     tau(   3) = (  0.3904736  0.2444457  0.7111947  )
         4        Ti     tau(   4) = (  0.5106082  0.6706976  0.2807132  )
         5        Ti     tau(   5) = (  0.4182967  0.7066411  0.1347262  )
         6        Ti     tau(   6) = (  0.5750762  0.3072447  0.8611583  )
         7        Ti     tau(   7) = (  0.2421909  0.3797811  0.7111664  )
         8        Ti     tau(   8) = (  0.6657981  0.5438419  0.2824329  )
         9        H      tau(   9) = (  0.6112227  0.4597696  0.6599431  )
        10        H      tau(  10) = (  0.0856682  0.9367688  0.5000081  )
        11        H      tau(  11) = (  0.7624254  0.9465987  0.3524114  )
        12        H      tau(  12) = (  0.4426573  0.8348486  0.8433582  )
        13        H      tau(  13) = (  0.6608329  0.2001945  0.1580669  )
        14        H      tau(  14) = (  0.0138984  0.4765231  0.8350153  )
        15        H      tau(  15) = (  0.9891351  0.6289655  0.1493916  )
        16        H      tau(  16) = (  0.5365999  0.0194165  0.8322553  )
        17        H      tau(  17) = (  0.1529487  0.6708346  0.1606664  )
        18        H      tau(  18) = (  0.6442883  0.4984274  0.5234815  )
        19        H      tau(  19) = (  0.4129969  0.5755459  0.6398183  )
        20        H      tau(  20) = (  0.9693605  0.1380768  0.4788478  )
        21        H      tau(  21) = (  0.3489096  0.5117169  0.9919870  )
        22        H      tau(  22) = (  0.5167104  0.3650607  0.0059315  )
        23        H      tau(  23) = (  0.4004206  0.0705880  0.4411723  )
        24        H      tau(  24) = (  0.5868606  0.9297022  0.5558559  )
        25        H      tau(  25) = (  0.0733038  0.6001568  0.6899010  )
        26        H      tau(  26) = (  0.9226999  0.4138622  0.3090337  )
        27        H      tau(  27) = (  0.0420815  0.3675493  0.4342375  )
        28        H      tau(  28) = (  0.3716597  0.9271127  0.3151555  )
        29        H      tau(  29) = (  0.5424694  0.9528551  0.1965835  )
        30        H      tau(  30) = (  0.6404217  0.1050236  0.2487191  )
        31        H      tau(  31) = (  0.5886446  0.6091443  0.1795156  )
        32        H      tau(  32) = (  0.4198676  0.4174002  0.8075119  )
        33        H      tau(  33) = (  0.8409787  0.3894116  0.7394296  )
        34        H      tau(  34) = (  0.7604277  0.3796682  0.7972334  )
        35        H      tau(  35) = (  0.9754120  0.6962063  0.6532308  )
        36        H      tau(  36) = (  0.8800184  0.6494968  0.5307672  )
        37        H      tau(  37) = (  0.6745555  0.0512186  0.7220977  )
        38        H      tau(  38) = (  0.6372088  0.1381145  0.7584201  )
        39        H      tau(  39) = (  0.4965785  0.4997302  0.7170927  )
        40        H      tau(  40) = (  0.4458550  0.6143046  0.5032257  )
        41        H      tau(  41) = (  0.7625743  0.7854973  0.2929027  )
        42        H      tau(  42) = (  0.9285867  0.7960324  0.3629313  )
        43        C      tau(  43) = (  0.8439127  0.5241955  0.3531504  )
        44        C      tau(  44) = (  0.1430938  0.4797627  0.6430632  )
        45        C      tau(  45) = (  0.4998789  0.1564793  0.6421118  )
        46        C      tau(  46) = (  0.4805241  0.8406167  0.3526236  )
        47        C      tau(  47) = (  0.9259186  0.5268115  0.4280326  )
        48        C      tau(  48) = (  0.0652593  0.4841930  0.5693551  )
        49        C      tau(  49) = (  0.5105529  0.0843152  0.5697136  )
        50        C      tau(  50) = (  0.4803758  0.9215819  0.4292948  )
        51        C      tau(  51) = (  0.9714384  0.5907207  0.5356981  )
        52        C      tau(  52) = (  0.0192338  0.4201148  0.4632456  )
        53        C      tau(  53) = (  0.5773626  0.0508033  0.6035064  )
        54        C      tau(  54) = (  0.4175962  0.9575495  0.3963748  )
        55        C      tau(  55) = (  0.5397275  0.9594317  0.5326920  )
        56        C      tau(  56) = (  0.4506045  0.0438425  0.4641870  )
        57        C      tau(  57) = (  0.9588719  0.4614073  0.3914184  )
        58        C      tau(  58) = (  0.0361539  0.5513007  0.6075349  )
        59        C      tau(  59) = (  0.5474276  0.5590395  0.5057411  )
        60        C      tau(  60) = (  0.5103656  0.5157270  0.6573525  )
        61        C      tau(  61) = (  0.8361045  0.8616382  0.3508611  )
        62        C      tau(  62) = (  0.0493110  0.0377463  0.4983957  )
        63        C      tau(  63) = (  0.6105525  0.1140880  0.9965713  )
        64        C      tau(  64) = (  0.4909773  0.9181462  0.0051911  )
        65        C      tau(  65) = (  0.9159097  0.5211900  0.9874799  )
        66        C      tau(  66) = (  0.1001108  0.5718925  0.9976698  )
        67        C      tau(  67) = (  0.5682203  0.5832079  0.4262576  )
        68        C      tau(  68) = (  0.1501449  0.1417843  0.5741878  )
        69        C      tau(  69) = (  0.6392703  0.2148368  0.9953007  )
        70        C      tau(  70) = (  0.4471466  0.8157122  0.0015772  )
        71        C      tau(  71) = (  0.8169785  0.4744629  0.9919015  )
        72        C      tau(  72) = (  0.2038325  0.6106533  0.9989703  )
        73        C      tau(  73) = (  0.4816946  0.5805754  0.5380251  )
        74        C      tau(  74) = (  0.5752971  0.4935174  0.6251948  )
        75        C      tau(  75) = (  0.8363048  0.9528344  0.3843395  )
        76        C      tau(  76) = (  0.0115267  0.9302014  0.4692426  )
        77        C      tau(  77) = (  0.6182959  0.1251018  0.0884920  )
        78        C      tau(  78) = (  0.4865108  0.9100440  0.9129673  )
        79        C      tau(  79) = ( -0.0179160  0.5716941  0.0861258  )
        80        C      tau(  80) = (  0.0076783  0.4999168  0.9050000  )
        81        C      tau(  81) = (  0.9300441  0.8678225  0.3901532  )
        82        C      tau(  82) = (  0.9674946  0.0660572  0.4523609  )
        83        C      tau(  83) = (  0.5938558  0.5150002  0.5495508  )
        84        C      tau(  84) = (  0.4633769  0.5588701  0.6136726  )
        85        C      tau(  85) = (  0.9201355  0.4901260  0.8933144  )
        86        C      tau(  86) = (  0.0795804  0.6144951  0.0890824  )
        87        C      tau(  87) = (  0.5551422  0.0185390  0.9045202  )
        88        C      tau(  88) = (  0.5860999  0.0308309  0.0944268  )
        89        N      tau(  89) = (  0.6111150  0.0362144  0.1876957  )
        90        N      tau(  90) = (  0.8320974  0.4198340  0.8003599  )
        91        N      tau(  91) = (  0.9445003  0.6564366  0.5767269  )
        92        N      tau(  92) = (  0.6394803  0.0871212  0.7035776  )
        93        O      tau(  93) = (  0.7949461  0.5635036  0.3833346  )
        94        O      tau(  94) = (  0.1520296  0.4017117  0.6113506  )
        95        O      tau(  95) = (  0.5700851  0.2096592  0.7363325  )
        96        O      tau(  96) = (  0.4406263  0.8216516  0.2605205  )
        97        O      tau(  97) = (  0.5186384  0.7918370  0.3816830  )
        98        O      tau(  98) = (  0.4204145  0.1633990  0.6108804  )
        99        O      tau(  99) = (  0.8210429  0.4806190  0.2594210  )
       100        O      tau( 100) = (  0.1958039  0.5527087  0.7356759  )
       101        O      tau( 101) = (  0.6061404  0.4141800  0.1905783  )
       102        O      tau( 102) = (  0.3515099  0.5204502  0.7742972  )
       103        O      tau( 103) = (  0.7397639  0.5906163  0.2171569  )
       104        O      tau( 104) = (  0.2085304  0.4112264  0.8073783  )
       105        O      tau( 105) = (  0.4216193  0.2094579  0.8057571  )
       106        O      tau( 106) = (  0.5546537  0.7476234  0.2174214  )
       107        O      tau( 107) = (  0.5294587  0.3590551  0.7801147  )
       108        O      tau( 108) = (  0.3804868  0.6043835  0.1859705  )
       109        O      tau( 109) = (  0.6274792  0.5616333  0.3977039  )
       110        O      tau( 110) = (  0.1483611  0.2240022  0.6055006  )
       111        O      tau( 111) = (  0.6047553  0.2109748  0.9088320  )
       112        O      tau( 112) = (  0.4663585  0.8107086  0.0852073  )
       113        O      tau( 113) = (  0.7282889  0.4087871  0.9087790  )
       114        O      tau( 114) = (  0.2702671  0.6755501  0.0845212  )
       115        O      tau( 115) = (  0.2355947  0.1456803  0.6056037  )
       116        O      tau( 116) = (  0.5265816  0.6250816  0.3892122  )
       117        O      tau( 117) = (  0.8025621  0.5086002  0.0780360  )
       118        O      tau( 118) = (  0.2051344  0.5866807  0.9139270  )
       119        O      tau( 119) = (  0.6793895  0.3106038  0.0795367  )
       120        O      tau( 120) = (  0.4040427  0.7198351  0.9157773  )
       121        O      tau( 121) = (  0.5775964  0.5963609  0.2340116  )
       122        O      tau( 122) = (  0.3534075  0.3500309  0.7556752  )
       123        O      tau( 123) = (  0.5811005  0.3992259  0.0002020  )
       124        O      tau( 124) = (  0.3831811  0.5810840  0.9959076  )
       125        H      tau( 125) = (  0.8868348  0.7767085  0.7145888  )
       126        H      tau( 126) = (  0.8622838  0.7133583  0.8394684  )
       127        C      tau( 127) = (  0.8559583  0.8249975  0.7292430  )
       128        H      tau( 128) = (  1.0653608  0.9319314  0.8732475  )
       129        C      tau( 129) = (  0.8141751  0.7438731  0.8389582  )
       130        H      tau( 130) = (  0.7975257  0.6535238  0.9527897  )
       131        H      tau( 131) = (  0.7954474  0.8015922  0.6562872  )
       132        H      tau( 132) = (  0.9756621  0.9570597  0.7324305  )
       133        N      tau( 133) = (  0.8021375  0.7957048  0.7891235  )
       134        C      tau( 134) = (  0.9442696  0.9427843  0.7844888  )
       135        C      tau( 135) = (  0.7481850  0.6835385  0.9509486  )
       136        C      tau( 136) = (  1.0336392  0.9800845  0.8858997  )
       137        H      tau( 137) = (  0.6661294  0.6179876  0.9182271  )
       138        N      tau( 138) = (  0.7569555  0.7358975  0.8881025  )
       139        H      tau( 139) = (  1.1581238  1.1124315  0.8866447  )
       140        C      tau( 140) = (  1.1229180  1.0970231  0.9358007  )
       141        H      tau( 141) = (  1.0023510  0.9670365  0.9384619  )
       142        H      tau( 142) = (  1.1856367  1.1217513  1.0079822  )
       143        C      tau( 143) = (  0.7352673  0.8222923  0.8073323  )
       144        H      tau( 144) = (  0.7750459  0.7403644  1.0281224  )
       145        C      tau( 145) = (  0.7067530  0.7846971  0.8691254  )
       146        H      tau( 146) = (  0.9107076  0.9891954  0.7959288  )
       147        H      tau( 147) = (  0.7134433  0.8647748  0.7749229  )
       148        H      tau( 148) = (  1.0939793  1.1471909  0.9513100  )
       149        H      tau( 149) = (  0.6553516  0.7880509  0.9003791  )

     number of k points=     1  Gaussian smearing, width (Ry)=  0.0500
                       cart. coord. in units 2pi/alat
        k(    1) = (   0.0000000   0.0000000   0.0000000), wk =   2.0000000

                       cryst. coord.
        k(    1) = (   0.0000000   0.0000000   0.0000000), wk =   2.0000000

     Dense  grid:  5564879 G-vectors     FFT dimensions: ( 243, 250, 240)

     Smooth grid:  1967325 G-vectors     FFT dimensions: ( 180, 180, 180)

     Dynamical RAM for                 wfc:      45.29 MB

     Dynamical RAM for     wfc (w. buffer):      45.29 MB

     Dynamical RAM for           str. fact:      14.64 MB

     Dynamical RAM for           local pot:       0.00 MB

     Dynamical RAM for          nlocal pot:     126.55 MB

     Dynamical RAM for                qrad:      20.30 MB

     Dynamical RAM for          rho,v,vnew:      21.30 MB

     Dynamical RAM for               rhoin:       7.10 MB

     Dynamical RAM for            rho*nmix:      46.85 MB

     Dynamical RAM for           G-vectors:      11.50 MB

     Dynamical RAM for          h,s,v(r/c):       1.40 MB

     Dynamical RAM for          <psi|beta>:       5.22 MB

     Dynamical RAM for                 psi:      90.58 MB

     Dynamical RAM for                hpsi:      90.58 MB

     Dynamical RAM for                spsi:      90.58 MB

     Dynamical RAM for      wfcinit/wfcrot:     134.28 MB

     Dynamical RAM for           addusdens:     702.73 MB

     Dynamical RAM for          addusforce:    1014.78 MB

     Dynamical RAM for         addusstress:     588.54 MB

     Estimated static dynamical RAM per process >     285.09 MB

     Estimated max dynamical RAM per process >       1.32 GB

     Estimated total dynamical RAM >      38.14 GB

     Initial potential from superposition of free atoms

     starting charge     574.9968, renormalised to     583.0000

     negative rho (up, down):  1.123E-02 0.000E+00
[ga01:2877492] 28 more processes have sent help message help-mpi-btl-openib.txt / error in device init
[ga01:2877492] Set MCA parameter "orte_base_help_aggregate" to 0 to see all help / error messages
     Starting wfcs are  497 randomized atomic wfcs
