200
Lattice="32.018782 0.0 0.0 -14.043870532898428 28.753623292648026 0.0 -8.625062807759862 -14.478403582935226 26.22054754850901" Properties=species:S:1:pos:R:3 i=69 E=-1376.2650183904 pbc="T T T"
N        2.48644766       0.87947548       4.18821494
N        2.71975070       2.72963383       3.05250451
C        1.86440048      -0.33005182       4.76277202
C        2.04711483      -1.52144399       3.81499428
C        1.27519410      -2.75619614       4.29163577
C        1.82480398       1.91612244       3.64607839
C        3.83872624       1.03722634       3.93365408
C        3.98766637       2.19436605       3.21764897
C       -4.92593585      10.61661676       3.39083295
C        2.38757226       3.93807160       2.28484816
H        0.80297573      -0.10352595       4.92557448
H        2.31855476      -0.51350713       5.74642573
H        1.71465767      -1.23456829       2.80650779
H        3.11964158      -1.75218904       3.72726840
H        0.19791378      -2.54269299       4.25867454
H        1.50377757      -2.95104127       5.35014418
H        0.75395077       2.06723790       3.67672329
H        4.57066174       0.31728326       4.27468908
H        4.87548350       2.69075544       2.83056127
H       -3.86561125      10.33910647       3.46526955
H       -5.51872439       9.75178297       3.71905147
H       -5.14782577      10.77894576       2.32750885
H        2.12417705       3.66431708       1.25655339
H        3.25952302       4.59983167       2.27811883
H        1.55089040       4.46237022       2.75823203
N       -1.82608374      -6.35972631      17.29848872
N       -1.59278070      -4.50956796      16.16277828
C       -2.44813093      -7.56925361      17.87304580
C       -2.26541657      -8.76064578      16.92526805
C       -3.03733730      -9.99539793      17.40190954
C       -2.48772742      -5.32307935      16.75635216
C       -0.47380517      -6.20197545      17.04392786
C       -0.32486504      -5.04483574      16.32792275
C       -9.23846725       3.37741497      16.50110672
C       -1.92495914      -3.30113019      15.39512194
H       -3.50955568      -7.34272774      18.03584825
H       -1.99397665      -7.75270892      18.85669951
H       -2.59787374      -8.47377008      15.91678156
H       -1.19288982      -8.99139084      16.83754217
H       -4.11461762      -9.78189478      17.36894832
H       -2.80875384     -10.19024306      18.46041795
H       -3.55858063      -5.17196389      16.78699707
H        0.25813034      -6.92191853      17.38496285
H        0.56295210      -4.54844635      15.94083505
H       -8.17814265       3.09990467      16.57554332
H       -9.83125580       2.51258118      16.82932524
H       -9.46035717       3.53974397      15.43778263
H       -2.18835435      -3.57488471      14.36682716
H       -1.05300838      -2.63937012      15.38839260
H       -2.76164100      -2.77683157      15.86850580
N       -4.53548760      15.25628712       4.18821494
N       -4.30218457      17.10644548       3.05250451
C       -5.15753479      14.04675983       4.76277202
C       -4.97482043      12.85536766       3.81499428
C       -5.74674117      11.62061551       4.29163577
C       -5.19713128      16.29293409       3.64607839
C       -3.18320903      15.41403799       3.93365408
C       -3.03426890      16.57117770       3.21764897
C      -11.94787111      24.99342841       3.39083295
C       -4.63436300      18.31488325       2.28484816
H       -6.21895954      14.27328570       4.92557448
H       -4.70338051      13.86330452       5.74642573
H       -5.30727760      13.14224335       2.80650779
H       -3.90229368      12.62462260       3.72726840
H       -6.82402148      11.83411866       4.25867454
H       -5.51815770      11.42577038       5.35014418
H       -6.26798449      16.44404955       3.67672329
H       -2.45127352      14.69409491       4.27468908
H       -2.14645177      17.06756708       2.83056127
H      -10.88754652      24.71591811       3.46526955
H      -12.54065966      24.12859461       3.71905147
H      -12.16976104      25.15575741       2.32750885
H       -4.89775821      18.04112873       1.25655339
H       -3.76241224      18.97664332       2.27811883
H       -5.47104486      18.83918186       2.75823203
N       -8.84801901       8.01708533      17.29848872
N       -8.61471597       9.86724369      16.16277828
C       -9.47006619       6.80755803      17.87304580
C       -9.28735184       5.61616587      16.92526805
C      -10.05927257       4.38141372      17.40190954
C       -9.50966269       9.05373229      16.75635216
C       -7.49574043       8.17483620      17.04392786
C       -7.34680030       9.33197591      16.32792275
C      -16.26040252      17.75422661      16.50110672
C       -8.94689441      11.07568146      15.39512194
H      -10.53149094       7.03408391      18.03584825
H       -9.01591191       6.62410273      18.85669951
H       -9.61980900       5.90304156      15.91678156
H       -8.21482509       5.38542081      16.83754217
H      -11.13655289       4.59491687      17.36894832
H       -9.83068910       4.18656859      18.46041795
H      -10.58051590       9.20484776      16.78699707
H       -6.76380493       7.45489312      17.38496285
H       -6.45898317       9.82836529      15.94083505
H      -15.20007792      17.47671632      16.57554332
H      -16.85319106      16.88939282      16.82932524
H      -16.48229244      17.91655562      15.43778263
H       -9.21028962      10.80192694      14.36682716
H       -8.07494365      11.73744153      15.38839260
H       -9.78357627      11.59998007      15.86850580
N       18.49583866       0.87947548       4.18821494
N       18.72914170       2.72963383       3.05250451
C       17.87379148      -0.33005182       4.76277202
C       18.05650583      -1.52144399       3.81499428
C       17.28458510      -2.75619614       4.29163577
C       17.83419498       1.91612244       3.64607839
C       19.84811724       1.03722634       3.93365408
C       19.99705737       2.19436605       3.21764897
C       11.08345515      10.61661676       3.39083295
C       18.39696326       3.93807160       2.28484816
H       16.81236673      -0.10352595       4.92557448
H       18.32794576      -0.51350713       5.74642573
H       17.72404867      -1.23456829       2.80650779
H       19.12903258      -1.75218904       3.72726840
H       16.20730478      -2.54269299       4.25867454
H       17.51316857      -2.95104127       5.35014418
H       16.76334177       2.06723790       3.67672329
H       20.58005274       0.31728326       4.27468908
H       20.88487450       2.69075544       2.83056127
H       12.14377975      10.33910647       3.46526955
H       10.49066661       9.75178297       3.71905147
H       10.86156523      10.77894576       2.32750885
H       18.13356805       3.66431708       1.25655339
H       19.26891402       4.59983167       2.27811883
H       17.56028140       4.46237022       2.75823203
N       14.18330726      -6.35972631      17.29848872
N       14.41661030      -4.50956796      16.16277828
C       13.56126007      -7.56925361      17.87304580
C       13.74397443      -8.76064578      16.92526805
C       12.97205370      -9.99539793      17.40190954
C       13.52166358      -5.32307935      16.75635216
C       15.53558583      -6.20197545      17.04392786
C       15.68452596      -5.04483574      16.32792275
C        6.77092375       3.37741497      16.50110672
C       14.08443186      -3.30113019      15.39512194
H       12.49983532      -7.34272774      18.03584825
H       14.01541435      -7.75270892      18.85669951
H       13.41151726      -8.47377008      15.91678156
H       14.81650118      -8.99139084      16.83754217
H       11.89477338      -9.78189478      17.36894832
H       13.20063716     -10.19024306      18.46041795
H       12.45081037      -5.17196389      16.78699707
H       16.26752134      -6.92191853      17.38496285
H       16.57234310      -4.54844635      15.94083505
H        7.83124835       3.09990467      16.57554332
H        6.17813520       2.51258118      16.82932524
H        6.54903383       3.53974397      15.43778263
H       13.82103665      -3.57488471      14.36682716
H       14.95638262      -2.63937012      15.38839260
H       13.24775000      -2.77683157      15.86850580
N       11.47390340      15.25628712       4.18821494
N       11.70720643      17.10644548       3.05250451
C       10.85185621      14.04675983       4.76277202
C       11.03457057      12.85536766       3.81499428
C       10.26264983      11.62061551       4.29163577
C       10.81225972      16.29293409       3.64607839
C       12.82618197      15.41403799       3.93365408
C       12.97512210      16.57117770       3.21764897
C        4.06151989      24.99342841       3.39083295
C       11.37502800      18.31488325       2.28484816
H        9.79043146      14.27328570       4.92557448
H       11.30601049      13.86330452       5.74642573
H       10.70211340      13.14224335       2.80650779
H       12.10709732      12.62462260       3.72726840
H        9.18536952      11.83411866       4.25867454
H       10.49123330      11.42577038       5.35014418
H        9.74140651      16.44404955       3.67672329
H       13.55811748      14.69409491       4.27468908
H       13.86293923      17.06756708       2.83056127
H        5.12184448      24.71591811       3.46526955
H        3.46873134      24.12859461       3.71905147
H        3.83962996      25.15575741       2.32750885
H       11.11163279      18.04112873       1.25655339
H       12.24697876      18.97664332       2.27811883
H       10.53834614      18.83918186       2.75823203
N        7.16137199       8.01708533      17.29848872
N        7.39467503       9.86724369      16.16277828
C        6.53932481       6.80755803      17.87304580
C        6.72203916       5.61616587      16.92526805
C        5.95011843       4.38141372      17.40190954
C        6.49972831       9.05373229      16.75635216
C        8.51365057       8.17483620      17.04392786
C        8.66259070       9.33197591      16.32792275
C       -0.25101152      17.75422661      16.50110672
C        7.06249659      11.07568146      15.39512194
H        5.47790006       7.03408391      18.03584825
H        6.99347909       6.62410273      18.85669951
H        6.38958200       5.90304156      15.91678156
H        7.79456591       5.38542081      16.83754217
H        4.87283811       4.59491687      17.36894832
H        6.17870190       4.18656859      18.46041795
H        5.42887510       9.20484776      16.78699707
H        9.24558607       7.45489312      17.38496285
H        9.55040783       9.82836529      15.94083505
H        0.80931308      17.47671632      16.57554332
H       -0.84380006      16.88939282      16.82932524
H       -0.47290144      17.91655562      15.43778263
H        6.79910138      10.80192694      14.36682716
H        7.93444735      11.73744153      15.38839260
H        6.22581473      11.59998007      15.86850580
