200
Lattice="32.018782 0.0 0.0 -14.043870532898428 28.753623292648026 0.0 -8.625062807759862 -14.478403582935226 26.22054754850901" Properties=species:S:1:pos:R:3 i=187 E=-1376.2734194531 pbc="T T T"
N        3.47194295       2.80923016      14.55958233
N        1.53197534       3.80277633      14.58230540
C        2.80058963       3.88283130      15.00617424
C        1.38015630       2.63970006      13.84285148
C        0.47627019       4.75742912      14.92390720
H        3.21048448       4.66802072      15.62603963
H        0.42328404       2.36056649      13.41570169
H        0.16939457       5.31212434      14.03102641
H       -0.37016268       4.19725845      15.32860863
H        0.85457143       5.44971740      15.68082858
C        2.60228111       2.01667557      13.82550359
C        5.75611867       4.76155767      13.72029846
H        5.12453877       2.98477980      15.79915227
H        4.74418682       5.11162777      13.46975598
H        5.96828875       5.14104205      14.73191618
C        6.75732260       5.35660400      12.71786295
H        6.54610787       5.00781712      11.69760187
H        7.78959798       5.06655608      12.95826947
H        6.71247212       6.45414907      12.70990747
C        4.90909646       2.57986425      14.80158224
C        5.79649620       3.22762518      13.73616639
H        5.04171551       1.49420672      14.85070413
H        6.82299209       2.88597466      13.93755161
H        5.53801973       2.82068684      12.74721507
H        2.91238799       1.08100821      13.37595829
N       -0.84058845      -4.42997163      27.66985610
N       -2.78055607      -3.43642546      27.69257917
C       -1.51194177      -3.35637049      28.11644802
C       -2.93237511      -4.59950173      26.95312526
C       -3.83626122      -2.48177267      28.03418097
H       -1.10204692      -2.57118107      28.73631340
H       -3.88924736      -4.87863530      26.52597546
H       -4.14313683      -1.92707745      27.14130018
H       -4.68269408      -3.04194334      28.43888241
H       -3.45795997      -1.78948440      28.79110235
C       -1.71025030      -5.22252622      26.93577737
C        1.44358726      -2.47764412      26.83057224
H        0.81200737      -4.25442200      28.90942604
H        0.43165541      -2.12757402      26.58002975
H        1.65575735      -2.09815974      27.84218996
C        2.44479120      -1.88259779      25.82813672
H        2.23357646      -2.23138468      24.80787565
H        3.47706657      -2.17264571      26.06854325
H        2.39994072      -0.78505272      25.82018124
C        0.59656506      -4.65933754      27.91185601
C        1.48396480      -4.01157661      26.84644016
H        0.72918411      -5.74499507      27.96097790
H        2.51046069      -4.35322714      27.04782538
H        1.22548832      -4.41851495      25.85748885
H       -1.40014342      -6.15819358      26.48623206
N       -3.54999231      17.18604180      14.55958233
N       -5.48995993      18.17958797      14.58230540
C       -4.22134563      18.25964295      15.00617424
C       -5.64177897      17.01651171      13.84285148
C       -6.54566508      19.13424077      14.92390720
H       -3.81145078      19.04483237      15.62603963
H       -6.59865123      16.73737814      13.41570169
H       -6.85254069      19.68893599      14.03102641
H       -7.39209795      18.57407010      15.32860863
H       -6.16736383      19.82652904      15.68082858
C       -4.41965416      16.39348721      13.82550359
C       -1.26581660      19.13836932      13.72029846
H       -1.89739650      17.36159144      15.79915227
H       -2.27774845      19.48843941      13.46975598
H       -1.05364651      19.51785370      14.73191618
C       -0.26461267      19.73341564      12.71786295
H       -0.47582740      19.38462876      11.69760187
H        0.76766271      19.44336773      12.95826947
H       -0.30946314      20.83096072      12.70990747
C       -2.11283880      16.95667590      14.80158224
C       -1.22543907      17.60443683      13.73616639
H       -1.98021975      15.87101837      14.85070413
H       -0.19894317      17.26278630      13.93755161
H       -1.48391554      17.19749848      12.74721507
H       -4.10954728      15.45781986      13.37595829
N       -7.86252372       9.94684001      27.66985610
N       -9.80249133      10.94038618      27.69257917
C       -8.53387704      11.02044115      28.11644802
C       -9.95431037       9.77730992      26.95312526
C      -10.85819648      11.89503897      28.03418097
H       -8.12398219      11.80563058      28.73631340
H      -10.91118263       9.49817634      26.52597546
H      -11.16507210      12.44973419      27.14130018
H      -11.70462935      11.33486831      28.43888241
H      -10.47989524      12.58732725      28.79110235
C       -8.73218556       9.15428542      26.93577737
C       -5.57834800      11.89916752      26.83057224
H       -6.20992790      10.12238965      28.90942604
H       -6.59027985      12.24923762      26.58002975
H       -5.36617792      12.27865191      27.84218996
C       -4.57714407      12.49421385      25.82813672
H       -4.78835880      12.14542697      24.80787565
H       -3.54486869      12.20416594      26.06854325
H       -4.62199455      13.59175893      25.82018124
C       -6.42537021       9.71747411      27.91185601
C       -5.53797047      10.36523504      26.84644016
H       -6.29275116       8.63181657      27.96097790
H       -4.51147458      10.02358451      27.04782538
H       -5.79644694       9.95829669      25.85748885
H       -8.42207868       8.21861807      26.48623206
N       19.48133395       2.80923016      14.55958233
N       17.54136634       3.80277633      14.58230540
C       18.80998063       3.88283130      15.00617424
C       17.38954730       2.63970006      13.84285148
C       16.48566119       4.75742912      14.92390720
H       19.21987548       4.66802072      15.62603963
H       16.43267504       2.36056649      13.41570169
H       16.17878557       5.31212434      14.03102641
H       15.63922832       4.19725845      15.32860863
H       16.86396243       5.44971740      15.68082858
C       18.61167211       2.01667557      13.82550359
C       21.76550967       4.76155767      13.72029846
H       21.13392977       2.98477980      15.79915227
H       20.75357782       5.11162777      13.46975598
H       21.97767975       5.14104205      14.73191618
C       22.76671360       5.35660400      12.71786295
H       22.55549887       5.00781712      11.69760187
H       23.79898898       5.06655608      12.95826947
H       22.72186312       6.45414907      12.70990747
C       20.91848746       2.57986425      14.80158224
C       21.80588720       3.22762518      13.73616639
H       21.05110651       1.49420672      14.85070413
H       22.83238309       2.88597466      13.93755161
H       21.54741073       2.82068684      12.74721507
H       18.92177899       1.08100821      13.37595829
N       15.16880255      -4.42997163      27.66985610
N       13.22883493      -3.43642546      27.69257917
C       14.49744923      -3.35637049      28.11644802
C       13.07701589      -4.59950173      26.95312526
C       12.17312978      -2.48177267      28.03418097
H       14.90734408      -2.57118107      28.73631340
H       12.12014364      -4.87863530      26.52597546
H       11.86625417      -1.92707745      27.14130018
H       11.32669692      -3.04194334      28.43888241
H       12.55143103      -1.78948440      28.79110235
C       14.29914070      -5.22252622      26.93577737
C       17.45297826      -2.47764412      26.83057224
H       16.82139837      -4.25442200      28.90942604
H       16.44104641      -2.12757402      26.58002975
H       17.66514835      -2.09815974      27.84218996
C       18.45418220      -1.88259779      25.82813672
H       18.24296746      -2.23138468      24.80787565
H       19.48645757      -2.17264571      26.06854325
H       18.40933172      -0.78505272      25.82018124
C       16.60595606      -4.65933754      27.91185601
C       17.49335580      -4.01157661      26.84644016
H       16.73857511      -5.74499507      27.96097790
H       18.51985169      -4.35322714      27.04782538
H       17.23487932      -4.41851495      25.85748885
H       14.60924758      -6.15819358      26.48623206
N       12.45939869      17.18604180      14.55958233
N       10.51943107      18.17958797      14.58230540
C       11.78804537      18.25964295      15.00617424
C       10.36761203      17.01651171      13.84285148
C        9.46372592      19.13424077      14.92390720
H       12.19794022      19.04483237      15.62603963
H        9.41073977      16.73737814      13.41570169
H        9.15685031      19.68893599      14.03102641
H        8.61729305      18.57407010      15.32860863
H        9.84202717      19.82652904      15.68082858
C       11.58973684      16.39348721      13.82550359
C       14.74357440      19.13836932      13.72029846
H       14.11199450      17.36159144      15.79915227
H       13.73164255      19.48843941      13.46975598
H       14.95574449      19.51785370      14.73191618
C       15.74477833      19.73341564      12.71786295
H       15.53356360      19.38462876      11.69760187
H       16.77705371      19.44336773      12.95826947
H       15.69992786      20.83096072      12.70990747
C       13.89655220      16.95667590      14.80158224
C       14.78395193      17.60443683      13.73616639
H       14.02917125      15.87101837      14.85070413
H       15.81044783      17.26278630      13.93755161
H       14.52547546      17.19749848      12.74721507
H       11.89984372      15.45781986      13.37595829
N        8.14686728       9.94684001      27.66985610
N        6.20689967      10.94038618      27.69257917
C        7.47551396      11.02044115      28.11644802
C        6.05508063       9.77730992      26.95312526
C        5.15119452      11.89503897      28.03418097
H        7.88540881      11.80563058      28.73631340
H        5.09820837       9.49817634      26.52597546
H        4.84431890      12.44973419      27.14130018
H        4.30476165      11.33486831      28.43888241
H        5.52949576      12.58732725      28.79110235
C        7.27720544       9.15428542      26.93577737
C       10.43104300      11.89916752      26.83057224
H        9.79946310      10.12238965      28.90942604
H        9.41911115      12.24923762      26.58002975
H       10.64321308      12.27865191      27.84218996
C       11.43224693      12.49421385      25.82813672
H       11.22103220      12.14542697      24.80787565
H       12.46452231      12.20416594      26.06854325
H       11.38739645      13.59175893      25.82018124
C        9.58402079       9.71747411      27.91185601
C       10.47142053      10.36523504      26.84644016
H        9.71663984       8.63181657      27.96097790
H       11.49791642      10.02358451      27.04782538
H       10.21294406       9.95829669      25.85748885
H        7.58731232       8.21861807      26.48623206
