25
 i =      340, E =     -1376.2776932941
  N         2.6546791350        3.1656384290       12.4332871664
  N         1.3505592199        4.2591584636       13.8000089041
  C        -5.8061281226      -11.8300222437       11.8887564819
  C        -4.6261773095      -11.1201902194       11.2263543068
  C       -10.2342629509        4.2620893715       12.1358237085
  C         2.3075212926        3.3143720121       13.7245950755
  C         8.4178791416      -10.5737418532       11.7240821149
  C         1.0776001755        4.7189544900       12.5245710826
  C        -4.3823064992       11.9251465051       -1.6815882083
  C         0.6807497109        4.6921792454       15.0313192786
  H       -11.9937688436        2.1883621776       12.6928117478
  H        -6.3086701639      -12.5151439357       11.1921990502
  H        -0.3604638559       -3.3915692252       -2.6650797983
  H        -4.0423737999      -11.9037020185       10.7193592544
  H       -10.7996844219        5.0605834277       12.6378138692
  H        -9.8913204132        3.5801818871       12.9284883558
  H         2.7249973803        2.7665834401       14.5607374697
  H        -2.8442295510       -2.8981278317       -2.5360016049
  H         0.3188718730        5.4707596210       12.3434557471
  H        -4.6915438264       12.6222831739       -2.4738477703
  H        -3.7755848246       11.1285082772       -2.1369213270
  H        -3.7297730787       12.4794536750       -0.9934370675
  H         0.1537848759        5.6288393682       14.8339906019
  H        -0.0407679633        3.9268113446       15.3429665937
  H         1.4285112501        4.8477978158       15.8144223744
