      -----------------------------------------------------------      
     |                   =====================                   |     
     |                           x T B                           |     
     |                   =====================                   |     
     |                         S. Grimme                         |     
     |          Mulliken Center for Theoretical Chemistry        |     
     |                    University of Bonn                     |     
      -----------------------------------------------------------      

   * xtb version 6.7.1 (edcfbbe) compiled by 'albert@albert-system' on 2024-07-22

   xtb is free software: you can redistribute it and/or modify it under
   the terms of the GNU Lesser General Public License as published by
   the Free Software Foundation, either version 3 of the License, or
   (at your option) any later version.
   
   xtb is distributed in the hope that it will be useful,
   but WITHOUT ANY WARRANTY; without even the implied warranty of
   MERCHANTABILITY or FITNESS FOR A PARTICULAR PURPOSE.  See the
   GNU Lesser General Public License for more details.
   
   Cite this work as:
   * C. Bannwarth, E. Caldeweyher, S. Ehlert, A. Hansen, P. Pracht,
     J. Seibert, S. Spicher, S. Grimme, WIREs Comput. Mol. Sci., 2020, 11,
     e01493. DOI: 10.1002/wcms.1493
   
   for GFN2-xTB:
   * C. Bannwarth, S. Ehlert and S. Grimme., J. Chem. Theory Comput., 2019,
     15, 1652-1671. DOI: 10.1021/acs.jctc.8b01176
   for GFN1-xTB:
   * S. Grimme, C. Bannwarth, P. Shushkov, J. Chem. Theory Comput., 2017,
     13, 1989-2009. DOI: 10.1021/acs.jctc.7b00118
   for GFN0-xTB:
   * P. Pracht, E. Caldeweyher, S. Ehlert, S. Grimme, ChemRxiv, 2019, preprint.
     DOI: 10.26434/chemrxiv.8326202.v1
   for GFN-FF:
   * S. Spicher and S. Grimme, Angew. Chem. Int. Ed., 2020, 59, 15665-15673.
     DOI: 10.1002/anie.202004239
   
   for ALPB and GBSA implicit solvation:
   * S. Ehlert, M. Stahn, S. Spicher, S. Grimme, J. Chem. Theory Comput.,
     2021, 17, 4250-4261. DOI: 10.1021/acs.jctc.1c00471
   
   for ddCOSMO and CPCM-X implicit solvation:
   * M. Stahn, S. Ehlert, S. Grimme, J. Phys. Chem. A,
     2023, XX, XXXX-XXXX. DOI: 10.1021/acs.jpca.3c04382
   
   for DFT-D4:
   * E. Caldeweyher, C. Bannwarth and S. Grimme, J. Chem. Phys., 2017,
     147, 034112. DOI: 10.1063/1.4993215
   * E. Caldeweyher, S. Ehlert, A. Hansen, H. Neugebauer, S. Spicher,
     C. Bannwarth and S. Grimme, J. Chem. Phys., 2019, 150, 154122.
     DOI: 10.1063/1.5090222
   * E. Caldeweyher, J.-M. Mewes, S. Ehlert and S. Grimme, Phys. Chem. Chem. Phys.
     2020, 22, 8499-8512. DOI: 10.1039/D0CP00502A
   
   for sTDA-xTB:
   * S. Grimme and C. Bannwarth, J. Chem. Phys., 2016, 145, 054103.
     DOI: 10.1063/1.4959605
   
   in the mass-spec context:
   * V. Asgeirsson, C. Bauer and S. Grimme, Chem. Sci., 2017, 8, 4879.
     DOI: 10.1039/c7sc00601b
   * J. Koopman and S. Grimme, ACS Omega 2019, 4, 12, 15120-15133.
     DOI: 10.1021/acsomega.9b02011
   
   for metadynamics refer to:
   * S. Grimme, J. Chem. Theory Comput., 2019, 155, 2847-2862
     DOI: 10.1021/acs.jctc.9b00143
   
   for SPH calculations refer to:
   * S. Spicher and S. Grimme, J. Chem. Theory Comput., 2021, 17, 1701-1714
     DOI: 10.1021/acs.jctc.0c01306
   
   for ONIOM refer to:
   * C. Plett, A. Katbashev, S. Ehlert, S. Grimme, M. Bursch,
     Phys. Chem. Chem. Phys., 2023, 25, 17860-17868. DOI: 10.1039/D3CP02178E
   
   for DIPRO refer to:
   * J. Kohn, N. Gildemeister, S. Grimme, D. Fazzi, A. Hansen,
     J. Chem. Phys., 2023, just accepted.
   
   for PTB refer to:
   * S. Grimme, M. Mueller, A. Hansen, J. Chem. Phys., 2023, 158, 124111.
     DOI: 10.1063/5.0137838
   
   with help from (in alphabetical order)
   P. Atkinson, C. Bannwarth, F. Bohle, G. Brandenburg, E. Caldeweyher
   M. Checinski, S. Dohm, S. Ehlert, S. Ehrlich, I. Gerasimov, C. Hölzer
   A. Katbashev, J. Kohn, J. Koopman, C. Lavigne, S. Lehtola, F. März, M. Müller,
   F. Musil, H. Neugebauer, J. Pisarek, C. Plett, P. Pracht, F. Pultar,
   J. Seibert, P. Shushkov, S. Spicher, M. Stahn, M. Steiner, T. Strunk,
   J. Stückrath, T. Rose, and J. Unsleber
   
 * started run on 2025/06/22 at 04:43:14.984     
   ID    Z sym.   atoms
    1   22 Ti00   1-8
    2    1 H009   9
    3    1 H010   10
    4    1 H011   11
    5    1 H012   12
    6    1 H013   13
    7    1 H014   14
    8    1 H015   15
    9    1 H016   16
   10    1 H017   17
   11    1 H018   18
   12    1 H019   19
   13    1 H020   20
   14    1 H021   21
   15    1 H022   22
   16    1 H023   23
   17    1 H024   24
   18    1 H025   25
   19    1 H026   26
   20    1 H027   27
   21    1 H028   28
   22    1 H029   29
   23    1 H030   30
   24    1 H031   31
   25    1 H032   32
   26    1 H033   33
   27    1 H034   34
   28    1 H035   35
   29    1 H036   36
   30    1 H037   37
   31    1 H038   38
   32    1 H039   39
   33    1 H040   40
   34    1 H041   41
   35    1 H042   42
   36    6 C043   43
   37    6 C044   44
   38    6 C045   45
   39    6 C046   46
   40    6 C047   47
   41    6 C048   48
   42    6 C049   49
   43    6 C050   50
   44    6 C051   51
   45    6 C052   52
   46    6 C053   53
   47    6 C054   54
   48    6 C055   55
   49    6 C056   56
   50    6 C057   57
   51    6 C058   58
   52    6 C059   59
   53    6 C060   60
   54    6 C061   61
   55    6 C062   62
   56    6 C063   63
   57    6 C064   64
   58    6 C065   65
   59    6 C066   66
   60    6 C067   67
   61    6 C068   68
   62    6 C069   69
   63    6 C070   70
   64    6 C071   71
   65    6 C072   72
   66    6 C073   73
   67    6 C074   74
   68    6 C075   75
   69    6 C076   76
   70    6 C077   77
   71    6 C078   78
   72    6 C079   79
   73    6 C080   80
   74    6 C081   81
   75    6 C082   82
   76    6 C083   83
   77    6 C084   84
   78    6 C085   85
   79    6 C086   86
   80    6 C087   87
   81    6 C088   88
   82    7 N089   89
   83    7 N090   90
   84    7 N091   91
   85    7 N092   92
   86    8 O093   93
   87    8 O094   94
   88    8 O095   95
   89    8 O096   96
   90    8 O097   97
   91    8 O098   98
   92    8 O099   99
   93    8 O100   100
   94    8 O101   101
   95    8 O102   102
   96    8 O103   103
   97    8 O104   104
   98    8 O105   105
   99    8 O106   106
  100    8 O107   107
  101    8 O108   108
  102    8 O109   109
  103    8 O110   110
  104    8 O111   111
  105    8 O112   112
  106    8 O113   113
  107    8 O114   114
  108    8 O115   115
  109    8 O116   116
  110    8 O117   117
  111    8 O118   118
  112    8 O119   119
  113    8 O120   120
  114    8 O121   121
  115    8 O122   122
  116    8 O123   123
  117    8 O124   124
  118   16 S      125, 126
  119    9 F      127-132
  120    8 O      133-136
  121    7 N      137
  122    6 C      138, 139

           -------------------------------------------------
          |                Calculation Setup                |
           -------------------------------------------------

          program call               : xtb xtb.coord --gfn 1 --opt loose --nocellopt --etemp 2000 --maxit 800 --chrg -1 --damping 0.5 --input xcontrol
          hostname                   : ga00
          coordinate file            : xtb.coord
          omp threads                :                     8


molecular fragmentation (1/2 indicates fragments):
121221122222212222221212121222221122112222211221122112212122222211221211
2222222122221222212121122121212112122212122221212221222222222222222
# atoms in fragment 1/2:    43    96
 fragment masses (1/2) :      616.71     1201.15
CMA distance (Bohr)    :  15.503
constraining FC (au)   :  0.0500
########################################################################
[WARNING] Please study the warnings concerning your input carefully
-2- prog_main_parseArguments: Unknown option '--damping' provided
-1- prog_main_parseArguments: Unknown option '--maxit' provided
########################################################################

           -------------------------------------------------
          |                 G F N 1 - x T B                 |
           -------------------------------------------------

        Reference                      10.1021/acs.jctc.7b00118
      * Hamiltonian:
        H0-scaling (s, p, d)           1.850000    2.250000    2.000000
        zeta-weighting                 0.000000
      * Dispersion:
        s8                             2.400000
        a1                             0.630000
        a2                             5.000000
        s9                             0.000000
      * Repulsion:
        kExp                           1.500000
        rExp                           1.000000
      * Coulomb:
        alpha                          2.000000
        third order                    atomic
        anisotropic                    false
      * Halogen bond correction:
        rad-scale                      1.300000
        damping                        0.440000

q/qsh data taken from xtbrestart

          ...................................................
          :                      SETUP                      :
          :.................................................:
          :  # basis functions                 548          :
          :  # atomic orbitals                 538          :
          :  # shells                          288          :
          :  # electrons                       554          :
          :  # halogen bonds                     0          :
          :  max. iterations                   250          :
          :  Hamiltonian                  GFN1-xTB          :
          :  restarted?                       true          :
          :  GBSA solvation                  false          :
          :  PC potential                    false          :
          :  electronic temp.         2000.0000000     K    :
          :  accuracy                    1.0000000          :
          :  -> integral cutoff          0.2500000E+02      :
          :  -> integral neglect         0.1000000E-07      :
          :  -> SCF convergence          0.1000000E-05 Eh   :
          :  -> wf. convergence          0.2000000E-04 e    :
          :  Broyden damping             0.4000000          :
          :  net charge                         -1          :
          :  unpaired electrons                  0          :
          ...................................................

 iter      E             dE          RMSdq      gap      omega  full diag
   1   -311.4306250 -0.311431E+03  0.899E+00    0.01       0.0  T
   2     85.0858877  0.396517E+03  0.232E+01    0.09       1.0  T
   3   -174.4324677 -0.259518E+03  0.185E+01    0.03       1.0  T
   4   -298.0165880 -0.123584E+03  0.106E+01    0.23       1.0  T
   5   -331.0157208 -0.329991E+02  0.700E+00    0.00       1.0  T
   6   -337.3016875 -0.628597E+01  0.563E+00    0.05       1.0  T
   7   -343.0302606 -0.572857E+01  0.523E+00    0.08       1.0  T
   8   -347.4507228 -0.442046E+01  0.414E+00    0.22       1.0  T
   9   -348.7469456 -0.129622E+01  0.399E+00    0.06       1.0  T
  10   -348.4073851  0.339561E+00  0.407E+00    0.10       1.0  T
  11   -348.7215110 -0.314126E+00  0.406E+00    0.07       1.0  T
  12   -338.1541536  0.105674E+02  0.481E+00    0.13       1.0  T
  13   -345.5172041 -0.736305E+01  0.466E+00    0.01       1.0  T
  14   -337.5814031  0.793580E+01  0.557E+00    0.02       1.0  T
  15   -343.5959552 -0.601455E+01  0.418E+00    0.04       1.0  T
  16   -332.5739834  0.110220E+02  0.731E+00    0.05       1.0  T
  17   -347.9965550 -0.154226E+02  0.408E+00    0.00       1.0  T
  18   -339.2265558  0.877000E+01  0.529E+00    0.12       1.0  T
  19   -338.8939355  0.332620E+00  0.528E+00    0.01       1.0  T
  20   -343.9949564 -0.510102E+01  0.372E+00    0.00       1.0  T
  21   -347.2019937 -0.320704E+01  0.323E+00    0.02       1.0  T
  22   -349.0522379 -0.185024E+01  0.280E+00    0.06       1.0  T
  23   -344.6354952  0.441674E+01  0.430E+00    0.04       1.0  T
  24   -345.0838052 -0.448310E+00  0.427E+00    0.04       1.0  T
  25   -339.5895218  0.549428E+01  0.548E+00    0.05       1.0  T
  26   -341.1061752 -0.151665E+01  0.510E+00    0.06       1.0  T
  27   -348.9100992 -0.780392E+01  0.248E+00    0.01       1.0  T
  28   -349.7235449 -0.813446E+00  0.200E+00    0.02       1.0  T
  29   -351.1009254 -0.137738E+01  0.153E+00    0.03       1.0  T
  30   -351.0941945  0.673083E-02  0.163E+00    0.00       1.0  T
  31   -351.3802767 -0.286082E+00  0.116E+00    0.02       1.0  T
  32   -351.5781028 -0.197826E+00  0.107E+00    0.01       1.0  T
  33   -351.8013875 -0.223285E+00  0.528E-01    0.00       1.0  T
  34   -351.7897941  0.115934E-01  0.512E-01    0.00       1.0  T
  35   -351.4337446  0.356049E+00  0.112E+00    0.01       1.0  T
  36   -351.8692553 -0.435511E+00  0.385E-01    0.00       1.0  T
  37   -351.7295199  0.139735E+00  0.649E-01    0.01       1.0  T
  38   -351.9073021 -0.177782E+00  0.142E-01    0.01       1.0  T
  39   -351.8978337  0.946843E-02  0.205E-01    0.01       1.0  T
  40   -351.8992263 -0.139267E-02  0.213E-01    0.01       1.0  T
  41   -351.8884433  0.107831E-01  0.260E-01    0.01       1.0  T
  42   -351.8929834 -0.454008E-02  0.226E-01    0.01       1.0  T
  43   -351.9108337 -0.178503E-01  0.970E-02    0.01       1.0  T
  44   -351.9121711 -0.133745E-02  0.724E-02    0.01       1.0  T
  45   -351.9131752 -0.100412E-02  0.475E-02    0.01       1.0  T
  46   -351.9130328  0.142394E-03  0.474E-02    0.01       1.0  T
  47   -351.9130743 -0.414206E-04  0.462E-02    0.01       1.0  T
  48   -351.9138044 -0.730103E-03  0.184E-02    0.01       1.0  T
  49   -351.9128892  0.915152E-03  0.489E-02    0.01       1.0  T
  50   -351.9133721 -0.482871E-03  0.359E-02    0.01       1.0  T
  51   -351.9138677 -0.495609E-03  0.932E-03    0.01       1.0  T
  52   -351.9139006 -0.329037E-04  0.229E-03    0.01       3.7  T
  53   -351.9138645  0.360805E-04  0.943E-03    0.01       1.0  T
  54   -351.9138928 -0.282586E-04  0.486E-03    0.01       1.7  T
  55   -351.9138841  0.865935E-05  0.661E-03    0.01       1.3  T
  56   -351.9139017 -0.175885E-04  0.160E-03    0.01       5.3  T
  57   -351.9139021 -0.418545E-06  0.104E-03    0.01       8.2  T
  58   -351.9139016  0.518370E-06  0.147E-03    0.01       5.8  T
  59   -351.9139022 -0.647685E-06  0.834E-04    0.01      10.2  T
  60   -351.9139025 -0.213610E-06  0.303E-04    0.01      28.0  T
  61   -351.9139023  0.118260E-06  0.574E-04    0.01      14.8  T
  62   -351.9139024 -0.171149E-07  0.545E-04    0.01      15.6  T
  63   -351.9139025 -0.123180E-06  0.171E-04    0.01      49.5  T
  64   -351.9139025 -0.596742E-08  0.113E-04    0.01      75.0  T

   *** convergence criteria satisfied after 64 iterations ***

         #    Occupation            Energy/Eh            Energy/eV
      -------------------------------------------------------------
         1        2.0000           -1.0104336             -27.4953
       ...           ...                  ...                  ...
       271        1.5225           -0.4043213             -11.0021
       272        1.2848           -0.4006881             -10.9033
       273        1.1910           -0.3994280             -10.8690
       274        1.1733           -0.3991952             -10.8627
       275        1.0656           -0.3978103             -10.8250
       276        1.0612           -0.3977544             -10.8234
       277        1.0486           -0.3975937             -10.8191 (HOMO)
       278        1.0182           -0.3972092             -10.8086 (LUMO)
       279        0.9253           -0.3960301             -10.7765
       280        0.8789           -0.3954366             -10.7604
       281        0.8073           -0.3945064             -10.7351
       282        0.8045           -0.3944690             -10.7340
       ...           ...                  ...                  ...
       538                          6.0218663             163.8633
      -------------------------------------------------------------
                  HL-Gap            0.0003845 Eh            0.0105 eV
             Fermi-level           -0.3969781 Eh          -10.8023 eV

 SCC (total)                   0 d,  0 h,  0 min,  1.152 sec
 SCC setup                      ...        0 min,  0.017 sec (  1.485%)
 Dispersion                     ...        0 min,  0.021 sec (  1.788%)
 classical contributions        ...        0 min,  0.001 sec (  0.100%)
 integral evaluation            ...        0 min,  0.021 sec (  1.835%)
 iterations                     ...        0 min,  1.026 sec ( 89.021%)
 molecular gradient             ...        0 min,  0.061 sec (  5.322%)
 printout                       ...        0 min,  0.005 sec (  0.446%)

         :::::::::::::::::::::::::::::::::::::::::::::::::::::
         ::                     SUMMARY                     ::
         :::::::::::::::::::::::::::::::::::::::::::::::::::::
         :: total energy            -349.424219412861 Eh    ::
         :: gradient norm              1.021294924782 Eh/a0 ::
         :: HOMO-LUMO gap              0.010463533664 eV    ::
         ::.................................................::
         :: SCC energy              -351.913902482445 Eh    ::
         :: -> electrostatic           2.369709397829 Eh    ::
         :: repulsion energy           2.668451030337 Eh    ::
         :: dispersion energy         -0.178767960753 Eh    ::
         :: halogen bond corr.         0.000000000000 Eh    ::
         :: add. restraining           0.000000000000 Eh    ::
         :: total charge              -0.999999999681 e     ::
         :::::::::::::::::::::::::::::::::::::::::::::::::::::

      ----------------------------------------------------------- 
     |                   =====================                   |
     |                        A N C O P T                        |
     |                   =====================                   |
     |               Approximate Normal Coordinate               |
     |                Rational Function Optimizer                |
      ----------------------------------------------------------- 
      ----------------------------------------------------------- 
     |                   =====================                   |
     |                        A N C O P T                        |
     |                   =====================                   |
     |               Approximate Normal Coordinate               |
     |                Rational Function Optimizer                |
      ----------------------------------------------------------- 

          ...................................................
          :                      SETUP                      :
          :.................................................:
          :   optimization level             loose          :
          :   max. optcycles                   278          :
          :   ANC micro-cycles                  20          :
          :   degrees of freedom                39          :
          :.................................................:
          :   RF solver                   davidson          :
          :   write xtbopt.log                true          :
          :   linear?                        false          :
          :   energy convergence         0.5000000E-04 Eh   :
          :   grad. convergence          0.4000000E-02 Eh/α :
          :   maxmium RF displ.          1.0000000          :
          :   Hlow (freq-cutoff)         0.1000000E-01      :
          :   Hmax (freq-cutoff)         5.0000000          :
          :   S6 in model hess.         20.0000000          :
          ...................................................

generating ANC from exact Hessian ...
Using Lindh-Hessian (1995)
 Shifting diagonal of input Hessian by   1.016059999861028E-002
 Lowest  eigenvalues of input Hessian
    0.010000    0.010002    0.010044    0.010047    0.010050    0.010053
    0.010053    0.010062    0.010065    0.010093    0.010108    0.010121
    0.010124    0.010128    0.010139    0.010142    0.010150    0.010152
 Highest eigenvalues
    2.168161    2.207924    2.208322    2.220057    3.044210    3.595261
 

........................................................................
.............................. CYCLE    1 ..............................
........................................................................

 iter      E             dE          RMSdq      gap      omega  full diag
   1   -351.9139025 -0.351914E+03  0.568E-05    0.01       0.0  T
   2   -351.9139008  0.168000E-05  0.185E-03    0.01       4.6  T
   3   -351.9139024 -0.160761E-05  0.332E-04    0.01      25.6  T
   4   -351.9139025 -0.434480E-07  0.216E-04    0.01      39.2  T
   5   -351.9139025 -0.258662E-07  0.762E-05    0.01     111.4  T
   6   -351.9139025  0.209354E-09  0.833E-05    0.01     101.8  T
     SCC iter.                  ...        0 min,  0.098 sec
     gradient                   ...        0 min,  0.061 sec
 * total energy  :  -349.4242194 Eh     change       -0.2605134E-09 Eh
   gradient norm :     0.0149977 Eh/α   predicted     0.0000000E+00 (-100.00%)
   displ. norm   :     0.0070047 α      lambda       -0.1000674E-03
   maximum displ.:     0.0040054 α      in ANC's #11, #12, #31, ...

........................................................................
.............................. CYCLE    2 ..............................
........................................................................

 iter      E             dE          RMSdq      gap      omega  full diag
   1   -351.9139943 -0.351914E+03  0.109E-02    0.00       0.0  T
   2   -351.8878340  0.261602E-01  0.201E-01    0.02       1.0  T
   3   -351.9128004 -0.249664E-01  0.634E-02    0.02       1.0  T
   4   -351.9127897  0.107652E-04  0.503E-02    0.01       1.0  T
   5   -351.9137901 -0.100045E-02  0.210E-02    0.00       1.0  T
   6   -351.9131348  0.655301E-03  0.393E-02    0.01       1.0  T
   7   -351.9136370 -0.502140E-03  0.271E-02    0.01       1.0  T
   8   -351.9140124 -0.375472E-03  0.806E-03    0.01       1.1  T
   9   -351.9138928  0.119607E-03  0.137E-02    0.01       1.0  T
  10   -351.9140296 -0.136734E-03  0.520E-03    0.01       1.6  T
  11   -351.9140402 -0.106401E-04  0.345E-03    0.01       2.5  T
  12   -351.9140406 -0.382799E-06  0.325E-03    0.01       2.6  T
  13   -351.9140435 -0.289135E-05  0.228E-03    0.01       3.7  T
  14   -351.9140449 -0.139242E-05  0.164E-03    0.01       5.2  T
  15   -351.9140446  0.250871E-06  0.175E-03    0.01       4.9  T
  16   -351.9140457 -0.109289E-05  0.113E-03    0.01       7.5  T
  17   -351.9140463 -0.638700E-06  0.591E-04    0.01      14.3  T
  18   -351.9140465 -0.145704E-06  0.403E-04    0.01      21.1  T
  19   -351.9140465 -0.396539E-07  0.266E-04    0.01      31.9  T
  20   -351.9140466 -0.326959E-07  0.137E-04    0.01      61.9  T
  21   -351.9140466 -0.315640E-08  0.114E-04    0.01      74.2  T
     SCC iter.                  ...        0 min,  0.336 sec
     gradient                   ...        0 min,  0.060 sec
 * total energy  :  -349.4244105 Eh     change       -0.1911071E-03 Eh
   gradient norm :     0.0098100 Eh/α   predicted    -0.5003677E-04 ( -73.82%)
   displ. norm   :     0.0140064 α      lambda       -0.1317717E-03
   maximum displ.:     0.0078974 α      in ANC's #11, #12, #31, ...

........................................................................
.............................. CYCLE    3 ..............................
........................................................................

 iter      E             dE          RMSdq      gap      omega  full diag
   1   -351.9140213 -0.351914E+03  0.248E-02    0.01       0.0  T
   2   -351.7252487  0.188773E+00  0.543E-01    0.02       1.0  T
   3   -351.9026686 -0.177420E+00  0.147E-01    0.02       1.0  T
   4   -351.9085069 -0.583825E-02  0.120E-01    0.01       1.0  T
   5   -351.9136685 -0.516161E-02  0.370E-02    0.00       1.0  T
   6   -351.9103181  0.335033E-02  0.821E-02    0.00       1.0  T
   7   -351.9123139 -0.199579E-02  0.574E-02    0.00       1.0  T
   8   -351.9141858 -0.187189E-02  0.166E-02    0.00       1.0  T
   9   -351.9134699  0.715941E-03  0.326E-02    0.00       1.0  T
  10   -351.9142537 -0.783781E-03  0.112E-02    0.01       1.0  T
  11   -351.9143067 -0.530806E-04  0.753E-03    0.01       1.1  T
  12   -351.9143128 -0.610742E-05  0.665E-03    0.01       1.3  T
  13   -351.9143222 -0.938885E-05  0.527E-03    0.01       1.6  T
  14   -351.9143307 -0.849113E-05  0.350E-03    0.01       2.4  T
  15   -351.9143308 -0.480429E-07  0.345E-03    0.01       2.5  T
  16   -351.9143342 -0.346567E-05  0.240E-03    0.01       3.5  T
  17   -351.9143369 -0.263461E-05  0.149E-03    0.01       5.7  T
  18   -351.9143380 -0.108338E-05  0.851E-04    0.01      10.0  T
  19   -351.9143381 -0.121202E-06  0.649E-04    0.01      13.1  T
  20   -351.9143383 -0.205372E-06  0.378E-04    0.01      22.5  T
  21   -351.9143383 -0.397142E-07  0.255E-04    0.01      33.2  T
  22   -351.9143383 -0.579178E-09  0.220E-04    0.01      38.6  T
  23   -351.9143384 -0.290419E-07  0.636E-05    0.01     133.3  T
  24   -351.9143384 -0.869704E-10  0.533E-05    0.01     159.2  T
     SCC iter.                  ...        0 min,  0.386 sec
     gradient                   ...        0 min,  0.061 sec
 * total energy  :  -349.4247155 Eh     change       -0.3049862E-03 Eh
   gradient norm :     0.0025989 Eh/α   predicted    -0.6589964E-04 ( -78.39%)
   displ. norm   :     0.0010889 α      lambda       -0.2471485E-05
   maximum displ.:     0.0008492 α      in ANC's #31, #38, #39, ...

........................................................................
.............................. CYCLE    4 ..............................
........................................................................

 iter      E             dE          RMSdq      gap      omega  full diag
   1   -351.9143561 -0.351914E+03  0.420E-03    0.00       0.0  T
   2   -351.8993666  0.149896E-01  0.158E-01    0.02       1.0  T
   3   -351.9135052 -0.141386E-01  0.342E-02    0.01       1.0  T
   4   -351.9142932 -0.788015E-03  0.159E-02    0.01       1.0  T
   5   -351.9143398 -0.465639E-04  0.798E-03    0.00       1.1  T
   6   -351.9142776  0.621763E-04  0.106E-02    0.01       1.0  T
   7   -351.9143611 -0.834742E-04  0.362E-03    0.01       2.3  T
   8   -351.9143422  0.188682E-04  0.601E-03    0.01       1.4  T
   9   -351.9143649 -0.226746E-04  0.272E-03    0.01       3.1  T
  10   -351.9143676 -0.268694E-05  0.143E-03    0.01       5.9  T
  11   -351.9143688 -0.122209E-05  0.525E-04    0.01      16.2  T
  12   -351.9143687  0.100616E-06  0.697E-04    0.01      12.2  T
  13   -351.9143687  0.451155E-08  0.634E-04    0.01      13.4  T
  14   -351.9143688 -0.100875E-06  0.479E-04    0.01      17.7  T
  15   -351.9143689 -0.835049E-07  0.307E-04    0.01      27.6  T
  16   -351.9143689 -0.200670E-07  0.236E-04    0.01      36.0  T
  17   -351.9143689 -0.207295E-07  0.170E-04    0.01      49.9  T
  18   -351.9143689 -0.136725E-07  0.853E-05    0.01      99.5  T
     SCC iter.                  ...        0 min,  0.291 sec
     gradient                   ...        0 min,  0.060 sec
 * total energy  :  -349.4247474 Eh     change       -0.3192910E-04 Eh
   gradient norm :     0.0019081 Eh/α   predicted    -0.1234519E-05 ( -96.13%)
   displ. norm   :     0.0041822 α      lambda       -0.4914527E-05
   maximum displ.:     0.0032041 α      in ANC's #31, #38, #39, ...

   *** GEOMETRY OPTIMIZATION CONVERGED AFTER 4 ITERATIONS ***

------------------------------------------------------------------------
 total energy gain   :        -0.0005280 Eh       -0.3313 kcal/mol
 total RMSD          :         0.0018245 a0        0.0010 Å
 total power (kW/mol):        -0.3465809 (step)   -0.8764 (real)
------------------------------------------------------------------------

 ANCopt (total)                0 d,  0 h,  0 min,  1.583 sec
 optimizer setup                ...        0 min,  0.003 sec (  0.170%)
 model hessian                  ...        0 min,  0.030 sec (  1.919%)
 ANC generation                 ...        0 min,  0.010 sec (  0.654%)
 coordinate transformation      ...        0 min,  0.000 sec (  0.006%)
 single point calculation       ...        0 min,  1.536 sec ( 97.028%)
 optimization log               ...        0 min,  0.002 sec (  0.112%)
 hessian update                 ...        0 min,  0.000 sec (  0.002%)
 rational function              ...        0 min,  0.000 sec (  0.026%)

================
 final structure:
================
$coord angs
       -2.86833499937143        2.11544199962821       11.26521399928931      Ti00
        7.80278799988994        5.38320999791343        1.84439099860993      Ti00
        1.35257197696766       -1.67350000146869        9.41711301766975      Ti00
        2.51179199208450        7.54265207286691        3.64841390444191      Ti00
        1.44467199957812        9.18741799988630        1.75198899865772      Ti00
        3.25945799345235       -1.86425699808700       11.35953000275764      Ti00
       -1.86978199288451        0.41602399916714        9.36613998814829      Ti00
        5.81598407993118        5.61428401749408        3.70328088692415      Ti00
        3.74689638977299        1.65262556229649        8.58343923336197      H009
       -7.02491604905222       10.14276484257547        6.47825699999958      H010
        4.43162999999900       11.01061199999913        4.65043799999520      H011
       -2.50369399999457        6.02805099998379       11.04845999998283      H012
        8.74873699891271        1.50734199864877        2.15525000008599      H013
       -6.80154199998916        1.22189299999758       10.90364399998792      H014
       11.11424599999557        7.50383799999752        2.02908899999814      H015
        4.37272099998731       -5.86202000000044       10.96265299999347      H016
       -2.58914300015302        8.45618100003274        2.09570299984426      H017
        4.65696593439503        3.20414714818520        6.82695290382013      H018
       -0.04522434553012        3.67026811857392        8.40603003993499      H019
       12.44091800000552       -1.82816699999687        6.37854000000128      H020
       -2.32715878030389        0.33192933950595       12.98424924566426      H021
        5.92738499662677        5.07740299799320        0.15458400058525      H022
        3.76142588883496       -2.50661707355140        5.84472583822119      H023
        0.74555999908569        9.31426200060273        7.27943099943109      H024
       -6.05991299992446        3.66121299997215        9.03748999868227      H025
       10.64124699997714        3.39337900005726        4.13213399779020      H026
       -3.72858699226025        2.29870799830179        5.68886999442951      H027
       -1.70397199985742       10.90338599989700        4.12492299960163      H028
        1.73345200000076       12.30094499999658        2.60953699999739      H029
        8.66798499726456       -0.51706299825971        3.35583100223719      H030
        4.60668000136763        7.29745100191997        2.29782499664935      H031
        0.21548700038736        0.13462000079060       10.71924600052953      H032
        7.41533199856091        0.21868500009283        9.72836600146215      H033
        5.95549599826326       -0.30253400135531       10.48329900039863      H034
        7.82865600180992        4.67098700026274        8.63253699429653      H035
        7.23765099995156        5.01153800000137        7.01770899812462      H036
        7.09817704050842       -4.74997704376514        9.53432001261586      H037
        5.78403003315201       -3.69502901913464       10.00015697698743      H038
        1.41148485160851        1.91154780906689        9.35608523332828      H039
        0.86375928095572        5.22703978300898        6.64857407521422      H040
        5.74102299999370        9.06933299998427        3.84537099997109      H041
        7.99913499999641        8.60999300000551        4.74462299999687      H042
        8.42232501222058        4.65919099312958        4.70370600701157      C043
       -3.85332799489263        2.34671799761962        8.42389900469661      C044
        3.96159457471223       -2.59262984377619        8.47652404137861      C045
        0.51353999559926        9.44335700400522        4.62132000246556      C046
        9.34433599857256        4.08519200103184        5.69310498635992      C047
       -4.81192599719362        2.94002599864145        7.45290699103658      C048
        4.91731515748650       -3.17274809707449        7.52326992353733      C049
       -0.39266099824157       10.05756099870066        5.62688399133052      C050
        9.10104200241690        4.14976299814382        7.10099900385439      C051
       -4.59925599630078        2.82934199950147        6.06353800065214      C052
        6.07507198019442       -3.89377098963956        7.96908801001149      C053
       -1.51605500019989       10.79246900013540        5.18909000115088      C054
       -0.12481099855883        9.89423399907832        6.98009500575229      C055
        4.65740491575859       -3.04764402075004        6.14091491872219      C056
       10.49894699714701        3.42668700127136        5.21005400443399      C057
       -5.93267900248333        3.59312400149365        7.95869100301872      C058
        2.81368424624692        4.30741133829479        6.63956671207215      C059
        1.80210026551461        2.58016843007290        8.59092449210137      C060
        6.16147299997346        9.72627600000896        4.60512899996140      C061
       -1.73008399323441       -2.94471999462669        6.52823399905219      C062
        8.71517499927295        1.58832999874386        0.01126200218938      C063
        1.83903999999629       13.14742899973802        0.08858699999881      C064
        6.68424322117876        0.19533434021370       12.99003124508256      C065
       -6.71970578038434        1.27180133946594       13.04686424566879      C066
        3.35051738076755        5.22449252729184        5.60560543001704      C067
       -1.14501796788839       -2.03351500501263        7.54024799174878      C068
        4.21605821952617       -4.20165965995851       13.10128624471993      C069
        1.79608600004855       11.71165100062528        0.04970099932758      C070
        5.40895521793387       -0.46628466141611       13.04314124451881      C071
       -5.33250078010383        1.73459633956649       13.06403924542424      C072
        1.48290498142991        4.44260439042043        7.07873811191625      C073
        3.12522122529007        2.43682819198281        8.15461229615880      C074
        5.42412000000652       10.82759399999731        5.05874699998676      C075
       -8.01891104904741       10.31957384257186        6.07343600000148      C076
        8.78465199787885        0.91951500789757        1.23977999901196      C077
       -2.50814199999290        6.61524899996708       11.96306499996173      C078
       -4.36055200091837        7.73050700046117        1.11030300039839      C079
       -7.35136599995444        1.02202500000666       11.82193199998876      C080
        7.44137100002306        9.46964399999582        5.11272299998918      C081
       12.99119300002092       -2.69455199999989        6.01748100000325      C082
        3.63263725628771        3.29805483333101        7.18120894295521      C083
        0.98062189848682        3.57870439471054        8.05288914896584      C084
        7.36176599887680        0.48952799958644       11.75354800085956      C085
       -3.08920099963670        8.25494600109872        1.15247900071769      C086
        4.43800299998257       -6.38856000000444       11.91067600000224      C087
        8.85557904922118       -0.47964284918218        1.31879700598298      C088
        8.93834604796177       -1.07761383955697        2.55596799454530      N089
        6.78251600415175        0.28815700153973       10.51742599858924      N090
        8.00128299539409        4.75734000141861        7.63912700936849      N091
        6.41877491528261       -4.04207793014572        9.28442299600635      N092
        7.23466499405046        5.02263700146316        5.07660400330276      O093
       -3.05392399963518        1.42370300130005        8.02011299671661      O094
        4.34522405520750       -2.45640702409805        9.69570798356984      O095
        0.42605400045617        9.87189699973928        3.42267999905174      O096
        1.31896100021886        8.51307899928021        5.00222800344408      O097
        2.77677627181732       -2.26472411356176        8.07808705863352      O098
        8.82439799876519        4.75570100079632        3.48980499632602      O099
       -3.90376600050280        2.77975099965239        9.62446699658177      O100
        6.15669698540833        4.40912702179725        2.50521802822446      O101
       -1.36797499975546        1.99365800028922       10.10962799950826      O102
        7.01780097186747        6.72716997752959        2.95318501917786      O103
       -3.05627900282509        0.20846099964513       10.60965700294490      O104
        1.65962099941509       -2.83731199515287       10.67438299404383      O105
        2.96945799292745        9.12193696806490        2.90927901698018      O106
        2.53162400069792       -0.54337799968412       10.20804800252667      O107
        1.32257502175744        7.30697199784263        2.39889302101004      O108
        4.57516643777898        5.08763093685074        5.24433731007049      O109
       -1.83614400203044       -1.02252798975613        7.92351599861874      O110
        4.06639100027185       -3.61004900096901       11.96209500114528      O111
        1.74351399993446       11.00642899936925        1.14435000067891      O112
        4.77102600128611       -0.79549799922384       11.95641800151969      O113
       -0.42750399967600        9.09402500011212        1.09409800015657      O114
        0.02886698728044       -2.28805899159506        7.99125798195928      O115
        2.57429517423017        6.11961559036242        5.11779631140577      O116
        9.19941900002214        6.45278499992667        1.08329499987655      O117
       -4.74811400017478        1.98897499992979       11.94402900021897      O118
        8.50025399928415        3.67242000002261        1.11329200030181      O119
       -2.54297499996670        3.84924000002664       12.01523099995448      O120
        4.26917099538402        6.73557399464989        3.01966800227197      O121
       -0.14709299901836       -0.43606200176475       10.01702999675108      O122
        6.74805699991016        5.60008599995293        0.07153000014473      O123
       -2.23828478029374        1.30233833947519       13.04491124564832      O124
        1.16215425801679        0.17061491728589        0.91014019443604      S
        1.85164491932431       -0.81195893234225        3.47380923320210      S
        1.61944090495535        2.74164703352258        1.46048991479271      F
       -0.21844015124536        2.36385878776368        0.37312238404585      F
       -0.10566583260288        1.92019878902365        2.49248450974760      F
        2.64344423517454        0.07746485306611        5.82737283367774      F
        4.06325094919094        0.48836518771617        4.23879126418549      F
        2.24438836682696        1.65973188201376        4.39903164273178      F
       -7.07274400000038       13.77175900000102        0.87471900000074      O
       -2.41938199999729       -6.85921099999133       12.79781099999046      O
        2.58937807517203       -2.03283201722704        3.69205047751328      O
        0.48834806215444       -0.73594622061333        3.91595035980334      O
        2.17831645143544       -0.20075993044427        2.04568402718881      N
        0.58024130507140        1.89609102477446        1.33647838023067      C
        2.75370260041211        0.43028265595466        4.53392093315028      C
$eht charge=-1 unpaired=0
$periodic 3
$lattice angs
   16.00951000000000    0.00000000000000    0.00000000000000
   -7.02197904905286   14.37680584257823    0.00000000000000
   -4.31248578031311   -7.23925266050281   13.11037124569801
$end
 
 Bond Distances (Angstroems)
 ---------------------------
Ti1-Ti7=2.7371       Ti1-O100=2.0507      Ti1-O102=1.8977      Ti1-O104=2.0253      Ti1-O118=2.0026      Ti1-O120=1.9169      
Ti1-O124=2.0556      Ti2-Ti8=2.7306       Ti2-O99=2.0359       Ti2-O101=2.0236      Ti2-O103=1.9110      Ti2-O117=1.9167      
Ti2-O119=1.9869      Ti2-O123=2.0743      Ti3-Ti6=2.7287       Ti3-Ti7=3.8409       Ti3-O98=2.0423       Ti3-O105=1.7405      
Ti3-O107=1.8146      Ti3-O115=2.0403      Ti3-O122=2.0347      Ti4-Ti5=2.7277       Ti4-Ti8=3.8261       Ti4-O97=2.0488       
Ti4-O106=1.8028      Ti4-O108=1.7410      Ti4-O116=2.0465      Ti4-O121=2.0335      Ti5-Ti4=2.7277       Ti5-O96=2.0730       
Ti5-O106=1.9154      Ti5-O108=1.9924      Ti5-O112=1.9410      Ti5-O114=1.9866      Ti6-Ti3=2.7287       Ti6-O95=2.0731       
Ti6-O105=1.9939      Ti6-O107=1.8975      Ti6-O111=2.0154      Ti6-O113=1.9451      Ti7-Ti1=2.7371       Ti7-Ti3=3.8409       
Ti7-O94=2.0566       Ti7-O102=1.8148      Ti7-O104=1.7312      Ti7-O110=2.0376      Ti7-O122=2.0291      Ti8-Ti2=2.7306       
Ti8-Ti4=3.8261       Ti8-O93=2.0612       Ti8-O101=1.7332      Ti8-O103=1.8015      Ti8-O109=2.0474      Ti8-O121=2.0291      
H9-C74=1.0887        H10-C76=1.0877       H11-C75=1.0887       H12-C78=1.0869       H13-C77=1.0885       H14-C80=1.0888       
H16-C87=1.0864       H17-C86=1.0864       H18-C83=1.0879       H19-C84=1.0888       H20-C82=1.0880       H21-O124=0.9764      
H22-O123=0.9765      H23-C56=1.0878       H24-C55=1.0879       H25-C58=1.0884       H26-C57=1.0878       H27-C52=1.0863       
H28-C54=1.0863       H30-N89=1.0135       H31-O121=0.9750      H32-O122=0.9748      H33-N90=1.0139       H34-N90=1.0169       
H35-N91=1.0120       H36-N91=1.0168       H37-N92=1.0125       H38-N92=1.0177       H39-C60=1.0886       H40-C73=1.0880       
H41-C61=1.0888       H42-C81=1.0889       C43-C47=1.4692       C43-O93=1.2968       C43-O99=1.2824       C44-C48=1.4879       
C44-O94=1.2861       C44-O100=1.2773      C45-C49=1.4692       C45-O95=1.2854       C45-O98=1.2923       C46-C50=1.4865       
C46-O96=1.2759       C46-O97=1.2881       C47-C43=1.4692       C47-C51=1.4302       C47-C57=1.4142       C48-C44=1.4879       
C48-C52=1.4099       C48-C58=1.3923       C49-C45=1.4692       C49-C53=1.4349       C49-C56=1.4121       C50-C46=1.4865       
C50-C54=1.4120       C50-C55=1.3891       C51-C47=1.4302       C51-N91=1.3668       C52-H27=1.0863       C52-C48=1.4099       
C53-C49=1.4349       C53-N92=1.3676       C54-H28=1.0863       C54-C50=1.4120       C55-H24=1.0879       C55-C50=1.3891       
C56-H23=1.0878       C56-C49=1.4121       C57-H26=1.0878       C57-C47=1.4142       C58-H25=1.0884       C58-C48=1.3923       
C59-C67=1.4827       C59-C73=1.4079       C59-C83=1.4081       C60-H39=1.0886       C60-C74=1.4006       C60-C84=1.4005       
C61-H41=1.0888       C61-C75=1.4008       C61-C81=1.4006       C62-C68=1.4822       C63-C77=1.4005       C64-C70=1.4369       
C65-C71=1.4377       C65-C85=1.4403       C66-C72=1.4625       C66-C80=1.4007       C67-C59=1.4827       C67-O109=1.2841      
C67-O116=1.2813      C68-C62=1.4822       C68-O110=1.2832      C68-O115=1.2830      C69-O111=1.2923      C70-C64=1.4369       
C70-O112=1.3032      C71-C65=1.4377       C71-O113=1.3024      C72-C66=1.4625       C72-O118=1.2887      C73-H40=1.0880       
C73-C59=1.4079       C73-C84=1.3956       C74-H9=1.0887        C74-C60=1.4006       C74-C83=1.3952       C75-H11=1.0887       
C75-C61=1.4008       C76-H10=1.0877       C77-H13=1.0885       C77-C63=1.4005       C77-C88=1.4032       C78-H12=1.0869       
C79-C86=1.3759       C80-H14=1.0888       C80-C66=1.4007       C81-H42=1.0889       C81-C61=1.4006       C82-H20=1.0880       
C83-H18=1.0879       C83-C59=1.4081       C83-C74=1.3952       C84-H19=1.0888       C84-C60=1.4005       C84-C73=1.3956       
C85-C65=1.4403       C85-N90=1.3799       C86-H17=1.0864       C86-C79=1.3759       C87-H16=1.0864       C88-C77=1.4032       
C88-N89=1.3766       N89-H30=1.0135       N89-C88=1.3766       N90-H33=1.0139       N90-H34=1.0169       N90-C85=1.3799       
N91-H35=1.0120       N91-H36=1.0168       N91-C51=1.3668       N92-H37=1.0125       N92-H38=1.0177       N92-C53=1.3676       
O93-Ti8=2.0612       O93-C43=1.2968       O94-Ti7=2.0566       O94-C44=1.2861       O95-Ti6=2.0731       O95-C45=1.2854       
O96-Ti5=2.0730       O96-C46=1.2759       O97-Ti4=2.0488       O97-C46=1.2881       O98-Ti3=2.0423       O98-C45=1.2923       
O99-Ti2=2.0359       O99-C43=1.2824       O100-Ti1=2.0507      O100-C44=1.2773      O101-Ti2=2.0236      O101-Ti8=1.7332      
O102-Ti1=1.8977      O102-Ti7=1.8148      O103-Ti2=1.9110      O103-Ti8=1.8015      O104-Ti1=2.0253      O104-Ti7=1.7312      
O105-Ti3=1.7405      O105-Ti6=1.9939      O106-Ti4=1.8028      O106-Ti5=1.9154      O107-Ti3=1.8146      O107-Ti6=1.8975      
O108-Ti4=1.7410      O108-Ti5=1.9924      O109-Ti8=2.0474      O109-C67=1.2841      O110-Ti7=2.0376      O110-C68=1.2832      
O111-Ti6=2.0154      O111-C69=1.2923      O112-Ti5=1.9410      O112-C70=1.3032      O113-Ti6=1.9451      O113-C71=1.3024      
O114-Ti5=1.9866      O115-Ti3=2.0403      O115-C68=1.2830      O116-Ti4=2.0465      O116-C67=1.2813      O117-Ti2=1.9167      
O118-Ti1=2.0026      O118-C72=1.2887      O119-Ti2=1.9869      O120-Ti1=1.9169      O121-Ti4=2.0335      O121-Ti8=2.0291      
O121-H31=0.9750      O122-Ti3=2.0347      O122-Ti7=2.0291      O122-H32=0.9748      O123-Ti2=2.0743      O123-H22=0.9765      
O124-Ti1=2.0556      O124-H21=0.9764      S125-N137=1.5684     S125-C138=1.8702     S126-O135=1.4431     S126-O136=1.4352     
S126-N137=1.5874     S126-C139=1.8657     F127-C138=1.3455     F128-C138=1.3359     F129-C138=1.3444     F130-C139=1.3452     
F131-C139=1.3436     F132-C139=1.3376     O135-S126=1.4431     O136-S126=1.4352     N137-S125=1.5684     N137-S126=1.5874     
C138-S125=1.8702     C138-F127=1.3455     C138-F128=1.3359     C138-F129=1.3444     C139-S126=1.8657     C139-F130=1.3452     
C139-F131=1.3436     C139-F132=1.3376     
 C  H  Rav=1.0879 sigma=0.0009  Rmin=1.0863  Rmax=1.0889    21
 C  C  Rav=1.4246 sigma=0.0327  Rmin=1.3759  Rmax=1.4879    30
 N  H  Rav=1.0147 sigma=0.0022  Rmin=1.0120  Rmax=1.0177     7
 N  C  Rav=1.3727 sigma=0.0057  Rmin=1.3668  Rmax=1.3799     4
 O  H  Rav=0.9757 sigma=0.0008  Rmin=0.9748  Rmax=0.9765     4
 O  C  Rav=1.2877 sigma=0.0078  Rmin=1.2759  Rmax=1.3032    16
 F  C  Rav=1.3420 sigma=0.0038  Rmin=1.3359  Rmax=1.3455     6
 S  C  Rav=1.8679 sigma=0.0023  Rmin=1.8657  Rmax=1.8702     2
 S  N  Rav=1.5779 sigma=0.0095  Rmin=1.5684  Rmax=1.5874     2
 S  O  Rav=1.4391 sigma=0.0039  Rmin=1.4352  Rmax=1.4431     2
 Ti O  Rav=1.9623 sigma=0.1057  Rmin=1.7312  Rmax=2.0743    42
 Ti Ti Rav=3.0985 sigma=0.5197  Rmin=2.7277  Rmax=3.8409     6
 
 selected bond angles (degree)
 --------------------
O100-Ti1-Ti7= 80.22            O102-Ti1-Ti7= 41.34            O102-Ti1-O100= 86.15           O104-Ti1-Ti7= 39.16            
O104-Ti1-O100= 89.95           O104-Ti1-O102= 79.39           O118-Ti1-Ti7=122.58            O118-Ti1-O100= 79.50           
O118-Ti1-O102=160.82           O118-Ti1-O104= 87.89           O120-Ti1-Ti7=140.46            O120-Ti1-O100= 96.07           
O120-Ti1-O102= 99.33           O120-Ti1-O104=173.76           O120-Ti1-O118= 94.81           O124-Ti1-Ti7=104.08            
O124-Ti1-O100=167.32           O124-Ti1-O102=105.04           O124-Ti1-O104= 86.34           O124-Ti1-O118= 88.24           
O124-Ti1-O120= 88.11           O99-Ti2-Ti8= 80.85             O101-Ti2-Ti8= 39.34            O101-Ti2-O99= 89.76            
O103-Ti2-Ti8= 41.12            O103-Ti2-O99= 87.36            O103-Ti2-O101= 79.33           O117-Ti2-Ti8=138.87            
O117-Ti2-O99= 97.31            O117-Ti2-O101=172.30           O117-Ti2-O103= 97.89           O119-Ti2-Ti8=125.36            
O119-Ti2-O99= 81.71            O119-Ti2-O101= 89.50           O119-Ti2-O103=164.42           O119-Ti2-O117= 94.51           
O123-Ti2-Ti8=101.71            O123-Ti2-O99=168.00            O123-Ti2-O101= 85.17           O123-Ti2-O103=102.33           
O123-Ti2-O117= 88.44           O123-Ti2-O119= 87.37           Ti7-Ti3-Ti6=129.33             O98-Ti3-Ti6= 87.66             
O98-Ti3-Ti7=137.21             O105-Ti3-Ti6= 46.82            O105-Ti3-Ti7=121.42            O105-Ti3-O98= 99.03            
O107-Ti3-Ti6= 43.88            O107-Ti3-Ti7=102.24            O107-Ti3-O98= 90.74            O107-Ti3-O105= 89.25           
O115-Ti3-Ti6=158.40            O115-Ti3-Ti7= 67.06            O115-Ti3-O98= 84.67            O115-Ti3-O105=114.70           
O115-Ti3-O107=156.02           O122-Ti3-Ti6=110.35            O122-Ti3-Ti7= 19.04            O122-Ti3-O98=152.05            
O122-Ti3-O105=108.89           O122-Ti3-O107= 88.37           O122-Ti3-O115= 84.90           Ti8-Ti4-Ti5=130.67             
O97-Ti4-Ti5= 86.91             O97-Ti4-Ti8=137.06             O106-Ti4-Ti5= 44.44            O106-Ti4-Ti8=103.19            
O106-Ti4-O97= 90.22            O108-Ti4-Ti5= 46.80            O108-Ti4-Ti8=122.14            O108-Ti4-O97= 98.09            
O108-Ti4-O106= 89.87           O116-Ti4-Ti5=158.50            O116-Ti4-Ti8= 67.22            O116-Ti4-O97= 82.69            
O116-Ti4-O106=153.61           O116-Ti4-O108=116.23           O121-Ti4-Ti5=111.25            O121-Ti4-Ti8= 19.62            
O121-Ti4-O97=153.57            O121-Ti4-O106= 90.09           O121-Ti4-O108=108.34           O121-Ti4-O116= 85.39           
O96-Ti5-Ti4= 80.27             O106-Ti5-Ti4= 41.22            O106-Ti5-O96= 85.15            O108-Ti5-Ti4= 39.57            
O108-Ti5-O96= 91.14            O108-Ti5-O106= 79.65           O112-Ti5-Ti4=136.26            O112-Ti5-O96= 91.06            
O112-Ti5-O106= 95.66           O112-Ti5-O108=174.63           O114-Ti5-Ti4=124.79            O114-Ti5-O96= 79.59            
O114-Ti5-O106=161.57           O114-Ti5-O108= 90.31           O114-Ti5-O112= 94.90           O95-Ti6-Ti3= 79.32             
O105-Ti6-Ti3= 39.54            O105-Ti6-O95= 90.29            O107-Ti6-Ti3= 41.52            O107-Ti6-O95= 84.99            
O107-Ti6-O105= 79.83           O111-Ti6-Ti3=123.59            O111-Ti6-O95= 77.46            O111-Ti6-O105= 90.07           
O111-Ti6-O107=159.72           O113-Ti6-Ti3=136.31            O113-Ti6-O95= 89.78            O113-Ti6-O105=175.65           
O113-Ti6-O107= 95.84           O113-Ti6-O111= 94.19           Ti3-Ti7-Ti1=129.39             O94-Ti7-Ti1= 86.55             
O94-Ti7-Ti3=139.32             O102-Ti7-Ti1= 43.69            O102-Ti7-Ti3=103.62            O102-Ti7-O94= 90.08            
O104-Ti7-Ti1= 47.63            O104-Ti7-Ti3=120.01            O104-Ti7-O94= 97.72            O104-Ti7-O102= 89.97           
O110-Ti7-Ti1=159.33            O110-Ti7-Ti3= 67.14            O110-Ti7-O94= 83.80            O110-Ti7-O102=154.06           
O110-Ti7-O104=115.80           O122-Ti7-Ti1=110.36            O122-Ti7-Ti3= 19.10            O122-Ti7-O94=154.76            
O122-Ti7-O102= 89.94           O122-Ti7-O104=107.52           O122-Ti7-O110= 85.22           Ti4-Ti8-Ti2=131.39             
O93-Ti8-Ti2= 85.90             O93-Ti8-Ti4=138.47             O101-Ti8-Ti2= 47.74            O101-Ti8-Ti4=120.68            
O101-Ti8-O93= 97.22            O103-Ti8-Ti2= 44.23            O103-Ti8-Ti4=105.00            O103-Ti8-O93= 89.75            
O103-Ti8-O101= 90.61           O109-Ti8-Ti2=158.68            O109-Ti8-Ti4= 67.48            O109-Ti8-O93= 80.90            
O109-Ti8-O101=117.42           O109-Ti8-O103=151.23           O121-Ti8-Ti2=111.84            O121-Ti8-Ti4= 19.67            
O121-Ti8-O93=155.20            O121-Ti8-O101=107.53           O121-Ti8-O103= 91.54           O121-Ti8-O109= 86.20           
 
 selected dihedral angles (degree)
 ---------------------------------
O96-Ti5-Ti4-Ti8=202.76        O96-Ti5-Ti4-O97=359.71        O96-Ti5-Ti4-O106=266.24       O96-Ti5-Ti4-O108=103.83       
O96-Ti5-Ti4-O116= 60.69       O96-Ti5-Ti4-O121=199.46       O106-Ti5-Ti4-Ti8=296.52       O106-Ti5-Ti4-O97= 93.47       
O106-Ti5-Ti4-O108=197.60      O106-Ti5-Ti4-O116=154.45      O106-Ti5-Ti4-O121=293.22      O108-Ti5-Ti4-Ti8= 98.93       
O108-Ti5-Ti4-O97=255.88       O108-Ti5-Ti4-O106=162.40      O108-Ti5-Ti4-O116=316.85      O108-Ti5-Ti4-O121= 95.62      
O112-Ti5-Ti4-Ti8=284.02       O112-Ti5-Ti4-O97= 80.97       O112-Ti5-Ti4-O106=347.50      O112-Ti5-Ti4-O108=185.09      
O112-Ti5-Ti4-O116=141.95      O112-Ti5-Ti4-O121=280.71      O114-Ti5-Ti4-Ti8=132.78       O114-Ti5-Ti4-O97=289.73       
O114-Ti5-Ti4-O106=196.26      O114-Ti5-Ti4-O108= 33.85      O114-Ti5-Ti4-O116=350.71      O114-Ti5-Ti4-O121=129.47      
O95-Ti6-Ti3-Ti7=202.63        O95-Ti6-Ti3-O98=358.98        O95-Ti6-Ti3-O105=103.68       O95-Ti6-Ti3-O107=265.47       
O95-Ti6-Ti3-O115= 68.12       O95-Ti6-Ti3-O122=200.89       O105-Ti6-Ti3-Ti7= 98.94       O105-Ti6-Ti3-O98=255.29       
O105-Ti6-Ti3-O107=161.78      O105-Ti6-Ti3-O115=324.44      O105-Ti6-Ti3-O122= 97.21      O107-Ti6-Ti3-Ti7=297.16       
O107-Ti6-Ti3-O98= 93.51       O107-Ti6-Ti3-O105=198.22      O107-Ti6-Ti3-O115=162.65      O107-Ti6-Ti3-O122=295.42      
O111-Ti6-Ti3-Ti7=135.61       O111-Ti6-Ti3-O98=291.97       O111-Ti6-Ti3-O105= 36.67      O111-Ti6-Ti3-O107=198.46      
O111-Ti6-Ti3-O115=  1.11      O111-Ti6-Ti3-O122=133.88      O113-Ti6-Ti3-Ti7=280.91       O113-Ti6-Ti3-O98= 77.27       
O113-Ti6-Ti3-O105=181.97      O113-Ti6-Ti3-O107=343.76      O113-Ti6-Ti3-O115=146.41      O113-Ti6-Ti3-O122=279.18      
Ti3-Ti7-Ti1-O100=160.57       Ti3-Ti7-Ti1-O102= 65.26       Ti3-Ti7-Ti1-O104=262.70       Ti3-Ti7-Ti1-O118=231.32       
Ti3-Ti7-Ti1-O120= 72.87       Ti3-Ti7-Ti1-O124=328.37       O94-Ti7-Ti1-O100=  1.58       O94-Ti7-Ti1-O102=266.27       
O94-Ti7-Ti1-O104=103.71       O94-Ti7-Ti1-O118= 72.33       O94-Ti7-Ti1-O120=273.88       O94-Ti7-Ti1-O124=169.38       
O102-Ti7-Ti1-O100= 95.31      O102-Ti7-Ti1-O104=197.45      O102-Ti7-Ti1-O118=166.07      O102-Ti7-Ti1-O120=  7.61      
O102-Ti7-Ti1-O124=263.11      O104-Ti7-Ti1-O100=257.86      O104-Ti7-Ti1-O102=162.55      O104-Ti7-Ti1-O118=328.62      
O104-Ti7-Ti1-O120=170.16      O104-Ti7-Ti1-O124= 65.67      O110-Ti7-Ti1-O100=299.36      O110-Ti7-Ti1-O102=204.05      
O110-Ti7-Ti1-O104= 41.49      O110-Ti7-Ti1-O118= 10.12      O110-Ti7-Ti1-O120=211.66      O110-Ti7-Ti1-O124=107.16      
O122-Ti7-Ti1-O100=162.34      O122-Ti7-Ti1-O102= 67.03      O122-Ti7-Ti1-O104=264.48      O122-Ti7-Ti1-O118=233.10      
O122-Ti7-Ti1-O120= 74.64      O122-Ti7-Ti1-O124=330.15      Ti4-Ti8-Ti2-O99=162.26        Ti4-Ti8-Ti2-O101=263.21       
Ti4-Ti8-Ti2-O103= 65.74       Ti4-Ti8-Ti2-O117= 71.60       Ti4-Ti8-Ti2-O119=235.20       Ti4-Ti8-Ti2-O123=330.34       
O93-Ti8-Ti2-O99=  2.66        O93-Ti8-Ti2-O101=103.61       O93-Ti8-Ti2-O103=266.14       O93-Ti8-Ti2-O117=272.00       
O93-Ti8-Ti2-O119= 75.61       O93-Ti8-Ti2-O123=170.75       O101-Ti8-Ti2-O99=259.05       O101-Ti8-Ti2-O103=162.53      
O101-Ti8-Ti2-O117=168.39      O101-Ti8-Ti2-O119=331.99      O101-Ti8-Ti2-O123= 67.13      O103-Ti8-Ti2-O99= 96.52       
O103-Ti8-Ti2-O101=197.47      O103-Ti8-Ti2-O117=  5.86      O103-Ti8-Ti2-O119=169.46      O103-Ti8-Ti2-O123=264.60      
O109-Ti8-Ti2-O99=310.99       O109-Ti8-Ti2-O101= 51.93      O109-Ti8-Ti2-O103=214.46      O109-Ti8-Ti2-O117=220.32      
O109-Ti8-Ti2-O119= 23.93      O109-Ti8-Ti2-O123=119.07      O121-Ti8-Ti2-O99=164.79       O121-Ti8-Ti2-O101=265.74      
O121-Ti8-Ti2-O103= 68.27      O121-Ti8-Ti2-O117= 74.13      O121-Ti8-Ti2-O119=237.73      O121-Ti8-Ti2-O123=332.87      
 
 CMA Distance (Angstroems)
 ---------------------------
R(CMA):  8.2040
           -------------------------------------------------
          |                Final Singlepoint                |
           -------------------------------------------------

          ...................................................
          :                      SETUP                      :
          :.................................................:
          :  # basis functions                 548          :
          :  # atomic orbitals                 538          :
          :  # shells                          288          :
          :  # electrons                       554          :
          :  # halogen bonds                     0          :
          :  max. iterations                   250          :
          :  Hamiltonian                  GFN1-xTB          :
          :  restarted?                      false          :
          :  GBSA solvation                  false          :
          :  PC potential                    false          :
          :  electronic temp.         2000.0000000     K    :
          :  accuracy                    1.0000000          :
          :  -> integral cutoff          0.2500000E+02      :
          :  -> integral neglect         0.1000000E-07      :
          :  -> SCF convergence          0.1000000E-05 Eh   :
          :  -> wf. convergence          0.2000000E-04 e    :
          :  Broyden damping             0.4000000          :
          :  net charge                         -1          :
          :  unpaired electrons                  0          :
          ...................................................

 iter      E             dE          RMSdq      gap      omega  full diag
   1   -351.9143689 -0.351914E+03  0.774E-05    0.01       0.0  T
   2   -351.9143662  0.273378E-05  0.197E-03    0.01       4.3  T
   3   -351.9143688 -0.260129E-05  0.472E-04    0.01      18.0  T
   4   -351.9143688 -0.279553E-07  0.458E-04    0.01      18.5  T
   5   -351.9143689 -0.904821E-07  0.180E-04    0.01      47.1  T
   6   -351.9143689 -0.151434E-07  0.698E-05    0.01     121.6  T

   *** convergence criteria satisfied after 6 iterations ***

         #    Occupation            Energy/Eh            Energy/eV
      -------------------------------------------------------------
         1        2.0000           -1.0116399             -27.5281
       ...           ...                  ...                  ...
       271        1.5228           -0.4042325             -10.9997
       272        1.2855           -0.4006021             -10.9009
       273        1.1915           -0.3993383             -10.8665
       274        1.1734           -0.3991008             -10.8601
       275        1.0659           -0.3977177             -10.8225
       276        1.0613           -0.3976602             -10.8209
       277        1.0370           -0.3973509             -10.8125 (HOMO)
       278        1.0183           -0.3971147             -10.8060 (LUMO)
       279        0.9255           -0.3959372             -10.7740
       280        0.8791           -0.3953433             -10.7578
       281        0.8075           -0.3944130             -10.7325
       282        0.8046           -0.3943749             -10.7315
       ...           ...                  ...                  ...
       538                          6.0219533             163.8657
      -------------------------------------------------------------
                  HL-Gap            0.0002362 Eh            0.0064 eV
             Fermi-level           -0.3968823 Eh          -10.7997 eV

 SCC (total)                   0 d,  0 h,  0 min,  0.202 sec
 SCC setup                      ...        0 min,  0.016 sec (  8.004%)
 Dispersion                     ...        0 min,  0.004 sec (  1.930%)
 classical contributions        ...        0 min,  0.001 sec (  0.563%)
 integral evaluation            ...        0 min,  0.018 sec (  8.979%)
 iterations                     ...        0 min,  0.098 sec ( 48.297%)
 molecular gradient             ...        0 min,  0.061 sec ( 29.967%)
 printout                       ...        0 min,  0.005 sec (  2.247%)

         :::::::::::::::::::::::::::::::::::::::::::::::::::::
         ::                     SUMMARY                     ::
         :::::::::::::::::::::::::::::::::::::::::::::::::::::
         :: total energy            -349.424747436739 Eh    ::
         :: gradient norm              1.020609838952 Eh/a0 ::
         :: HOMO-LUMO gap              0.006426399656 eV    ::
         ::.................................................::
         :: SCC energy              -351.914368914954 Eh    ::
         :: -> electrostatic           2.369747062998 Eh    ::
         :: repulsion energy           2.668390373148 Eh    ::
         :: dispersion energy         -0.178768894934 Eh    ::
         :: halogen bond corr.         0.000000000000 Eh    ::
         :: add. restraining           0.000000000000 Eh    ::
         :: total charge              -0.999999999853 e     ::
         :::::::::::::::::::::::::::::::::::::::::::::::::::::

           -------------------------------------------------
          |                Property Printout                |
           -------------------------------------------------
 Periodic properties
           -------------------------------------------------
          |                Geometry Summary                 |
           -------------------------------------------------

 * 139 atoms in unit cell

     #   Z                                     position/Å        charge
     1  22 Ti00    -2.8683353     2.1154422    11.2652150     4.0000000
     2  22 Ti00     7.8027887     5.3832105     1.8443912     4.0000000
     3  22 Ti00     1.3525721    -1.6735002     9.4171139     4.0000000
     4  22 Ti00     2.5117922     7.5426528     3.6484142     4.0000000
     5  22 Ti00     1.4446721     9.1874189     1.7519892     4.0000000
     6  22 Ti00     3.2594583    -1.8642572    11.3595311     4.0000000
     7  22 Ti00    -1.8697822     0.4160240     9.3661409     4.0000000
     8  22 Ti00     5.8159846     5.6142845     3.7032812     4.0000000
     9   1 H009     3.7468967     1.6526257     8.5834400     1.0000000
    10   1 H010    -7.0249167    10.1427658     6.4782576     1.0000000
    11   1 H011     4.4316304    11.0106130     4.6504384     1.0000000
    12   1 H012    -2.5036942     6.0280516    11.0484610     1.0000000
    13   1 H013     8.7487378     1.5073421     2.1552502     1.0000000
    14   1 H014    -6.8015426     1.2218931    10.9036450     1.0000000
    15   1 H015    11.1142470     7.5038387     2.0290892     1.0000000
    16   1 H016     4.3727214    -5.8620205    10.9626540     1.0000000
    17   1 H017    -2.5891432     8.4561818     2.0957032     1.0000000
    18   1 H018     4.6569664     3.2041474     6.8269535     1.0000000
    19   1 H019    -0.0452243     3.6702685     8.4060308     1.0000000
    20   1 H020    12.4409192    -1.8281672     6.3785406     1.0000000
    21   1 H021    -2.3271590     0.3319294    12.9842505     1.0000000
    22   1 H022     5.9273855     5.0774035     0.1545840     1.0000000
    23   1 H023     3.7614262    -2.5066173     5.8447264     1.0000000
    24   1 H024     0.7455601     9.3142629     7.2794317     1.0000000
    25   1 H025    -6.0599136     3.6612133     9.0374908     1.0000000
    26   1 H026    10.6412480     3.3933793     4.1321344     1.0000000
    27   1 H027    -3.7285873     2.2987082     5.6888705     1.0000000
    28   1 H028    -1.7039722    10.9033870     4.1249234     1.0000000
    29   1 H029     1.7334522    12.3009461     2.6095372     1.0000000
    30   1 H030     8.6679858    -0.5170630     3.3558313     1.0000000
    31   1 H031     4.6066804     7.2974517     2.2978252     1.0000000
    32   1 H032     0.2154870     0.1346200    10.7192470     1.0000000
    33   1 H033     7.4153327     0.2186850     9.7283669     1.0000000
    34   1 H034     5.9554966    -0.3025340    10.4833000     1.0000000
    35   1 H035     7.8286567     4.6709874     8.6325378     1.0000000
    36   1 H036     7.2376517     5.0115385     7.0177096     1.0000000
    37   1 H037     7.0981777    -4.7499775     9.5343209     1.0000000
    38   1 H038     5.7840306    -3.6950294    10.0001579     1.0000000
    39   1 H039     1.4114850     1.9115480     9.3560861     1.0000000
    40   1 H040     0.8637594     5.2270403     6.6485747     1.0000000
    41   1 H041     5.7410235     9.0693338     3.8453714     1.0000000
    42   1 H042     7.9991357     8.6099938     4.7446234     1.0000000
    43   6 C043     8.4223258     4.6591914     4.7037064     4.0000000
    44   6 C044    -3.8533284     2.3467182     8.4238998     4.0000000
    45   6 C045     3.9615949    -2.5926301     8.4765248     4.0000000
    46   6 C046     0.5135400     9.4433579     4.6213204     4.0000000
    47   6 C047     9.3443369     4.0851924     5.6931055     4.0000000
    48   6 C048    -4.8119264     2.9400263     7.4529077     4.0000000
    49   6 C049     4.9173156    -3.1727484     7.5232706     4.0000000
    50   6 C050    -0.3926610    10.0575619     5.6268845     4.0000000
    51   6 C051     9.1010428     4.1497634     7.1009997     4.0000000
    52   6 C052    -4.5992564     2.8293423     6.0635386     4.0000000
    53   6 C053     6.0750725    -3.8937714     7.9690887     4.0000000
    54   6 C054    -1.5160551    10.7924700     5.1890905     4.0000000
    55   6 C055    -0.1248110     9.8942349     6.9800957     4.0000000
    56   6 C056     4.6574053    -3.0476443     6.1409155     4.0000000
    57   6 C057    10.4989480     3.4266873     5.2100545     4.0000000
    58   6 C058    -5.9326796     3.5931243     7.9586917     4.0000000
    59   6 C059     2.8136845     4.3074117     6.6395673     4.0000000
    60   6 C060     1.8021004     2.5801687     8.5909253     4.0000000
    61   6 C061     6.1614736     9.7262769     4.6051294     4.0000000
    62   6 C062    -1.7300842    -2.9447203     6.5282346     4.0000000
    63   6 C063     8.7151758     1.5883301     0.0112620     4.0000000
    64   6 C064     1.8390402    13.1474302     0.0885870     4.0000000
    65   6 C065     6.6842438     0.1953344    12.9900325     4.0000000
    66   6 C066    -6.7197064     1.2718015    13.0468655     4.0000000
    67   6 C067     3.3505177     5.2244930     5.6056060     4.0000000
    68   6 C068    -1.1450181    -2.0335152     7.5402487     4.0000000
    69   6 C069     4.2160586    -4.2016600    13.1012875     4.0000000
    70   6 C070     1.7960862    11.7116521     0.0497010     4.0000000
    71   6 C071     5.4089557    -0.4662847    13.0431425     4.0000000
    72   6 C072    -5.3325013     1.7345965    13.0640405     4.0000000
    73   6 C073     1.4829051     4.4426048     7.0787388     4.0000000
    74   6 C074     3.1252215     2.4368284     8.1546131     4.0000000
    75   6 C075     5.4241205    10.8275950     5.0587475     4.0000000
    76   6 C076    -8.0189118    10.3195748     6.0734366     4.0000000
    77   6 C077     8.7846528     0.9195151     1.2397801     4.0000000
    78   6 C078    -2.5081422     6.6152496    11.9630661     4.0000000
    79   6 C079    -4.3605524     7.7305077     1.1103031     4.0000000
    80   6 C080    -7.3513667     1.0220251    11.8219331     4.0000000
    81   6 C081     7.4413717     9.4696449     5.1127235     4.0000000
    82   6 C082    12.9911942    -2.6945522     6.0174816     4.0000000
    83   6 C083     3.6326376     3.2980551     7.1812096     4.0000000
    84   6 C084     0.9806220     3.5787047     8.0528899     4.0000000
    85   6 C085     7.3617667     0.4895280    11.7535491     4.0000000
    86   6 C086    -3.0892013     8.2549468     1.1524791     4.0000000
    87   6 C087     4.4380034    -6.3885606    11.9106771     4.0000000
    88   6 C088     8.8555799    -0.4796429     1.3187971     4.0000000
    89   7 N089     8.9383469    -1.0776139     2.5559682     5.0000000
    90   7 N090     6.7825166     0.2881570    10.5174270     5.0000000
    91   7 N091     8.0012837     4.7573404     7.6391277     5.0000000
    92   7 N092     6.4187755    -4.0420783     9.2844239     5.0000000
    93   8 O093     7.2346657     5.0226375     5.0766045     6.0000000
    94   8 O094    -3.0539243     1.4237031     8.0201137     6.0000000
    95   8 O095     4.3452245    -2.4564073     9.6957089     6.0000000
    96   8 O096     0.4260540     9.8718979     3.4226803     6.0000000
    97   8 O097     1.3189611     8.5130798     5.0022285     6.0000000
    98   8 O098     2.7767765    -2.2647243     8.0780878     6.0000000
    99   8 O099     8.8243988     4.7557014     3.4898053     6.0000000
   100   8 O100    -3.9037664     2.7797513     9.6244679     6.0000000
   101   8 O101     6.1566976     4.4091274     2.5052183     6.0000000
   102   8 O102    -1.3679751     1.9936582    10.1096289     6.0000000
   103   8 O103     7.0178016     6.7271706     2.9531853     6.0000000
   104   8 O104    -3.0562793     0.2084610    10.6096580     6.0000000
   105   8 O105     1.6596212    -2.8373123    10.6743840     6.0000000
   106   8 O106     2.9694583     9.1219378     2.9092793     6.0000000
   107   8 O107     2.5316242    -0.5433781    10.2080489     6.0000000
   108   8 O108     1.3225751     7.3069727     2.3988932     6.0000000
   109   8 O109     4.5751669     5.0876314     5.2443378     6.0000000
   110   8 O110    -1.8361442    -1.0225281     7.9235167     6.0000000
   111   8 O111     4.0663914    -3.6100493    11.9620961     6.0000000
   112   8 O112     1.7435142    11.0064300     1.1443501     6.0000000
   113   8 O113     4.7710264    -0.7954981    11.9564191     6.0000000
   114   8 O114    -0.4275040     9.0940258     1.0940981     6.0000000
   115   8 O115     0.0288670    -2.2880592     7.9912587     6.0000000
   116   8 O116     2.5742954     6.1196162     5.1177968     6.0000000
   117   8 O117     9.1994199     6.4527856     1.0832951     6.0000000
   118   8 O118    -4.7481144     1.9889752    11.9440301     6.0000000
   119   8 O119     8.5002548     3.6724203     1.1132921     6.0000000
   120   8 O120    -2.5429752     3.8492404    12.0152321     6.0000000
   121   8 O121     4.2691714     6.7355746     3.0196683     6.0000000
   122   8 O122    -0.1470930    -0.4360620    10.0170309     6.0000000
   123   8 O123     6.7480576     5.6000865     0.0715300     6.0000000
   124   8 O124    -2.2382850     1.3023385    13.0449125     6.0000000
   125  16 S        1.1621544     0.1706149     0.9101403     6.0000000
   126  16 S        1.8516451    -0.8119590     3.4738096     6.0000000
   127   9 F        1.6194411     2.7416473     1.4604901     7.0000000
   128   9 F       -0.2184402     2.3638590     0.3731224     7.0000000
   129   9 F       -0.1056658     1.9201990     2.4924847     7.0000000
   130   9 F        2.6434445     0.0774649     5.8273734     7.0000000
   131   9 F        4.0632513     0.4883652     4.2387917     7.0000000
   132   9 F        2.2443886     1.6597320     4.3990321     7.0000000
   133   8 O       -7.0727447    13.7717603     0.8747191     6.0000000
   134   8 O       -2.4193822    -6.8592116    12.7978122     6.0000000
   135   8 O        2.5893783    -2.0328322     3.6920508     6.0000000
   136   8 O        0.4883481    -0.7359463     3.9159507     6.0000000
   137   7 N        2.1783167    -0.2007599     2.0456842     5.0000000
   138   6 C        0.5802414     1.8960912     1.3364785     4.0000000
   139   6 C        2.7537029     0.4302827     4.5339214     4.0000000

 * 3D periodic system

 * cell parameter

      |a|/Å         |b|/Å         |c|/Å        α/°      β/°      γ/°
   16.0095115    16.0000245    15.5848064   107.214  106.064  116.032

 * direct lattice/Å

            a    16.0095115     0.0000000     0.0000000
            b    -7.0219797    14.3768072     0.0000000
            c    -4.3124862    -7.2392533    13.1103725

 * reciprocal lattice/Å⁻¹

           a*     0.3924658     0.1916898     0.2349433
           b*     0.0000000     0.4370362     0.2413216
           c*     0.0000000     0.0000000     0.4792530

 * geometry in fractional coordinates

     #   Z                         fractional coordinates
     1  22 Ti00     0.3066075     0.5798117     0.8592597
     2  22 Ti00     0.7205837     0.4452756     0.1406818
     3  22 Ti00     0.3855581     0.2452852     0.7182949
     4  22 Ti00     0.5234307     0.6647669     0.2782846
     5  22 Ti00     0.4360426     0.7063340     0.1336338
     6  22 Ti00     0.5714796     0.3066203     0.8664537
     7  22 Ti00     0.2461226     0.3886674     0.7144069
     8  22 Ti00     0.6730403     0.5327437     0.2824696
     9   1 H009     0.6054161     0.4446195     0.6547060
    10   1 H010     0.1128803     0.9543088     0.4941322
    11   1 H011     0.7866192     0.9444712     0.3547144
    12   1 H012     0.4406464     0.8436340     0.8427267
    13   1 H013     0.6730478     0.1876232     0.1643928
    14   1 H014     0.0201474     0.5037726     0.8316808
    15   1 H015     0.9990301     0.5998728     0.1547698
    16   1 H016     0.5042118     0.0133069     0.8361817
    17   1 H017     0.1746224     0.6686729     0.1598508
    18   1 H018     0.6439169     0.4850756     0.5207292
    19   1 H019     0.4234706     0.5781457     0.6411741
    20   1 H020     0.9598299     0.1178231     0.4865263
    21   1 H021     0.3502777     0.5217807     0.9903800
    22   1 H022     0.5309251     0.3591035     0.0117910
    23   1 H023     0.3770249     0.0501300     0.4458093
    24   1 H024     0.6029281     0.9274522     0.5552422
    25   1 H025     0.0711114     0.6017687     0.6893390
    26   1 H026     0.9227197     0.3947365     0.3151805
    27   1 H027     0.0499520     0.3783855     0.4339214
    28   1 H028     0.3804503     0.9168292     0.3146305
    29   1 H029     0.5811351     0.9558363     0.1990437
    30   1 H030     0.6511350     0.0929241     0.2559677
    31   1 H031     0.5963010     0.5958388     0.1752677
    32   1 H032     0.4183852     0.4210634     0.8176157
    33   1 H033     0.8336215     0.3888534     0.7420359
    34   1 H034     0.7547632     0.3815944     0.7996188
    35   1 H035     0.9542958     0.6564518     0.6584510
    36   1 H036     0.8673873     0.6181178     0.5352792
    37   1 H037     0.6549694     0.0357980     0.7272349
    38   1 H038     0.6224876     0.1270681     0.7627669
    39   1 H039     0.4963300     0.4923046     0.7136400
    40   1 H040     0.4620274     0.6189298     0.5071233
    41   1 H041     0.7790790     0.7785221     0.2933076
    42   1 H042     0.9397386     0.7811100     0.3618984
    43   6 C043     0.8441098     0.5047346     0.3587775
    44   6 C044     0.1458943     0.4867706     0.6425370
    45   6 C045     0.4853131     0.1452281     0.6465510
    46   6 C046     0.4929809     0.8343401     0.3524935
    47   6 C047     0.9211854     0.5028097     0.4342444
    48   6 C048     0.0678107     0.4907456     0.5684741
    49   6 C049     0.4916673     0.0682650     0.5738411
    50   6 C050     0.4927157     0.9156832     0.4291933
    51   6 C051     0.9606031     0.5613747     0.5416322
    52   6 C052     0.0257660     0.4296846     0.4624993
    53   6 C053     0.5586571     0.0352360     0.6078461
    54   6 C054     0.4285960     0.9499863     0.3958004
    55   6 C055     0.5550634     0.9562963     0.5324102
    56   6 C056     0.4275597     0.0238740     0.4684013
    57   6 C057     0.9551534     0.4384536     0.3973994
    58   6 C058     0.0366427     0.5555987     0.6070531
    59   6 C059     0.5554322     0.5546177     0.5064362
    60   6 C060     0.5125163     0.5094236     0.6552770
    61   6 C061     0.8537930     0.8533971     0.3512585
    62   6 C062     0.0462016     0.0459090     0.4979443
    63   6 C063     0.5932534     0.1109112     0.0008590
    64   6 C064     0.5192909     0.9178913     0.0067570
    65   6 C065     0.9092047     0.5125017     0.9908210
    66   6 C066     0.1069219     0.5895598     0.9951560
    67   6 C067     0.5782807     0.5786947     0.4275703
    68   6 C068     0.1483875     0.1481581     0.5751361
    69   6 C069     0.6250497     0.2109353     0.9993070
    70   6 C070     0.4713506     0.8165301     0.0037910
    71   6 C071     0.8113475     0.4685217     0.9948720
    72   6 C072     0.2083320     0.6224098     0.9964660
    73   6 C073     0.4928541     0.5808887     0.5399342
    74   6 C074     0.5744744     0.4826957     0.6219971
    75   6 C075     0.8582971     0.9474233     0.3858584
    76   6 C076     0.0410495     0.9510589     0.4632543
    77   6 C077     0.6231259     0.1115751     0.0945648
    78   6 C078     0.4924823     0.9196052     0.9124887
    79   6 C079     0.0049895     0.5803508     0.0846889
    80   6 C080     0.0140431     0.5251396     0.9017237
    81   6 C081     0.9448898     0.8550421     0.3899755
    82   6 C082     0.9542688     0.0436930     0.4589863
    83   6 C083     0.5960458     0.5052136     0.5477502
    84   6 C084     0.4715497     0.5582136     0.6142381
    85   6 C085     0.9142650     0.4854745     0.8965076
    86   6 C086     0.1019786     0.6184488     0.0879059
    87   6 C087     0.5276745     0.0130939     0.9084927
    88   6 C088     0.5878248     0.0172895     0.1005919
    89   7 N089     0.6210123     0.0232134     0.1949577
    90   7 N090     0.8257183     0.4239915     0.8022218
    91   7 N091     0.9305670     0.6243038     0.5826782
    92   7 N092     0.6247846     0.0754390     0.7081739
    93   8 O093     0.7949568     0.5443367     0.3872205
    94   8 O094     0.1525692     0.4070605     0.6117381
    95   8 O095     0.5590199     0.2015291     0.7395449
    96   8 O096     0.4557703     0.8181111     0.2610666
    97   8 O097     0.5291516     0.7842630     0.3815474
    98   8 O098     0.4064113     0.1527331     0.6161601
    99   8 O099     0.8267781     0.4648246     0.2661866
   100   8 O100     0.2008471     0.5630017     0.7341109
   101   8 O101     0.6127564     0.4029026     0.1910867
   102   8 O102     0.3533988     0.5269576     0.7711168
   103   8 O103     0.7540137     0.5813428     0.2252556
   104   8 O104     0.2121763     0.4219905     0.8092568
   105   8 O105     0.4162436     0.2126232     0.8141938
   106   8 O106     0.5725612     0.7462280     0.2219067
   107   8 O107     0.5232582     0.3542704     0.7786239
   108   8 O108     0.3952360     0.6003828     0.1829767
   109   8 O109     0.6370917     0.5552997     0.4000144
   110   8 O110     0.1503927     0.2331992     0.6043701
   111   8 O111     0.5911530     0.2083322     0.9124147
   112   8 O112     0.4874831     0.8095201     0.0872859
   113   8 O113     0.7208217     0.4038844     0.9119817
   114   8 O114     0.2916517     0.6745700     0.0834529
   115   8 O115     0.2308104     0.1477751     0.6095371
   116   8 O116     0.5388640     0.6222208     0.3903624
   117   8 O117     0.8119931     0.4904397     0.0826289
   118   8 O118     0.2107153     0.5970867     0.9110367
   119   8 O119     0.6846185     0.2981994     0.0849169
   120   8 O120     0.4078707     0.7292149     0.9164676
   121   8 O121     0.5850687     0.5844808     0.2303267
   122   8 O122     0.3520693     0.3543984     0.7640539
   123   8 O123     0.5950272     0.3922696     0.0054560
   124   8 O124     0.3877029     0.5916088     0.9950070
   125  16 S        0.1118290     0.0468236     0.0694214
   126  16 S        0.2207815     0.0769434     0.2649665
   127   9 F        0.2394093     0.2467931     0.1113996
   128   9 F        0.0724250     0.1787524     0.0284601
   129   9 F        0.1451819     0.2292924     0.1901155
   130   9 F        0.3853798     0.2292032     0.4444857
   131   9 F        0.4272001     0.1967705     0.3233159
   132   9 F        0.3553170     0.2844010     0.3355383
   133   8 O        0.0110779     0.9915109     0.0667196
   134   8 O        0.1181558     0.0144297     0.9761593
   135   8 O        0.2377762     0.0004059     0.2816130
   136   8 O        0.1544778     0.0992121     0.2986910
   137   7 N        0.2064321     0.0646055     0.1560356
   138   6 C        0.1440643     0.1832162     0.1019405
   139   6 C        0.3546655     0.2040656     0.3458270

 * volume of direct unit cell/Å³ =  3017.5575255

 * mass density of direct unit cell/g·cm⁻³ =     1.0003498


optimized geometry written to: xtbopt.coord


           -------------------------------------------------
          | TOTAL ENERGY             -349.424747436739 Eh   |
          | GRADIENT NORM               0.148267986107 Eh/α |
          | HOMO-LUMO GAP               0.006426399656 eV   |
           -------------------------------------------------

------------------------------------------------------------------------
 * finished run on 2025/06/22 at 04:43:17.939     
------------------------------------------------------------------------
 total:
 * wall-time:     0 d,  0 h,  0 min,  2.955 sec
 *  cpu-time:     0 d,  0 h,  0 min, 23.526 sec
 * ratio c/w:     7.962 speedup
 SCF:
 * wall-time:     0 d,  0 h,  0 min,  1.153 sec
 *  cpu-time:     0 d,  0 h,  0 min,  9.168 sec
 * ratio c/w:     7.949 speedup
 ANC optimizer:
 * wall-time:     0 d,  0 h,  0 min,  1.788 sec
 *  cpu-time:     0 d,  0 h,  0 min, 14.275 sec
 * ratio c/w:     7.984 speedup

