      40
 i =        1, E =      -325.5832626568
  S        -0.7957422848        0.9499500549        3.6590192602
  S         2.0380219339        1.1129288404        3.9951627611
  F        -0.8091669708        1.3756335394        6.3123734210
  F        -2.7653239415        1.5083019824        5.3134051238
  F        -1.8673185443       -0.4523732898        5.6882045639
  F         3.0592350081       -1.1223694068        5.0654301646
  F         3.9933861055        0.7498351456        5.7481750721
  F         2.0013678224        0.1848976523        6.4997998843
  O        -1.6137206462        0.0587731575        2.8414473219
  O        -0.8132020145        2.3811455419        3.3689933527
  O         1.9379571639        2.4960607316        4.4400095870
  O         2.9427449561        0.8147683692        2.8736413068
  N         0.6649241350        0.2909937093        3.7878511979
  C        -1.5918733618        0.8294917846        5.3516224673
  C         2.8118221098        0.1652652546        5.4154994781
  N         0.0443809292        0.7235268882        0.2067434266
  N         0.4753003597        2.8070107228        0.6877493558
  C         0.1155056143       -0.7542060287        0.2277907601
  C         1.5422695741       -1.2806153374        0.0652256537
  C         1.5994299056       -2.8191526087        0.0946423918
  C         0.9568226761        1.5527985742        0.7429416512
  C        -1.0541238985        1.4692761211       -0.1863866242
  C        -0.7851301390        2.7760801069        0.1168770039
  C         0.8062938091       -3.5041970320       -1.0275113016
  C         1.0953879148        3.9556902701        1.3572743714
  H        -0.5334189355       -1.0997996090       -0.5848146411
  H        -0.3243014054       -1.0723602383        1.1850452779
  H         1.9625585793       -0.9078237002       -0.8806314793
  H         2.1715954959       -0.8926992865        0.8804964215
  H         1.2552370630       -3.1746916709        1.0762826554
  H         2.6561463236       -3.1159507179        0.0272493407
  H         1.8852282459        1.2609322537        1.2292385454
  H        -1.9276012651        1.0075629805       -0.6254052261
  H        -1.3799229834        3.6702322070       -0.0065805885
  H         0.9650339017       -4.5921666094       -1.0188561132
  H        -0.2758538489       -3.3407296391       -0.9346417384
  H         1.1128374076       -3.1334834088       -2.0154220795
  H         1.0249790683        4.8365127871        0.7115694416
  H         2.1456670429        3.7202601452        1.5567683902
  H         0.5818520887        4.1157954919        2.3134957772
      40
 i =        2, E =      -325.5832701873
  S        -0.7955407895        0.9501327053        3.6590599597
  S         2.0381514556        1.1129098995        3.9952470504
  F        -0.8093142587        1.3753862545        6.3126680818
  F        -2.7655548506        1.5080043982        5.3140606390
  F        -1.8673736304       -0.4524749962        5.6883825660
  F         3.0596329207       -1.1221017379        5.0650029861
  F         3.9936738143        0.7494710832        5.7473440534
  F         2.0007748576        0.1853840807        6.4997827545
  O        -1.6136805389        0.0592340538        2.8412415023
  O        -0.8128817029        2.3812657575        3.3691106252
  O         1.9380005497        2.4961461724        4.4399068669
  O         2.9427636157        0.8147111976        2.8737042210
  N         0.6648599717        0.2911151734        3.7881670827
  C        -1.5918806233        0.8294802554        5.3516224247
  C         2.8116592635        0.1652543564        5.4157340685
  N         0.0445428022        0.7227707170        0.2071380214
  N         0.4748770290        2.8056503245        0.6890428719
  C         0.1171719525       -0.7545329804        0.2274617053
  C         1.5427234147       -1.2803748620        0.0652620352
  C         1.5983985236       -2.8188304982        0.0949923276
  C         0.9571959410        1.5523623400        0.7412166468
  C        -1.0532371182        1.4695310899       -0.1855690876
  C        -0.7846661832        2.7759929419        0.1173918952
  C         0.8067884022       -3.5041327996       -1.0283284780
  C         1.0949987784        3.9548158207        1.3565869477
  H        -0.5318811814       -1.1002931619       -0.5851027403
  H        -0.3227406955       -1.0695599737        1.1840389289
  H         1.9628120616       -0.9075947276       -0.8797703836
  H         2.1690454480       -0.8918318209        0.8818103614
  H         1.2525921216       -3.1743078973        1.0753632338
  H         2.6545453752       -3.1149250151        0.0298748936
  H         1.8855228961        1.2616642233        1.2281740670
  H        -1.9265471051        1.0090807310       -0.6246547225
  H        -1.3794223605        3.6696825805       -0.0064592169
  H         0.9659460033       -4.5910202460       -1.0182676179
  H        -0.2751793696       -3.3412123164       -0.9346384625
  H         1.1120158552       -3.1352103438       -2.0169375497
  H         1.0239398830        4.8355909316        0.7108777695
  H         2.1452170980        3.7210732448        1.5565485039
  H         0.5817542672        4.1147383154        2.3131373298
      40
 i =        3, E =      -325.5832752525
  S        -0.7956784118        0.9501656943        3.6592419902
  S         2.0379870606        1.1130617815        3.9951110153
  F        -0.8090281625        1.3756711292        6.3124801336
  F        -2.7655489439        1.5081683761        5.3135955170
  F        -1.8672729456       -0.4525952169        5.6881818618
  F         3.0587925471       -1.1225147226        5.0656544893
  F         3.9934341307        0.7499303085        5.7484370364
  F         2.0017251243        0.1848438892        6.4997527031
  O        -1.6135003599        0.0593394348        2.8409876459
  O        -0.8128015474        2.3812671495        3.3692112575
  O         1.9381201602        2.4962748361        4.4399567589
  O         2.9427429938        0.8146374256        2.8737781587
  N         0.6646502450        0.2912187255        3.7882367223
  C        -1.5919544807        0.8295368212        5.3518437732
  C         2.8120074353        0.1653826600        5.4152610779
  N         0.0452929286        0.7231458063        0.2058134858
  N         0.4753180749        2.8056213771        0.6887311904
  C         0.1173543717       -0.7542191145        0.2273784937
  C         1.5428237950       -1.2797690421        0.0654333623
  C         1.5982392000       -2.8183809872        0.0951977947
  C         0.9575790571        1.5523242905        0.7413856150
  C        -1.0532033714        1.4695336094       -0.1857416833
  C        -0.7846497857        2.7757803495        0.1180683298
  C         0.8066530559       -3.5040172238       -1.0282431664
  C         1.0950341357        3.9546565004        1.3566868892
  H        -0.5316421261       -1.1002200787       -0.5852160505
  H        -0.3225023165       -1.0693679666        1.1839666003
  H         1.9634816795       -0.9071857814       -0.8794692601
  H         2.1685557962       -0.8918543610        0.8828034326
  H         1.2502380907       -3.1740714435        1.0748298764
  H         2.6544623021       -3.1145786981        0.0312075506
  H         1.8863010471        1.2616115500        1.2275330524
  H        -1.9267628943        1.0091029449       -0.6245274923
  H        -1.3791832951        3.6696083910       -0.0061457203
  H         0.9666926635       -4.5908956127       -1.0178889207
  H        -0.2754181812       -3.3415838554       -0.9350788198
  H         1.1120262025       -3.1357869194       -2.0172227211
  H         1.0229889898        4.8350255321        0.7104920332
  H         2.1454198126        3.7211461801        1.5562166302
  H         0.5814197986        4.1144653549        2.3130777999
      40
 i =        4, E =      -325.5832791258
  S        -0.7955326820        0.9502509603        3.6590248422
  S         2.0381412510        1.1130220415        3.9953331996
  F        -0.8092805965        1.3756419406        6.3124137394
  F        -2.7654465999        1.5083281775        5.3135358690
  F        -1.8672315891       -0.4525179854        5.6883318767
  F         3.0596869822       -1.1221023671        5.0651411081
  F         3.9935860905        0.7495938870        5.7477133220
  F         2.0010835072        0.1851132938        6.4998898600
  O        -1.6132742061        0.0594433686        2.8406184246
  O        -0.8129908558        2.3814283422        3.3694081240
  O         1.9381988386        2.4963008701        4.4399603773
  O         2.9425200400        0.8146101462        2.8737343826
  N         0.6646853682        0.2913561228        3.7883749941
  C        -1.5919322723        0.8295283079        5.3515543087
  C         2.8117468317        0.1653071665        5.4156780181
  N         0.0463256864        0.7240319414        0.2040322011
  N         0.4760988001        2.8059710406        0.6881810475
  C         0.1169476311       -0.7534429177        0.2268112489
  C         1.5425146717       -1.2788905641        0.0661788704
  C         1.5977987196       -2.8176973969        0.0953321547
  C         0.9585266998        1.5525824840        0.7413773188
  C        -1.0533126305        1.4694526437       -0.1863624797
  C        -0.7845529130        2.7754133362        0.1188397997
  C         0.8065787189       -3.5040195449       -1.0283251376
  C         1.0951016765        3.9547850484        1.3569995022
  H        -0.5316732114       -1.1002966246       -0.5857185593
  H        -0.3222157532       -1.0694426509        1.1839967171
  H         1.9648815762       -0.9064705328       -0.8784161727
  H         2.1685579730       -0.8920661957        0.8841421499
  H         1.2465706483       -3.1732721683        1.0742223915
  H         2.6542713654       -3.1145753737        0.0334892633
  H         1.8876589239        1.2612709827        1.2263968019
  H        -1.9273745907        1.0086813881       -0.6245035695
  H        -1.3788279730        3.6695827968       -0.0052854479
  H         0.9678026809       -4.5911715416       -1.0171089419
  H        -0.2757301579       -3.3422701689       -0.9358811279
  H         1.1123903774       -3.1361638049       -2.0175991392
  H         1.0215293992        4.8344200214        0.7099653190
  H         2.1458223907        3.7212852363        1.5556182203
  H         0.5809690369        4.1141609924        2.3131558665
      40
 i =        5, E =      -325.5832846053
  S        -0.7954510861        0.9503085928        3.6588200225
  S         2.0381761414        1.1130742987        3.9953367600
  F        -0.8092793552        1.3754900003        6.3124283694
  F        -2.7654829498        1.5081606675        5.3136235997
  F        -1.8673861628       -0.4524332745        5.6881977992
  F         3.0591714956       -1.1222934736        5.0653124020
  F         3.9934794785        0.7498914524        5.7480397009
  F         2.0012130491        0.1850079084        6.4997710513
  O        -1.6131332799        0.0595994503        2.8402004542
  O        -0.8130558544        2.3815364186        3.3694525466
  O         1.9382149452        2.4963435206        4.4399834054
  O         2.9425310143        0.8146307808        2.8737499817
  N         0.6646641799        0.2914314844        3.7885354723
  C        -1.5918451408        0.8295646920        5.3513818983
  C         2.8119015075        0.1653163352        5.4155906545
  N         0.0463943972        0.7239259725        0.2039008003
  N         0.4760885912        2.8057453377        0.6885865854
  C         0.1171548694       -0.7533831934        0.2260648467
  C         1.5426588470       -1.2788027666        0.0666943098
  C         1.5966745767       -2.8175565242        0.0956468594
  C         0.9594244801        1.5525969948        0.7398208604
  C        -1.0529439817        1.4696544323       -0.1865835618
  C        -0.7843141305        2.7756126889        0.1187254225
  C         0.8070103835       -3.5041683996       -1.0289892960
  C         1.0948464700        3.9548602507        1.3567731873
  H        -0.5314968676       -1.1004129136       -0.5862979096
  H        -0.3220809284       -1.0686326600        1.1837327663
  H         1.9662326867       -0.9056265207       -0.8772110569
  H         2.1682447630       -0.8920836511        0.8852180877
  H         1.2437685383       -3.1723114559        1.0742777155
  H         2.6532651499       -3.1148442077        0.0359074603
  H         1.8884002225        1.2611328259        1.2251497218
  H        -1.9271956344        1.0086459764       -0.6242572401
  H        -1.3787633621        3.6698627365       -0.0042552463
  H         0.9685994025       -4.5913849183       -1.0163657484
  H        -0.2754606406       -3.3429865427       -0.9365108087
  H         1.1128069534       -3.1363638599       -2.0182924730
  H         1.0206416079        4.8344337159        0.7098351938
  H         2.1457948609        3.7219746692        1.5551872409
  H         0.5810354557        4.1137824559        2.3131489059
      40
 i =        6, E =      -325.5832906884
  S        -0.7955070886        0.9504553714        3.6587874018
  S         2.0380745354        1.1132900801        3.9950389596
  F        -0.8089761007        1.3756909678        6.3120556301
  F        -2.7655256221        1.5082832580        5.3134113565
  F        -1.8672821622       -0.4526224586        5.6879382771
  F         3.0594791816       -1.1222074487        5.0656054204
  F         3.9934734569        0.7493195856        5.7481022451
  F         2.0015271853        0.1851003067        6.4999660725
  O        -1.6125098375        0.0600694878        2.8390170652
  O        -0.8128483468        2.3816705776        3.3693021037
  O         1.9383116832        2.4964494005        4.4400446499
  O         2.9426785728        0.8147071887        2.8737239015
  N         0.6644447737        0.2916644659        3.7887290679
  C        -1.5919997474        0.8295358469        5.3514526371
  C         2.8116399622        0.1654454448        5.4153677654
  N         0.0469763879        0.7236492856        0.2020458489
  N         0.4765929686        2.8053597253        0.6881541300
  C         0.1182572777       -0.7531285224        0.2250432379
  C         1.5433885779       -1.2786430739        0.0672237856
  C         1.5941539447       -2.8171119798        0.0970278342
  C         0.9604679133        1.5523639495        0.7372232105
  C        -1.0522282827        1.4702299719       -0.1865268402
  C        -0.7839621154        2.7761894144        0.1188842898
  C         0.8081894794       -3.5043017774       -1.0298560181
  C         1.0942074628        3.9548522145        1.3560454445
  H        -0.5303034753       -1.1002470227       -0.5873652350
  H        -0.3225168495       -1.0667090432        1.1827442966
  H         1.9698081132       -0.9036324715       -0.8747158669
  H         2.1664581328       -0.8926167497        0.8882669256
  H         1.2364924867       -3.1701343380        1.0744945403
  H         2.6505484634       -3.1160274193        0.0423606797
  H         1.8901284480        1.2610492717        1.2215340180
  H        -1.9265239575        1.0088495494       -0.6236329914
  H        -1.3787420316        3.6705483621       -0.0015463962
  H         0.9706729040       -4.5914059822       -1.0152428018
  H        -0.2747393031       -3.3449401087       -0.9387185328
  H         1.1141412588       -3.1374130140       -2.0193675914
  H         1.0185066160        4.8347380778        0.7099060358
  H         2.1457049619        3.7241275102        1.5540978580
  H         0.5814848789        4.1129793256        2.3131264834
      40
 i =        7, E =      -325.5832949009
  S        -0.7952504844        0.9505341568        3.6580957874
  S         2.0382598387        1.1132459233        3.9953141841
  F        -0.8094213962        1.3752441145        6.3123562623
  F        -2.7655616958        1.5080366435        5.3140891734
  F        -1.8673219776       -0.4523951651        5.6883320432
  F         3.0583661787       -1.1223994657        5.0650245914
  F         3.9935435151        0.7504210161        5.7477857761
  F         2.0010609565        0.1850436205        6.4993947980
  O        -1.6121526102        0.0604506045        2.8377684038
  O        -0.8128373251        2.3818896108        3.3691939484
  O         1.9383037464        2.4964944345        4.4399495766
  O         2.9424909641        0.8147514076        2.8737090983
  N         0.6645813414        0.2917990355        3.7887333163
  C        -1.5918623004        0.8295122493        5.3509421074
  C         2.8121412963        0.1653636244        5.4155538739
  N         0.0476171200        0.7242629191        0.2003802853
  N         0.4772413619        2.8056310733        0.6875113092
  C         0.1188749957       -0.7521129962        0.2239056589
  C         1.5437808120       -1.2783666355        0.0682043937
  C         1.5922055139       -2.8166133390        0.0983744664
  C         0.9616530143        1.5527754514        0.7349916065
  C        -1.0520082483        1.4705946058       -0.1869410808
  C        -0.7837745403        2.7763565877        0.1193492874
  C         0.8090270897       -3.5045306443       -1.0299715288
  C         1.0941727380        3.9552628018        1.3555194287
  H        -0.5290815759       -1.1001054704       -0.5886323355
  H        -0.3231836513       -1.0651767942        1.1812803614
  H         1.9730401527       -0.9025459079       -0.8721600448
  H         2.1648152699       -0.8936868155        0.8915376019
  H         1.2293199361       -3.1679216754        1.0745574345
  H         2.6481017817       -3.1178914402        0.0489471003
  H         1.8918885296        1.2610251403        1.2179277477
  H        -1.9265064827        1.0089620139       -0.6233048500
  H        -1.3787920308        3.6708101721        0.0011862712
  H         0.9729098742       -4.5914048702       -1.0147987658
  H        -0.2743383651       -3.3467329336       -0.9414766470
  H         1.1163015595       -3.1384370948       -2.0193403336
  H         1.0164053447        4.8355092595        0.7101660278
  H         2.1461216511        3.7262043177        1.5528521786
  H         0.5817591656        4.1120544692        2.3130361716
      40
 i =        8, E =      -325.5833016665
  S        -0.7951618980        0.9505137313        3.6575305104
  S         2.0382086133        1.1134029256        3.9950100070
  F        -0.8092807412        1.3752578914        6.3122609393
  F        -2.7655849188        1.5077884947        5.3137691417
  F        -1.8675056376       -0.4523196150        5.6879555781
  F         3.0592035400       -1.1222587459        5.0653548420
  F         3.9934712868        0.7497912685        5.7480697720
  F         2.0012849889        0.1851415389        6.4996901827
  O        -1.6118808149        0.0606943408        2.8366282758
  O        -0.8128842769        2.3820076707        3.3691387091
  O         1.9382829051        2.4965716819        4.4398593916
  O         2.9424964253        0.8148338908        2.8734762911
  N         0.6646417460        0.2918003824        3.7885577713
  C        -1.5917426563        0.8295415070        5.3507504258
  C         2.8118137750        0.1654341731        5.4154225214
  N         0.0481627477        0.7253395434        0.1994475359
  N         0.4777272020        2.8064146222        0.6869858972
  C         0.1187580434       -0.7509214883        0.2224454029
  C         1.5438654682       -1.2783401841        0.0699059966
  C         1.5904211441       -2.8165643844        0.0997283366
  C         0.9629972285        1.5537471328        0.7328722206
  C        -1.0520719586        1.4708907468       -0.1875082750
  C        -0.7837877659        2.7764835852        0.1197701666
  C         0.8096816806       -3.5050043323       -1.0299222481
  C         1.0945619061        3.9561581293        1.3551983612
  H        -0.5281510379       -1.0998633933       -0.5904823733
  H        -0.3240103150       -1.0640922425        1.1795293976
  H         1.9755086018       -0.9027267125       -0.8695395920
  H         2.1638858403       -0.8950556372        0.8945728999
  H         1.2233353717       -3.1659264252        1.0750843840
  H         2.6457995403       -3.1202068695        0.0549135484
  H         1.8933627426        1.2612017496        1.2148422402
  H        -1.9268904117        1.0091623787       -0.6231673138
  H        -1.3792769323        3.6708538516        0.0035920564
  H         0.9749358580       -4.5916537195       -1.0148241956
  H        -0.2740107288       -3.3480376925       -0.9443180153
  H         1.1194758205       -3.1387561009       -2.0184394416
  H         1.0147940310        4.8369249940        0.7107061907
  H         2.1468553966        3.7280062566        1.5514316040
  H         0.5820165835        4.1111084684        2.3130035413
      40
 i =        9, E =      -325.5833126552
  S        -0.7950730118        0.9505289301        3.6567949408
  S         2.0382033781        1.1133644013        3.9945586682
  F        -0.8091471650        1.3756209813        6.3113139308
  F        -2.7653972339        1.5083718329        5.3129422427
  F        -1.8672193410       -0.4526915836        5.6876679648
  F         3.0595760736       -1.1220226716        5.0652531085
  F         3.9935215241        0.7495533511        5.7477307226
  F         2.0010086771        0.1850791802        6.4997661871
  O        -1.6113756549        0.0610656777        2.8349509675
  O        -0.8129139694        2.3821847058        3.3688642172
  O         1.9381445452        2.4964158025        4.4396765884
  O         2.9425689943        0.8149253244        2.8730521164
  N         0.6648109523        0.2917169361        3.7877961947
  C        -1.5921215747        0.8292250596        5.3504728119
  C         2.8115313884        0.1655396733        5.4154592134
  N         0.0494966406        0.7267717199        0.1967359657
  N         0.4788190599        2.8080459173        0.6847682985
  C         0.1183197105       -0.7496720964        0.2204317700
  C         1.5440525316       -1.2791339412        0.0727468328
  C         1.5869064311       -2.8175734693        0.1032637142
  C         0.9640655470        1.5551973280        0.7304882237
  C        -1.0522172080        1.4718444022       -0.1872487100
  C        -0.7842142787        2.7774934302        0.1205780936
  C         0.8113734228       -3.5057593838       -1.0300501815
  C         1.0949214911        3.9578056541        1.3547713042
  H        -0.5262414611       -1.0984646217       -0.5944214455
  H        -0.3263758101       -1.0627845851        1.1765207055
  H         1.9792869261       -0.9043910385       -0.8654045561
  H         2.1624582297       -0.8976279079        0.8992160606
  H         1.2145315290       -3.1636967377        1.0776374179
  H         2.6415404591       -3.1243809784        0.0642344813
  H         1.8953173172        1.2622888496        1.2099985497
  H        -1.9271393800        1.0101541867       -0.6227144615
  H        -1.3811219396        3.6712466177        0.0070591103
  H         0.9777183080       -4.5921687739       -1.0151764035
  H        -0.2728273341       -3.3497043693       -0.9492642960
  H         1.1261207363       -3.1381895444       -2.0164267665
  H         1.0129179979        4.8399588279        0.7121946934
  H         2.1478714215        3.7309831434        1.5486554870
  H         0.5831329274        4.1099056812        2.3134546882
      40
 i =       10, E =      -325.5833246408
  S        -0.7949740003        0.9504293267        3.6551655786
  S         2.0380683289        1.1134184819        3.9935895143
  F        -0.8093227573        1.3750076375        6.3116212925
  F        -2.7654590283        1.5077669560        5.3134901739
  F        -1.8674834766       -0.4525091436        5.6878295877
  F         3.0602939299       -1.1221141736        5.0653541083
  F         3.9931823138        0.7490586183        5.7480648724
  F         2.0016238192        0.1856473528        6.5000161783
  O        -1.6107897022        0.0616104624        2.8318819697
  O        -0.8127341857        2.3823860231        3.3682824997
  O         1.9380013827        2.4962658671        4.4393546630
  O         2.9429560284        0.8150155983        2.8725293071
  N         0.6650424763        0.2914708310        3.7863036881
  C        -1.5919143527        0.8290564773        5.3499110362
  C         2.8111399814        0.1654760130        5.4149145804
  N         0.0512285741        0.7294450108        0.1925808497
  N         0.4802907385        2.8107461589        0.6814780477
  C         0.1183440615       -0.7473613154        0.2175424450
  C         1.5440508013       -1.2810618078        0.0769091405
  C         1.5814550414       -2.8198300275        0.1106233079
  C         0.9658254702        1.5578011747        0.7261388475
  C        -1.0526656131        1.4739392788       -0.1868036472
  C        -0.7849892293        2.7793886694        0.1220015669
  C         0.8147444916       -3.5065768080       -1.0296230031
  C         1.0954609517        3.9603997717        1.3540979378
  H        -0.5218849367       -1.0954106567       -0.6011788377
  H        -0.3314612044       -1.0602414847        1.1708332411
  H         1.9857643035       -0.9084453161       -0.8588180028
  H         2.1589276416       -0.9017586453        0.9067682697
  H         1.1995269561       -3.1620754829        1.0824892124
  H         2.6347974367       -3.1312765074        0.0802033107
  H         1.8985044178        1.2650789016        1.2023706143
  H        -1.9278023216        1.0122432739       -0.6215930182
  H        -1.3843770683        3.6719122104        0.0123287149
  H         0.9818783532       -4.5926960140       -1.0160546199
  H        -0.2703680919       -3.3520598069       -0.9583244234
  H         1.1377925405       -3.1370176268       -2.0125214028
  H         1.0098108683        4.8448673202        0.7147940768
  H         2.1495583102        3.7358482494        1.5438407772
  H         0.5857429582        4.1079460015        2.3145783958
      40
 i =       11, E =      -325.5833391859
  S        -0.7950675159        0.9504412538        3.6540599274
  S         2.0380726370        1.1131245828        3.9927832327
  F        -0.8087756029        1.3757963866        6.3105970882
  F        -2.7653232298        1.5079700401        5.3124558393
  F        -1.8672022392       -0.4530820357        5.6871044963
  F         3.0595780584       -1.1220477567        5.0653240568
  F         3.9935548236        0.7493849076        5.7470882025
  F         2.0007024771        0.1845620588        6.4993143813
  O        -1.6099886762        0.0624259384        2.8287304510
  O        -0.8124484401        2.3825494625        3.3677079436
  O         1.9377910459        2.4958662598        4.4389402297
  O         2.9432517914        0.8150417169        2.8719873485
  N         0.6651552131        0.2913704744        3.7841249489
  C        -1.5921602899        0.8287259879        5.3499032794
  C         2.8112198602        0.1657115579        5.4148612606
  N         0.0530551783        0.7327766776        0.1886283960
  N         0.4811074938        2.8140711597        0.6790684075
  C         0.1189953490       -0.7446120289        0.2132350656
  C         1.5439674949       -1.2834673001        0.0829578713
  C         1.5746392987       -2.8227012733        0.1200568882
  C         0.9685838561        1.5615818978        0.7197025721
  C        -1.0528845719        1.4767521664       -0.1866063947
  C        -0.7859516625        2.7817448774        0.1236278542
  C         0.8189514819       -3.5077429931       -1.0288771492
  C         1.0963211109        3.9634355234        1.3532491799
  H        -0.5160695020       -1.0912629158       -0.6102453975
  H        -0.3384753491       -1.0562196906        1.1628404119
  H         1.9936702449       -0.9152031495       -0.8504097437
  H         2.1540802415       -0.9057811595        0.9168280611
  H         1.1802290792       -3.1620422981        1.0880492099
  H         2.6266709247       -3.1391055387        0.1015915560
  H         1.9025541391        1.2694347076        1.1933430577
  H        -1.9289103166        1.0152243750       -0.6195111520
  H        -1.3881133835        3.6729207700        0.0183924305
  H         0.9869013841       -4.5935873365       -1.0171123941
  H        -0.2670892973       -3.3540760864       -0.9701060605
  H         1.1530492192       -3.1353421342       -2.0071636282
  H         1.0054088647        4.8504254622        0.7178690032
  H         2.1518688298        3.7415640331        1.5376943788
  H         0.5896690592        4.1053510893        2.3161940556
      40
 i =       12, E =      -325.5833558536
  S        -0.7946485237        0.9506600010        3.6528277965
  S         2.0383091999        1.1128679993        3.9922216653
  F        -0.8092590750        1.3753338844        6.3096916363
  F        -2.7650768903        1.5087834737        5.3125543072
  F        -1.8663212840       -0.4534575025        5.6877238317
  F         3.0591893888       -1.1225288365        5.0645532913
  F         3.9928506585        0.7500938853        5.7477942867
  F         2.0012877896        0.1858204552        6.4992747103
  O        -1.6100488571        0.0630334944        2.8273834312
  O        -0.8125333994        2.3829572985        3.3676130077
  O         1.9375986932        2.4955980549        4.4386161820
  O         2.9434710534        0.8150584722        2.8715263072
  N         0.6654504573        0.2911691960        3.7822795881
  C        -1.5925998878        0.8282728777        5.3489165761
  C         2.8113900203        0.1652296642        5.4144570138
  N         0.0554084957        0.7354014576        0.1846780487
  N         0.4811550521        2.8170813703        0.6778264058
  C         0.1197882299       -0.7428736041        0.2083767421
  C         1.5436074266       -1.2857811655        0.0901316691
  C         1.5676748653       -2.8256558530        0.1290322453
  C         0.9707747608        1.5651983757        0.7146145836
  C        -1.0523978127        1.4795269510       -0.1859225717
  C        -0.7869777986        2.7842457147        0.1252818930
  C         0.8231023523       -3.5088522533       -1.0287385080
  C         1.0968791961        3.9657273711        1.3525892460
  H        -0.5105521332       -1.0868193929       -0.6198826627
  H        -0.3458465949       -1.0520732024        1.1548279002
  H         2.0004573973       -0.9236223678       -0.8421402353
  H         2.1495231807       -0.9075530088        0.9267172866
  H         1.1623851737       -3.1646195953        1.0929036762
  H         2.6192858201       -3.1446144246        0.1227877737
  H         1.9063747214        1.2744821175        1.1859938964
  H        -1.9298326493        1.0184022728       -0.6164477446
  H        -1.3911097178        3.6745290490        0.0229453777
  H         0.9909481938       -4.5947917562       -1.0175904874
  H        -0.2633391880       -3.3542218279       -0.9807806550
  H         1.1680918850       -3.1332729215       -2.0022601339
  H         1.0008263593        4.8544860615        0.7205424377
  H         2.1538882551        3.7460059070        1.5316747178
  H         0.5944471947        4.1032695351        2.3183455112
      40
 i =       13, E =      -325.5833697363
  S        -0.7944207250        0.9507565040        3.6521824530
  S         2.0384747507        1.1127872631        3.9915593054
  F        -0.8091732937        1.3747414526        6.3108209585
  F        -2.7651365221        1.5071500074        5.3135521828
  F        -1.8674899971       -0.4528337943        5.6872403061
  F         3.0586507608       -1.1223823891        5.0658456546
  F         3.9933423508        0.7499202328        5.7472795598
  F         2.0007431880        0.1840400186        6.4989064098
  O        -1.6109953828        0.0631169999        2.8278914637
  O        -0.8126924649        2.3831173501        3.3678422956
  O         1.9377216112        2.4954078311        4.4386596838
  O         2.9438405180        0.8150767645        2.8712155326
  N         0.6654282785        0.2910037691        3.7811563018
  C        -1.5914118435        0.8286427737        5.3486299654
  C         2.8114318145        0.1657643741        5.4143657613
  N         0.0575772038        0.7378667730        0.1814103615
  N         0.4808901565        2.8193105842        0.6781385784
  C         0.1201832685       -0.7413439277        0.2040760609
  C         1.5418228979       -1.2883118375        0.0969670940
  C         1.5618905468       -2.8287563807        0.1379145914
  C         0.9725147410        1.5681351044        0.7118093772
  C        -1.0517897596        1.4820832286       -0.1853067585
  C        -0.7876484182        2.7864905602        0.1271350598
  C         0.8276858414       -3.5086380766       -1.0288729967
  C         1.0969855646        3.9670646201        1.3524394223
  H        -0.5050246562       -1.0825601783       -0.6291314277
  H        -0.3535681059       -1.0488317680        1.1475226889
  H         2.0057686541       -0.9324309214       -0.8344640395
  H         2.1447352324       -0.9073469970        0.9347924909
  H         1.1474062968       -3.1699348935        1.0972207355
  H         2.6138393137       -3.1472883723        0.1412664791
  H         1.9097408223        1.2795103651        1.1817271063
  H        -1.9308423480        1.0208193334       -0.6128370363
  H        -1.3926008173        3.6764205045        0.0253609922
  H         0.9929953865       -4.5953312756       -1.0173159610
  H        -0.2587364332       -3.3521748632       -0.9893438409
  H         1.1813850886       -3.1314498529       -1.9986008927
  H         0.9965909952        4.8564828306        0.7225973651
  H         2.1553462139        3.7484511304        1.5260538446
  H         0.5998604838        4.1022033132        2.3212124429
      40
 i =       14, E =      -325.5833776138
  S        -0.7948763884        0.9507090694        3.6535503852
  S         2.0384704663        1.1128693061        3.9919046541
  F        -0.8087175995        1.3752068989        6.3112877190
  F        -2.7650040135        1.5074820794        5.3128697909
  F        -1.8673624146       -0.4529239027        5.6870709629
  F         3.0589186774       -1.1225731233        5.0645468012
  F         3.9927873380        0.7501989652        5.7476648366
  F         2.0011354389        0.1859767933        6.4989432395
  O        -1.6112192929        0.0628607261        2.8293649406
  O        -0.8123875236        2.3827482908        3.3678322773
  O         1.9378511124        2.4955790796        4.4387791872
  O         2.9437922730        0.8150498423        2.8716084729
  N         0.6650734687        0.2913708912        3.7812978695
  C        -1.5913249415        0.8289452396        5.3496338639
  C         2.8114915027        0.1651863114        5.4142480369
  N         0.0572109786        0.7386952381        0.1822617148
  N         0.4807569725        2.8192724132        0.6800087337
  C         0.1195712526       -0.7404835510        0.2034851477
  C         1.5401373135       -1.2888031213        0.0983120768
  C         1.5616469606       -2.8291062558        0.1403411619
  C         0.9732986948        1.5684617083        0.7118148110
  C        -1.0517878074        1.4824274838       -0.1858821710
  C        -0.7871985481        2.7865851267        0.1277130253
  C         0.8294812124       -3.5073994859       -1.0283626707
  C         1.0971115684        3.9669798995        1.3528558421
  H        -0.5033258427       -1.0817889329       -0.6313351830
  H        -0.3564828489       -1.0487824873        1.1457897825
  H         2.0066058561       -0.9339931638       -0.8323799218
  H         2.1426176380       -0.9067570259        0.9363760524
  H         1.1444231894       -3.1721771553        1.0977308143
  H         2.6137211857       -3.1467776521        0.1449157432
  H         1.9102316607        1.2800786553        1.1826255395
  H        -1.9312493813        1.0202810065       -0.6118646078
  H        -1.3914343889        3.6769278494        0.0251530667
  H         0.9922831977       -4.5946570978       -1.0168162387
  H        -0.2567879981       -3.3499909864       -0.9906635463
  H         1.1840283347       -3.1317521605       -1.9980524129
  H         0.9955417042        4.8558897434        0.7228367734
  H         2.1557302260        3.7480963514        1.5246396474
  H         0.6016180689        4.1024795447        2.3224378238
      40
 i =       15, E =      -325.5833863381
  S        -0.7948687050        0.9506607543        3.6540438028
  S         2.0384594215        1.1131747839        3.9919685818
  F        -0.8094055271        1.3751099112        6.3110378809
  F        -2.7647817079        1.5086783356        5.3133433143
  F        -1.8664419528       -0.4530127260        5.6882219551
  F         3.0594171158       -1.1224090620        5.0651850439
  F         3.9929852719        0.7496073529        5.7477438735
  F         2.0012878393        0.1851685052        6.4992353404
  O        -1.6113830593        0.0626774266        2.8302535645
  O        -0.8124167920        2.3826421608        3.3678924842
  O         1.9378476555        2.4958566313        4.4388013630
  O         2.9437252303        0.8152189789        2.8716225688
  N         0.6650201855        0.2914979800        3.7820234535
  C        -1.5918273999        0.8288099587        5.3494216796
  C         2.8113039031        0.1653858879        5.4142919484
  N         0.0570909087        0.7386687225        0.1825755152
  N         0.4811339684        2.8191950644        0.6806920951
  C         0.1187391850       -0.7402223114        0.2029841849
  C         1.5398056796       -1.2883598536        0.0998105824
  C         1.5611436582       -2.8284318122        0.1411363746
  C         0.9734542547        1.5682554762        0.7121251393
  C        -1.0516167878        1.4823020569       -0.1858718847
  C        -0.7867749263        2.7865766571        0.1280844234
  C         0.8304408556       -3.5070786851       -1.0277973050
  C         1.0975768870        3.9669251306        1.3530895932
  H        -0.5026707650       -1.0812369249       -0.6330446903
  H        -0.3590236661       -1.0490021920        1.1444129494
  H         2.0075351418       -0.9334264642       -0.8302256722
  H         2.1409680965       -0.9070536160        0.9392850593
  H         1.1412787620       -3.1713961722        1.0974892505
  H         2.6129683936       -3.1471640420        0.1488254332
  H         1.9103259419        1.2792722739        1.1825724461
  H        -1.9308841446        1.0196128341       -0.6115528986
  H        -1.3903139814        3.6774667019        0.0260457018
  H         0.9924397397       -4.5943891003       -1.0162773532
  H        -0.2557308568       -3.3483079534       -0.9920029721
  H         1.1867205250       -3.1323578470       -1.9971957617
  H         0.9945589116        4.8558733713        0.7232550174
  H         2.1564446376        3.7487208265        1.5235645157
  H         0.6027243211        4.1024459166        2.3231308296
      40
 i =       16, E =      -325.5834025508
  S        -0.7946574352        0.9504411425        3.6545143015
  S         2.0385064185        1.1136401001        3.9924113854
  F        -0.8090427966        1.3754902357        6.3107384326
  F        -2.7648132717        1.5083000398        5.3132646041
  F        -1.8668553920       -0.4525769280        5.6877311981
  F         3.0598957442       -1.1221517568        5.0652178141
  F         3.9931673804        0.7493138149        5.7477354435
  F         2.0012209378        0.1852053279        6.4995226293
  O        -1.6117552845        0.0622198681        2.8316704859
  O        -0.8128672888        2.3824884701        3.3683092823
  O         1.9377938268        2.4963544585        4.4388137594
  O         2.9432625258        0.8154822758        2.8716401107
  N         0.6650522484        0.2916213723        3.7835657107
  C        -1.5914366882        0.8291510574        5.3493488010
  C         2.8111811867        0.1654804755        5.4146026464
  N         0.0579951435        0.7392061363        0.1811317934
  N         0.4825337962        2.8198300726        0.6807645800
  C         0.1169516063       -0.7392562803        0.2001390869
  C         1.5393702894       -1.2883766633        0.1064575650
  C         1.5569660821       -2.8281731478        0.1461341319
  C         0.9738949879        1.5683909041        0.7123965677
  C        -1.0511075694        1.4829640307       -0.1846870199
  C        -0.7862683849        2.7875844238        0.1297553057
  C         0.8340790678       -3.5067480514       -1.0269686547
  C         1.0990140026        3.9674156600        1.3532874391
  H        -0.4994476523       -1.0780545386       -0.6405879924
  H        -0.3679024480       -1.0486887976        1.1380176419
  H         2.0120626217       -0.9336066991       -0.8212021878
  H         2.1351605664       -0.9087418240        0.9505533038
  H         1.1273203846       -3.1688181253        1.0992314978
  H         2.6080680543       -3.1501189274        0.1659929828
  H         1.9117171334        1.2782209064        1.1798455613
  H        -1.9299059979        1.0194826716       -0.6100933292
  H        -1.3888270800        3.6794445942        0.0301111870
  H         0.9943760735       -4.5940879163       -1.0144464909
  H        -0.2519506018       -3.3441405180       -0.9991399107
  H         1.1994194329       -3.1329061926       -1.9936261478
  H         0.9907144486        4.8574341225        0.7253925839
  H         2.1590935717        3.7523390949        1.5189038508
  H         0.6072547879        4.1012945973        2.3254845265
      40
 i =       17, E =      -325.5834264724
  S        -0.7945206108        0.9503476221        3.6555674951
  S         2.0384011552        1.1140710200        3.9926335390
  F        -0.8091403363        1.3749813938        6.3109229633
  F        -2.7647691021        1.5086224423        5.3128700820
  F        -1.8667425590       -0.4523750292        5.6880127316
  F         3.0598135060       -1.1217153105        5.0655330279
  F         3.9935479763        0.7491894252        5.7475749792
  F         2.0010958194        0.1848757535        6.4996613566
  O        -1.6121441636        0.0613773045        2.8342354800
  O        -0.8130823969        2.3822934215        3.3684391358
  O         1.9378824771        2.4967027868        4.4390626290
  O         2.9429668550        0.8156387269        2.8717455911
  N         0.6648299709        0.2916694262        3.7854394747
  C        -1.5914436268        0.8293291011        5.3493960193
  C         2.8111270798        0.1659575486        5.4148427522
  N         0.0589170596        0.7418348076        0.1797552788
  N         0.4845011165        2.8211437186        0.6819971184
  C         0.1139518167       -0.7364520994        0.1946398672
  C         1.5365670923       -1.2904944911        0.1192978269
  C         1.5486234595       -2.8301665019        0.1598336808
  C         0.9758392196        1.5695121416        0.7118169064
  C        -1.0508524244        1.4856302083       -0.1827156674
  C        -0.7855168064        2.7899568388        0.1334324063
  C         0.8426562207       -3.5046982690       -1.0257170471
  C         1.1016464137        3.9688880755        1.3536603767
  H        -0.4912854367       -1.0710882112       -0.6562352526
  H        -0.3851871175       -1.0480154196        1.1245494199
  H         2.0209930128       -0.9368395031       -0.8028683558
  H         2.1229307501       -0.9118570067        0.9704182152
  H         1.1008024656       -3.1676529105        1.1058375617
  H         2.5983519235       -3.1556255678        0.1984316389
  H         1.9147275622        1.2783230958        1.1759944247
  H        -1.9295847170        1.0212153998       -0.6069632475
  H        -1.3873794459        3.6825109065        0.0364722386
  H         0.9968330044       -4.5927710185       -1.0106763007
  H        -0.2431457224       -3.3362431149       -1.0143975425
  H         1.2254671752       -3.1325515860       -1.9866835041
  H         0.9838593588        4.8606730232        0.7295387489
  H         2.1640990480        3.7585977878        1.5093815216
  H         0.6171204287        4.0981895996        2.3305082694
      40
 i =       18, E =      -325.5834628187
  S        -0.7945459751        0.9498560207        3.6591380089
  S         2.0382582860        1.1147389847        3.9941703756
  F        -0.8099215820        1.3771699681        6.3118389003
  F        -2.7644683175        1.5085601801        5.3145459469
  F        -1.8677550606       -0.4522947234        5.6878587356
  F         3.0597475561       -1.1215232863        5.0656715846
  F         3.9938929570        0.7495976243        5.7477384165
  F         2.0011344848        0.1845768901        6.4998659136
  O        -1.6130876826        0.0587707612        2.8415938704
  O        -0.8128726329        2.3812367121        3.3685094865
  O         1.9381322012        2.4976303644        4.4394464587
  O         2.9418524127        0.8157160873        2.8725111637
  N         0.6643525385        0.2919447490        3.7904004574
  C        -1.5908159666        0.8295595277        5.3508516347
  C         2.8114592097        0.1661941969        5.4154270045
  N         0.0585714202        0.7455558924        0.1812062335
  N         0.4887022294        2.8226730034        0.6872788407
  C         0.1054333120       -0.7325344474        0.1844201998
  C         1.5287059491       -1.2929592585        0.1485425179
  C         1.5318416401       -2.8322728947        0.1902757224
  C         0.9781772933        1.5700728615        0.7135969400
  C        -1.0502718258        1.4915571119       -0.1770705513
  C        -0.7826570513        2.7946974306        0.1417949290
  C         0.8624092997       -3.4988830892       -1.0212196553
  C         1.1084467351        3.9711705436        1.3557349408
  H        -0.4732062002       -1.0552823550       -0.6909175775
  H        -0.4249527150       -1.0497185501        1.0953887641
  H         2.0388309922       -0.9425825218       -0.7612261835
  H         2.0940495942       -0.9172841184        1.0149198597
  H         1.0487121369       -3.1674425393        1.1196924492
  H         2.5775142767       -3.1649452533        0.2653373761
  H         1.9178630087        1.2769082462        1.1741984437
  H        -1.9289218169        1.0268969793       -0.6006546003
  H        -1.3824990435        3.6885605746        0.0473743434
  H         0.9985035263       -4.5890788345       -1.0008630805
  H        -0.2215821818       -3.3139725514       -1.0478947385
  H         1.2834784003       -3.1316976569       -1.9692718217
  H         0.9706534112        4.8653849026        0.7384594161
  H         2.1758900025        3.7702073503        1.4890459306
  H         0.6406257800        4.0907874371        2.3425505140
      40
 i =       19, E =      -325.5834898317
  S        -0.7946371422        0.9493098114        3.6623638138
  S         2.0381030467        1.1147322252        3.9957880351
  F        -0.8076474415        1.3732986420        6.3135830280
  F        -2.7660040451        1.5082138938        5.3124643819
  F        -1.8667224319       -0.4514244795        5.6887250252
  F         3.0589915969       -1.1214920351        5.0654362834
  F         3.9943196839        0.7497751919        5.7476755031
  F         2.0009200315        0.1845694567        6.4998196900
  O        -1.6138133117        0.0563496153        2.8480874963
  O        -0.8126636276        2.3801410972        3.3689511271
  O         1.9385138937        2.4979558525        4.4400182734
  O         2.9412242267        0.8153211174        2.8736318506
  N         0.6641406906        0.2918668313        3.7949388125
  C        -1.5914169138        0.8308939161        5.3522959766
  C         2.8118690088        0.1663026989        5.4159781730
  N         0.0547174231        0.7448061824        0.1882314658
  N         0.4903950905        2.8201776788        0.6923915435
  C         0.1006475237       -0.7327833181        0.1829911866
  C         1.5235827466       -1.2927794295        0.1619506093
  C         1.5277906092       -2.8315411956        0.2009973831
  C         0.9763452600        1.5664230901        0.7210074103
  C        -1.0509485370        1.4935986833       -0.1728190374
  C        -0.7799426012        2.7956996079        0.1451486408
  C         0.8701524308       -3.4941513383       -1.0181824281
  C         1.1129014556        3.9692971591        1.3580165418
  H        -0.4660530260       -1.0490365745       -0.7023563224
  H        -0.4426018346       -1.0559041889        1.0832846991
  H         2.0421867659       -0.9390515403       -0.7408479373
  H         2.0783152269       -0.9167956783        1.0342300041
  H         1.0367106897       -3.1674805758        1.1239560377
  H         2.5712319409       -3.1633165719        0.2849707496
  H         1.9143860009        1.2714291145        1.1839874739
  H        -1.9289568198        1.0310855002       -0.5998215107
  H        -1.3771328823        3.6906748358        0.0477079547
  H         0.9942756100       -4.5855580779       -0.9932906950
  H        -0.2106655833       -3.2976104038       -1.0598087941
  H         1.3075325656       -3.1322118446       -1.9602967916
  H         0.9680942427        4.8630170523        0.7422256795
  H         2.1818786511        3.7720107164        1.4825089530
  H         0.6526373265        4.0871191807        2.3481242480
      40
 i =       20, E =      -325.5835331200
  S        -0.7941517922        0.9493112399        3.6618422353
  S         2.0381627864        1.1142631169        3.9957973430
  F        -0.8091460871        1.3754839154        6.3132512538
  F        -2.7655228540        1.5082974078        5.3132179980
  F        -1.8675017110       -0.4520788725        5.6885831236
  F         3.0584823909       -1.1218014710        5.0651849124
  F         3.9940707286        0.7498727261        5.7480322259
  F         2.0013144199        0.1852989810        6.4997865008
  O        -1.6134491262        0.0559822676        2.8481369928
  O        -0.8124023396        2.3801497412        3.3685982555
  O         1.9387288457        2.4975697572        4.4401610328
  O         2.9415489082        0.8148859363        2.8738497926
  N         0.6645241949        0.2915721842        3.7956374657
  C        -1.5914272293        0.8300551953        5.3521399454
  C         2.8119909619        0.1661689477        5.4157374755
  N         0.0532558704        0.7463711296        0.1890771242
  N         0.4920118247        2.8202616257        0.6931269904
  C         0.0998957258       -0.7311519440        0.1798965243
  C         1.5206595616       -1.2932249106        0.1725960721
  C         1.5210673193       -2.8321302628        0.2109988900
  C         0.9774130081        1.5661184533        0.7200867395
  C        -1.0520621565        1.4968860892       -0.1709122386
  C        -0.7786692551        2.7976752455        0.1472669504
  C         0.8753238811       -3.4919675418       -1.0168625438
  C         1.1157608376        3.9692056684        1.3585640209
  H        -0.4586238074       -1.0452488534       -0.7103981775
  H        -0.4520483520       -1.0570643829        1.0733796917
  H         2.0508222521       -0.9371419392       -0.7230073051
  H         2.0660365727       -0.9182307691        1.0513609981
  H         1.0173626897       -3.1659010504        1.1288505616
  H         2.5632037879       -3.1658605966        0.3066785260
  H         1.9150327572        1.2698172418        1.1839873275
  H        -1.9315167814        1.0375066437       -0.5989790577
  H        -1.3766581310        3.6924736613        0.0520191427
  H         0.9960471977       -4.5837578212       -0.9882823387
  H        -0.2038668033       -3.2929181400       -1.0738390366
  H         1.3275131214       -3.1330504663       -1.9528812673
  H         0.9640516104        4.8637712112        0.7460537486
  H         2.1863352809        3.7756031268        1.4763032665
  H         0.6606498285        4.0821749456        2.3510372195
      40
 i =       21, E =      -325.5835564312
  S        -0.7937626859        0.9486066296        3.6608718680
  S         2.0384396883        1.1132677910        3.9957330177
  F        -0.8095148402        1.3759104413        6.3137085749
  F        -2.7656227687        1.5082372478        5.3140067394
  F        -1.8675981105       -0.4525983776        5.6883246143
  F         3.0590340404       -1.1224457674        5.0650499399
  F         3.9934463798        0.7505410720        5.7483717790
  F         2.0016874071        0.1857237639        6.4996247701
  O        -1.6121070995        0.0554525027        2.8460380214
  O        -0.8111845455        2.3793346140        3.3673415657
  O         1.9389939559        2.4969550743        4.4397885488
  O         2.9418745094        0.8144438237        2.8737564461
  N         0.6655166488        0.2913296745        3.7948437472
  C        -1.5917805054        0.8295998337        5.3523970200
  C         2.8122585791        0.1656496771        5.4153905239
  N         0.0517031733        0.7514647850        0.1871011627
  N         0.4970457653        2.8244250142        0.6940789564
  C         0.0946880484       -0.7267663422        0.1684929761
  C         1.5126097036       -1.2924815959        0.2068569332
  C         1.4972922798       -2.8322378395        0.2449056114
  C         0.9804075950        1.5687377339        0.7139968303
  C        -1.0536072299        1.5068998189       -0.1667060249
  C        -0.7760632881        2.8048881670        0.1547709256
  C         0.8946081241       -3.4875632650       -1.0113966232
  C         1.1240583605        3.9719214152        1.3600219713
  H        -0.4354895291       -1.0324087344       -0.7424762338
  H        -0.4849569397       -1.0570830851        1.0436926120
  H         2.0796766882       -0.9398257098       -0.6703987446
  H         2.0314143086       -0.9255033581        1.1067107741
  H         0.9532445330       -3.1643141942        1.1446753633
  H         2.5344571468       -3.1784338301        0.3805363547
  H         1.9182770427        1.2695254159        1.1771412551
  H        -1.9381278888        1.0548770554       -0.5935450835
  H        -1.3762264035        3.6995009849        0.0674236591
  H         1.0032388144       -4.5808629835       -0.9767987409
  H        -0.1813367722       -3.2797725011       -1.1191980956
  H         1.3920522044       -3.1342280481       -1.9285831786
  H         0.9502752254        4.8705686400        0.7588774185
  H         2.1996698178        3.7874259804        1.4544721531
  H         0.6856558497        4.0681473960        2.3617411151
      40
 i =       22, E =      -325.5835564621
  S        -0.7939472008        0.9481307631        3.6593659059
  S         2.0385352403        1.1120574686        3.9956780198
  F        -0.8111118032        1.3788307089        6.3131014425
  F        -2.7648297290        1.5082558760        5.3162039732
  F        -1.8685782717       -0.4534549666        5.6878379617
  F         3.0599843649       -1.1227690619        5.0651381522
  F         3.9930580610        0.7506763313        5.7485315136
  F         2.0019312410        0.1856769121        6.4997602121
  O        -1.6112232842        0.0556698057        2.8427839306
  O        -0.8106294812        2.3788328976        3.3666099853
  O         1.9389153657        2.4960308905        4.4395934993
  O         2.9424249079        0.8141056877        2.8737220724
  N         0.6665333916        0.2908340019        3.7920197608
  C        -1.5917830970        0.8284130758        5.3523247848
  C         2.8123392957        0.1651973047        5.4152445733
  N         0.0457551476        0.7476963574        0.1929467909
  N         0.4956849010        2.8223999430        0.6944803216
  C         0.0947334542       -0.7308976501        0.1756580479
  C         1.5118173055       -1.2868806385        0.2037470851
  C         1.5027991187       -2.8270385407        0.2349776768
  C         0.9739608865        1.5649660917        0.7201793208
  C        -1.0562711124        1.5064595874       -0.1678375203
  C        -0.7756066504        2.8041638577        0.1513994066
  C         0.8892599983       -3.4868341510       -1.0094163926
  C         1.1255725202        3.9677398187        1.3614817264
  H        -0.4391883076       -1.0404076121       -0.7276515273
  H        -0.4718442276       -1.0635954645        1.0546698452
  H         2.0729255388       -0.9300944143       -0.6727725905
  H         2.0326740559       -0.9220492694        1.1013307471
  H         0.9803960212       -3.1660533604        1.1393758319
  H         2.5396177142       -3.1694524491        0.3489401256
  H         1.9083679627        1.2639447812        1.1905689976
  H        -1.9430059356        1.0608625157       -0.5976072365
  H        -1.3741319127        3.6995666949        0.0594225141
  H         0.9974067167       -4.5800092605       -0.9749777710
  H        -0.1827344622       -3.2802570269       -1.1111556585
  H         1.3776581777       -3.1368799197       -1.9264996579
  H         0.9601942646        4.8655693515        0.7599145095
  H         2.1981070433        3.7768760635        1.4625515887
  H         0.6833513940        4.0664319240        2.3594879672
      40
 i =       23, E =      -325.5836278671
  S        -0.7938552510        0.9480236084        3.6604473427
  S         2.0382860272        1.1129599829        3.9958274099
  F        -0.8093213531        1.3769768986        6.3124028950
  F        -2.7650365304        1.5081860943        5.3145077051
  F        -1.8676998362       -0.4525365417        5.6889798100
  F         3.0589800951       -1.1222157921        5.0648747606
  F         3.9938345153        0.7493162325        5.7483165130
  F         2.0015424021        0.1853345283        6.4998752989
  O        -1.6121967019        0.0549754403        2.8457625918
  O        -0.8116661469        2.3787970101        3.3676343620
  O         1.9386921255        2.4966850593        4.4399792618
  O         2.9421752117        0.8144588742        2.8739523217
  N         0.6661076920        0.2907284577        3.7941491321
  C        -1.5915043379        0.8291494316        5.3520329246
  C         2.8120237408        0.1657132801        5.4154768168
  N         0.0456844336        0.7505895725        0.1921625400
  N         0.4964938911        2.8229475063        0.6961027285
  C         0.0925473207       -0.7276130098        0.1718584520
  C         1.5095027678       -1.2914127232        0.2147518815
  C         1.4981034814       -2.8311155802        0.2443959732
  C         0.9745489370        1.5656093735        0.7219451737
  C        -1.0568036377        1.5085336918       -0.1659502997
  C        -0.7753334533        2.8066856502        0.1535892445
  C         0.8953628297       -3.4852670587       -1.0085753903
  C         1.1272708845        3.9677079285        1.3623856143
  H        -0.4327160807       -1.0345323370       -0.7402074186
  H        -0.4884943426       -1.0624103066        1.0436781421
  H         2.0766823382       -0.9346502733       -0.6580015440
  H         2.0227630725       -0.9235740095        1.1160127199
  H         0.9624146872       -3.1660769183        1.1436889433
  H         2.5343033576       -3.1723351739        0.3736635711
  H         1.9100920759        1.2642467524        1.1885368013
  H        -1.9417213250        1.0595519709       -0.5945131687
  H        -1.3716714432        3.7033437384        0.0628859905
  H         0.9988652492       -4.5789494122       -0.9716580998
  H        -0.1760499326       -3.2706850275       -1.1210355942
  H         1.3992123117       -3.1359792414       -1.9210564616
  H         0.9559945424        4.8675981654        0.7640182754
  H         2.2017416814        3.7806651281        1.4547921546
  H         0.6920806647        4.0655956838        2.3647889207
      40
 i =       24, E =      -325.5836561981
  S        -0.7937634563        0.9479143884        3.6597228889
  S         2.0382123367        1.1131551598        3.9956583834
  F        -0.8095509670        1.3754355278        6.3129928432
  F        -2.7648034120        1.5083593564        5.3128950138
  F        -1.8673078791       -0.4525473237        5.6882427202
  F         3.0593943109       -1.1221726471        5.0656072064
  F         3.9937221143        0.7500282383        5.7478124675
  F         2.0014202859        0.1854111348        6.4998311582
  O        -1.6117830386        0.0552632192        2.8441810297
  O        -0.8119959585        2.3788804770        3.3678866553
  O         1.9385170276        2.4967889816        4.4400544386
  O         2.9422713621        0.8147133828        2.8739177180
  N         0.6661684808        0.2906583760        3.7938864885
  C        -1.5913744035        0.8292349141        5.3515002974
  C         2.8120103909        0.1658570780        5.4154789109
  N         0.0445620011        0.7532488041        0.1906342168
  N         0.4979231982        2.8244979708        0.6974270015
  C         0.0889468842       -0.7248708302        0.1673613079
  C         1.5051036187       -1.2913421063        0.2312482846
  C         1.4883862399       -2.8310701662        0.2590111684
  C         0.9747403070        1.5666455975        0.7206477073
  C        -1.0577403185        1.5128226008       -0.1644140806
  C        -0.7745557960        2.8106144594        0.1563719561
  C         0.9053667890       -3.4824908749       -1.0059888371
  C         1.1310907371        3.9674145626        1.3637636150
  H        -0.4227947572       -1.0300605715       -0.7539075380
  H        -0.5048273308       -1.0601933732        1.0311825317
  H         2.0880485962       -0.9348414384       -0.6321280867
  H         2.0055664409       -0.9277213585        1.1423079535
  H         0.9344439601       -3.1658099626        1.1492255853
  H         2.5221146893       -3.1765307107        0.4061363398
  H         1.9104695548        1.2632971445        1.1851120115
  H        -1.9438689204        1.0650180463       -0.5913411410
  H        -1.3690581213        3.7087842440        0.0686433908
  H         1.0020041199       -4.5767670385       -0.9656010866
  H        -0.1637908722       -3.2630380163       -1.1387934577
  H         1.4273489167       -3.1380448055       -1.9107939912
  H         0.9510451759        4.8699444731        0.7710574222
  H         2.2073405451        3.7836939085        1.4449863855
  H         0.7041467673        4.0594756827        2.3709144029
      40
 i =       25, E =      -325.5836932690
  S        -0.7939312841        0.9478966309        3.6581658292
  S         2.0381392100        1.1131712323        3.9950213247
  F        -0.8081595309        1.3742213041        6.3119100972
  F        -2.7646527321        1.5079679399        5.3129637343
  F        -1.8670521261       -0.4526679879        5.6884726317
  F         3.0591461086       -1.1217638319        5.0648905567
  F         3.9938599139        0.7494446026        5.7481913710
  F         2.0011792350        0.1848709057        6.4999062099
  O        -1.6106017566        0.0565638372        2.8395282895
  O        -0.8119987962        2.3791367976        3.3678444953
  O         1.9380209497        2.4965983632        4.4399860878
  O         2.9427154006        0.8152262455        2.8735984772
  N         0.6663089704        0.2905224589        3.7914229183
  C        -1.5912228666        0.8289379728        5.3508786051
  C         2.8118226280        0.1660180264        5.4154937980
  N         0.0407192049        0.7571798479        0.1890591544
  N         0.4996234700        2.8268644352        0.6990648522
  C         0.0835592560       -0.7210460180        0.1630452218
  C         1.4978579828       -1.2910254721        0.2561992718
  C         1.4754433918       -2.8309471150        0.2777158212
  C         0.9729344784        1.5677521987        0.7197840995
  C        -1.0604673579        1.5197397946       -0.1633068031
  C        -0.7737587396        2.8168806559        0.1597264717
  C         0.9189137363       -3.4787944600       -1.0016653942
  C         1.1371438811        3.9658180562        1.3668230263
  H        -0.4091986785       -1.0253384637       -0.7694474176
  H        -0.5268536319       -1.0566898786        1.0156557119
  H         2.1021723355       -0.9337475531       -0.5926044057
  H         1.9795201433       -0.9334288985        1.1803382888
  H         0.9010856889       -3.1671337460        1.1555195124
  H         2.5055512756       -3.1802920638        0.4465414633
  H         1.9081981109        1.2613608689        1.1823914598
  H        -1.9488584039        1.0741475342       -0.5874878259
  H        -1.3646391868        3.7176737867        0.0741486138
  H         1.0056905766       -4.5737204983       -0.9562165734
  H        -0.1453377636       -3.2514265142       -1.1620685482
  H         1.4667265321       -3.1411863563       -1.8941459045
  H         0.9476773141        4.8726837838        0.7830924954
  H         2.2148844305        3.7837854532        1.4324252663
  H         0.7221147588        4.0497170974        2.3803785413
      40
 i =       26, E =      -325.5837392086
  S        -0.7942603754        0.9481638042        3.6541676528
  S         2.0380485433        1.1136642612        3.9938715148
  F        -0.8082983958        1.3727548115        6.3114605664
  F        -2.7640122212        1.5078081521        5.3110840455
  F        -1.8660181598       -0.4530539373        5.6874666917
  F         3.0599453650       -1.1222545316        5.0665249112
  F         3.9934940956        0.7503046368        5.7469052991
  F         2.0008611058        0.1851612534        6.4994989318
  O        -1.6091614004        0.0600362110        2.8294300868
  O        -0.8124982814        2.3802818816        3.3684996426
  O         1.9371557121        2.4967038368        4.4397203808
  O         2.9434627947        0.8160901887        2.8731758152
  N         0.6664506131        0.2904527437        3.7858768632
  C        -1.5908107315        0.8285824869        5.3491665031
  C         2.8116079591        0.1657544528        5.4151043372
  N         0.0354602746        0.7613236353        0.1859437594
  N         0.4992513809        2.8294272112        0.7001425643
  C         0.0777730805       -0.7172837294        0.1627085372
  C         1.4897133465       -1.2901162275        0.2794143571
  C         1.4658842389       -2.8303682817        0.2913188231
  C         0.9687746153        1.5691939495        0.7185140352
  C        -1.0645861935        1.5268183118       -0.1639098347
  C        -0.7742164892        2.8240890386        0.1602045571
  C         0.9310518073       -3.4758026622       -0.9966883895
  C         1.1431644887        3.9618915085        1.3711886091
  H        -0.3994067958       -1.0247380828       -0.7759364937
  H        -0.5440492344       -1.0493290326        1.0073440830
  H         2.1116013012       -0.9299605561       -0.5538699016
  H         1.9538315143       -0.9400305158        1.2146889308
  H         0.8791380687       -3.1712388760        1.1577910756
  H         2.4924684367       -3.1805840405        0.4738293521
  H         1.9030511626        1.2593695111        1.1792414625
  H        -1.9552342129        1.0829060628       -0.5846668094
  H        -1.3597456271        3.7285480519        0.0751004386
  H         1.0094314147       -4.5709049549       -0.9473345998
  H        -0.1267872026       -3.2423507824       -1.1778444916
  H         1.4975512608       -3.1454160264       -1.8778715714
  H         0.9507312998        4.8744143310        0.7975426089
  H         2.2203886077        3.7767766996        1.4241805091
  H         0.7382822112        4.0391227586        2.3896501050
      40
 i =       27, E =      -325.5837655952
  S        -0.7940996009        0.9484994199        3.6533515802
  S         2.0381607692        1.1135137473        3.9938007507
  F        -0.8091616192        1.3745959629        6.3105705475
  F        -2.7637594203        1.5075309463        5.3124651660
  F        -1.8668629825       -0.4537930051        5.6871660732
  F         3.0593102165       -1.1217144141        5.0650569536
  F         3.9935704158        0.7497175522        5.7477453844
  F         2.0011600317        0.1847457943        6.4999119862
  O        -1.6090935043        0.0609030320        2.8279426159
  O        -0.8123139809        2.3807927447        3.3686469678
  O         1.9371301143        2.4963745546        4.4400870755
  O         2.9439543973        0.8162397198        2.8733634514
  N         0.6665158581        0.2902123286        3.7850980261
  C        -1.5908110511        0.8277602951        5.3488750534
  C         2.8115212258        0.1659215395        5.4152918245
  N         0.0292304239        0.7645326232        0.1891203262
  N         0.5010598103        2.8304801026        0.7037911023
  C         0.0693492534       -0.7145009285        0.1603900949
  C         1.4785602899       -1.2897118197        0.3098605132
  C         1.4531664585       -2.8301007713        0.3134210986
  C         0.9654339503        1.5684571941        0.7217533015
  C        -1.0678287473        1.5344869628       -0.1611801814
  C        -0.7725296287        2.8302903547        0.1641871862
  C         0.9477514946       -3.4703691376       -0.9896505253
  C         1.1522323418        3.9584208415        1.3763172629
  H        -0.3858622632       -1.0172045891       -0.7918466824
  H        -0.5741032284       -1.0484214235        0.9891248095
  H         2.1224942277       -0.9257179938       -0.5056323323
  H         1.9191529011       -0.9447635036        1.2592142504
  H         0.8486837804       -3.1754747609        1.1647587275
  H         2.4751102286       -3.1808548321        0.5163011603
  H         1.8982453212        1.2547597570        1.1827645745
  H        -1.9608745403        1.0950862051       -0.5821941423
  H        -1.3537881797        3.7373603406        0.0770547951
  H         1.0099910697       -4.5668454034       -0.9352014146
  H        -0.1030515596       -3.2222078653       -1.2030848417
  H         1.5455502442       -3.1474182726       -1.8556579518
  H         0.9504671625        4.8751924032        0.8127730516
  H         2.2306002827        3.7743057511        1.4121737116
  H         0.7615511834        4.0267828871        2.4011205690
      40
 i =       28, E =      -325.5837861639
  S        -0.7939233323        0.9496077232        3.6534443747
  S         2.0384998673        1.1133722954        3.9937981889
  F        -0.8082830738        1.3755939156        6.3091304062
  F        -2.7646205128        1.5070641080        5.3146813336
  F        -1.8678447172       -0.4541256121        5.6878411522
  F         3.0582961254       -1.1211901175        5.0630511393
  F         3.9937097721        0.7486755722        5.7493102922
  F         2.0011926395        0.1843452057        6.5000422440
  O        -1.6092676085        0.0620936895        2.8280056923
  O        -0.8117194026        2.3818498904        3.3684256455
  O         1.9374327659        2.4961053853        4.4402692336
  O         2.9441167678        0.8161528346        2.8733648601
  N         0.6660762403        0.2906512385        3.7849874589
  C        -1.5914914884        0.8274183818        5.3490781326
  C         2.8114973551        0.1660506331        5.4155138986
  N         0.0283716924        0.7639155969        0.1901170386
  N         0.5013635943        2.8295135372        0.7037488064
  C         0.0677018249       -0.7151378043        0.1633739035
  C         1.4754390351       -1.2888274667        0.3099511815
  C         1.4555186009       -2.8291297801        0.3112498052
  C         0.9652223846        1.5674307213        0.7214801480
  C        -1.0676380989        1.5345851870       -0.1618310288
  C        -0.7718953673        2.8296259003        0.1636440297
  C         0.9484105907       -3.4699018946       -0.9889103513
  C         1.1532945611        3.9567644935        1.3777769494
  H        -0.3904069471       -1.0180974161       -0.7850730094
  H        -0.5730415384       -1.0461280670        0.9927581287
  H         2.1171542454       -0.9208146168       -0.5034040448
  H         1.9149235358       -0.9443518268        1.2580638977
  H         0.8537078556       -3.1769980697        1.1617047495
  H         2.4776103069       -3.1772331335        0.5119831065
  H         1.8981654495        1.2537877339        1.1827310135
  H        -1.9606800647        1.0959392630       -0.5843970470
  H        -1.3537168184        3.7360343058        0.0734750654
  H         1.0100500738       -4.5661260203       -0.9351853674
  H        -0.1007481758       -3.2224170701       -1.1975101871
  H         1.5408950572       -3.1476003234       -1.8554441219
  H         0.9549209124        4.8733047886        0.8142719507
  H         2.2304461821        3.7702137453        1.4164326765
  H         0.7608732633        4.0243260101        2.4006028158
      40
 i =       29, E =      -325.5838139539
  S        -0.7939809227        0.9497815413        3.6536600345
  S         2.0386561128        1.1137976756        3.9945125553
  F        -0.8088095471        1.3760218007        6.3099067220
  F        -2.7651013221        1.5072118119        5.3142252186
  F        -1.8673878256       -0.4540346977        5.6881717194
  F         3.0591526379       -1.1226584115        5.0659223231
  F         3.9933661031        0.7499640855        5.7477730833
  F         2.0010669666        0.1857866574        6.4992837329
  O        -1.6095070800        0.0624026812        2.8280877038
  O        -0.8111546748        2.3819993064        3.3684135008
  O         1.9376530728        2.4968149161        4.4401254039
  O         2.9437033638        0.8159756309        2.8739349734
  N         0.6659607886        0.2912943147        3.7852167334
  C        -1.5918604278        0.8277599834        5.3494594223
  C         2.8117869355        0.1654126085        5.4152578495
  N         0.0267974851        0.7658327348        0.1899540573
  N         0.5036888398        2.8299844906        0.7044702654
  C         0.0636388945       -0.7131520253        0.1616287656
  C         1.4686196297       -1.2894847959        0.3250394433
  C         1.4483343558       -2.8297000094        0.3226230989
  C         0.9658421289        1.5671886537        0.7202749813
  C        -1.0684762492        1.5385522053       -0.1600395507
  C        -0.7700009858        2.8323966166        0.1655391874
  C         0.9570825638       -3.4675847717       -0.9860831860
  C         1.1575743496        3.9558341088        1.3798487163
  H        -0.3849627176       -1.0132101360       -0.7924251563
  H        -0.5878071290       -1.0437208499        0.9830429887
  H         2.1213720717       -0.9186872926       -0.4790826670
  H         1.8955970287       -0.9464186368        1.2795515136
  H         0.8332077146       -3.1779570206        1.1647975068
  H         2.4684961845       -3.1782885932        0.5390768142
  H         1.8995001459        1.2527829987        1.1799602362
  H        -1.9619410659        1.1017634073       -0.5838948873
  H        -1.3524263559        3.7385241317        0.0762289104
  H         1.0131597725       -4.5638571849       -0.9310221286
  H        -0.0883463636       -3.2151869697       -1.2090491491
  H         1.5640221512       -3.1477941118       -1.8447130402
  H         0.9540277145        4.8745716790        0.8216980520
  H         2.2355865581        3.7710692790        1.4112614323
  H         0.7712209233        4.0171867883        2.4053165048
      40
 i =       30, E =      -325.5838346363
  S        -0.7940516104        0.9499452534        3.6532760522
  S         2.0387448958        1.1141027273        3.9943220631
  F        -0.8105506591        1.3752127163        6.3120405991
  F        -2.7652202130        1.5078219908        5.3118648003
  F        -1.8667272352       -0.4536102456        5.6869231126
  F         3.0591487594       -1.1221390925        5.0651231708
  F         3.9932115446        0.7501784253        5.7474944836
  F         2.0015769287        0.1851255651        6.4998807995
  O        -1.6103449764        0.0626215512        2.8282480036
  O        -0.8116397265        2.3823794207        3.3688411186
  O         1.9379975806        2.4969177079        4.4404920331
  O         2.9438824806        0.8159699139        2.8740753621
  N         0.6655723750        0.2916217073        3.7858666914
  C        -1.5919608678        0.8285425445        5.3491850658
  C         2.8114767218        0.1657054630        5.4153225810
  N         0.0251178394        0.7685314896        0.1897555578
  N         0.5064227435        2.8316455810        0.7044046063
  C         0.0567868050       -0.7105625157        0.1597254346
  C         1.4584162338       -1.2902285630        0.3453397938
  C         1.4382129444       -2.8304046037        0.3394570991
  C         0.9666941439        1.5679109021        0.7182816366
  C        -1.0690892485        1.5436601859       -0.1582543193
  C        -0.7681057581        2.8366352580        0.1672263668
  C         0.9700062456       -3.4644126936       -0.9808926554
  C         1.1638093504        3.9542229847        1.3829291411
  H        -0.3781105803       -1.0072503154       -0.8025829502
  H        -0.6091959827       -1.0395691365        0.9708419120
  H         2.1255061049       -0.9171478514       -0.4465896818
  H         1.8682666928       -0.9500873093        1.3088319970
  H         0.8066802923       -3.1810197911        1.1696338781
  H         2.4549880952       -3.1797112572        0.5745039235
  H         1.9013496348        1.2519343307        1.1748977522
  H        -1.9631463353        1.1090832627       -0.5830131919
  H        -1.3505553821        3.7430574453        0.0801198928
  H         1.0182946783       -4.5608941666       -0.9269512253
  H        -0.0702942917       -3.2056798295       -1.2241205390
  H         1.5951769635       -3.1470297054       -1.8283608161
  H         0.9541411211        4.8770383953        0.8331993021
  H         2.2428248734        3.7716284430        1.4049262775
  H         0.7851992990        4.0076169988        2.4119168104
      40
 i =       31, E =      -325.5838559399
  S        -0.7941594957        0.9502330268        3.6539918579
  S         2.0386478426        1.1143370764        3.9944578329
  F        -0.8095376878        1.3746771328        6.3114840366
  F        -2.7653767372        1.5080719218        5.3122676937
  F        -1.8671143850       -0.4531388849        5.6871674175
  F         3.0594125315       -1.1221494087        5.0660625011
  F         3.9932640803        0.7504199801        5.7474127534
  F         2.0010469052        0.1856750103        6.4994606669
  O        -1.6109308057        0.0622634842        2.8302236943
  O        -0.8119016424        2.3825235882        3.3685401042
  O         1.9380419730        2.4971237424        4.4407008259
  O         2.9436158772        0.8159756303        2.8742506842
  N         0.6652265743        0.2919287926        3.7867127138
  C        -1.5921516219        0.8288059422        5.3492546832
  C         2.8114695388        0.1659357817        5.4153777642
  N         0.0245184247        0.7697029086        0.1900602484
  N         0.5088651327        2.8329937528        0.7030742489
  C         0.0517283801       -0.7095555319        0.1596139821
  C         1.4510455623       -1.2909162300        0.3554677358
  C         1.4327788556       -2.8311347582        0.3483792179
  C         0.9677022052        1.5684186398        0.7170009517
  C        -1.0686842264        1.5459814631       -0.1580834847
  C        -0.7666181123        2.8386307236        0.1675966219
  C         0.9769268355       -3.4628104117       -0.9771896152
  C         1.1675182259        3.9533271738        1.3848918496
  H        -0.3769194366       -1.0047418611       -0.8061202381
  H        -0.6209435258       -1.0369914500        0.9659937396
  H         2.1236548640       -0.9168051446       -0.4307143396
  H         1.8522096130       -0.9514310694        1.3224009141
  H         0.7955885851       -3.1839641532        1.1721788059
  H         2.4475294851       -3.1791466044        0.5908855322
  H         1.9033517641        1.2518108242        1.1710615801
  H        -1.9628081405        1.1121925692       -0.5833205846
  H        -1.3494429174        3.7450027198        0.0820152636
  H         1.0226518132       -4.5594914022       -0.9266288207
  H        -0.0603619588       -3.2014044756       -1.2294103098
  H         1.6100076498       -3.1441464041       -1.8180414908
  H         0.9563262107        4.8785893645        0.8399259725
  H         2.2467583590        3.7712511593        1.4038832458
  H         0.7912338237        4.0022198584        2.4149077139
      40
 i =       32, E =      -325.5838839816
  S        -0.7946885525        0.9502941852        3.6547427128
  S         2.0385752566        1.1144948221        3.9945969752
  F        -0.8086310907        1.3748618190        6.3111744881
  F        -2.7654699218        1.5080107692        5.3131360210
  F        -1.8673247316       -0.4523115822        5.6880312899
  F         3.0590913019       -1.1218733307        5.0651927260
  F         3.9934013333        0.7498418753        5.7477052805
  F         2.0012423523        0.1850231156        6.4999611895
  O        -1.6108893501        0.0621409617        2.8306359052
  O        -0.8117646473        2.3822940007        3.3675303674
  O         1.9379122144        2.4974218236        4.4405776441
  O         2.9428686767        0.8162795993        2.8740284866
  N         0.6647958515        0.2926817727        3.7871704334
  C        -1.5920836536        0.8292230722        5.3495959063
  C         2.8112733719        0.1660396835        5.4155886210
  N         0.0228668760        0.7726921627        0.1873618304
  N         0.5146550837        2.8351790294        0.7005651271
  C         0.0423864486       -0.7067392855        0.1584995202
  C         1.4358234094       -1.2915864792        0.3787418015
  C         1.4189963216       -2.8319385587        0.3661270800
  C         0.9701072520        1.5688132026        0.7120383431
  C        -1.0686729334        1.5523634611       -0.1579855197
  C        -0.7625846176        2.8441109985        0.1683358118
  C         0.9907829498       -3.4598323983       -0.9701554144
  C         1.1747598473        3.9511792690        1.3883667998
  H        -0.3731449804       -1.0014134271       -0.8125901952
  H        -0.6425232398       -1.0298207966        0.9559917169
  H         2.1233895446       -0.9153589797       -0.3938809806
  H         1.8178092425       -0.9540006151        1.3540633000
  H         0.7664481959       -3.1880665289        1.1762256242
  H         2.4294699422       -3.1783135965        0.6283361291
  H         1.9077262344        1.2511808356        1.1609935914
  H        -1.9635924740        1.1202408675       -0.5829823204
  H        -1.3458460405        3.7507269330        0.0880247473
  H         1.0350922733       -4.5567449985       -0.9237869457
  H        -0.0400185640       -3.1958212657       -1.2426452582
  H         1.6417001098       -3.1381911897       -1.7956614410
  H         0.9598999152        4.8815187267        0.8538707495
  H         2.2543695436        3.7705631962        1.4009476483
  H         0.8032385845        3.9893481945        2.4207510483
      40
 i =       33, E =      -325.5839013019
  S        -0.7944382235        0.9498070771        3.6552123674
  S         2.0382575789        1.1145317382        3.9946081458
  F        -0.8089858297        1.3752810362        6.3108702004
  F        -2.7650554424        1.5082322206        5.3132467466
  F        -1.8671844939       -0.4521831915        5.6874629568
  F         3.0590566933       -1.1217002166        5.0650087172
  F         3.9935748887        0.7494988399        5.7482083473
  F         2.0008387608        0.1851563658        6.4995089151
  O        -1.6112809331        0.0609406332        2.8328910879
  O        -0.8121640717        2.3816892198        3.3675349648
  O         1.9378039554        2.4974990124        4.4408231353
  O         2.9426410495        0.8162603806        2.8741193231
  N         0.6650328230        0.2922732720        3.7887901301
  C        -1.5917949540        0.8292716788        5.3493711480
  C         2.8113801192        0.1662467803        5.4154302917
  N         0.0222068432        0.7738071164        0.1859614889
  N         0.5177492470        2.8356863458        0.6991110668
  C         0.0384914894       -0.7057694187        0.1582420956
  C         1.4285446434       -1.2917563440        0.3884168743
  C         1.4119251497       -2.8319911423        0.3739957396
  C         0.9714947413        1.5686198504        0.7097225474
  C        -1.0681492750        1.5552765227       -0.1583778471
  C        -0.7602925699        2.8466249175        0.1688057757
  C         0.9964679217       -3.4577375564       -0.9662205358
  C         1.1779692441        3.9494113380        1.3898322810
  H        -0.3718034947       -1.0015229816       -0.8145770462
  H        -0.6513540325       -1.0265306689        0.9524176523
  H         2.1213195392       -0.9163071905       -0.3791565703
  H         1.8028516992       -0.9539421760        1.3662893712
  H         0.7538142431       -3.1902262365        1.1779608291
  H         2.4198985117       -3.1773492626        0.6427685456
  H         1.9092982768        1.2498701012        1.1571199838
  H        -1.9640935275        1.1241486979       -0.5820135421
  H        -1.3419021988        3.7543665932        0.0913349875
  H         1.0431882332       -4.5550282169       -0.9224234100
  H        -0.0319178143       -3.1955630817       -1.2479952361
  H         1.6540513733       -3.1323631286       -1.7839676027
  H         0.9617584829        4.8812573540        0.8589761339
  H         2.2577189879        3.7704184856        1.4011220482
  H         0.8065957188        3.9842175994        2.4222538054
      40
 i =       34, E =      -325.5839118212
  S        -0.7939165531        0.9492848104        3.6557148136
  S         2.0381031033        1.1142981694        3.9946268726
  F        -0.8083557989        1.3755553653        6.3096353922
  F        -2.7644948510        1.5080221513        5.3138896802
  F        -1.8678671740       -0.4525083381        5.6878466289
  F         3.0590927624       -1.1215663400        5.0650546131
  F         3.9936241222        0.7497931649        5.7482882924
  F         2.0009481462        0.1853221571        6.4997358043
  O        -1.6108701494        0.0596413060        2.8347915837
  O        -0.8121362270        2.3809133134        3.3670505977
  O         1.9373875872        2.4973419162        4.4410710684
  O         2.9423597697        0.8165924177        2.8738735446
  N         0.6656591829        0.2917046902        3.7907656262
  C        -1.5914651784        0.8286001632        5.3493456384
  C         2.8115338130        0.1664102068        5.4155039347
  N         0.0181542301        0.7788478707        0.1826304673
  N         0.5250205187        2.8372653221        0.6985339839
  C         0.0268758231       -0.7010833199        0.1550368937
  C         1.4082890559       -1.2918859752        0.4251590011
  C         1.3884161546       -2.8317239231        0.4030451587
  C         0.9732202441        1.5682786385        0.7048025646
  C        -1.0694053141        1.5660341734       -0.1570271266
  C        -0.7544199293        2.8555081237        0.1721463374
  C         1.0176971367       -3.4504042785       -0.9552913048
  C         1.1890917528        3.9446303244        1.3949939444
  H        -0.3599131142       -0.9977163708       -0.8285505746
  H        -0.6846487924       -1.0172360467        0.9336041982
  H         2.1265421039       -0.9162590756       -0.3209241971
  H         1.7539966368       -0.9580091282        1.4166074343
  H         0.7047929234       -3.1947142604        1.1854699284
  H         2.3885188550       -3.1784082267        0.7012495978
  H         1.9105453634        1.2442832441        1.1487513893
  H        -1.9691286372        1.1398696890       -0.5777028729
  H        -1.3304576226        3.7671063619        0.1009694988
  H         1.0625567978       -4.5484681897       -0.9127678657
  H        -0.0019537546       -3.1872391287       -1.2742685737
  H         1.7061275306       -3.1221487692       -1.7485665576
  H         0.9632911912        4.8816363076        0.8767302897
  H         2.2698208481        3.7700975131        1.3936861206
  H         0.8261231303        3.9667266550        2.4313726993
      40
 i =       35, E =      -325.5839335221
  S        -0.7939090421        0.9484148006        3.6570521246
  S         2.0382914826        1.1138087115        3.9949051682
  F        -0.8088515171        1.3755626967        6.3111759944
  F        -2.7640768694        1.5078331777        5.3133270528
  F        -1.8678982006       -0.4529742708        5.6885904326
  F         3.0591382745       -1.1216548326        5.0649026528
  F         3.9935599812        0.7504260740        5.7473858922
  F         2.0021850481        0.1847795446        6.5011090071
  O        -1.6101612666        0.0580049928        2.8366926446
  O        -0.8114102403        2.3796350551        3.3665269518
  O         1.9372766711        2.4970870456        4.4407475584
  O         2.9419927229        0.8167743336        2.8732904578
  N         0.6662472390        0.2913747496        3.7921720198
  C        -1.5910110085        0.8282927886        5.3505303579
  C         2.8116179600        0.1661662497        5.4158183218
  N         0.0193361166        0.7786163211        0.1802792478
  N         0.5261095885        2.8358168953        0.6981070535
  C         0.0286128313       -0.7013329821        0.1553075443
  C         1.4091630697       -1.2921369377        0.4191727226
  C         1.3868153917       -2.8314665984        0.3992608867
  C         0.9745300285        1.5673540777        0.7032187444
  C        -1.0689034397        1.5655444508       -0.1571731295
  C        -0.7528388943        2.8548855414        0.1716149946
  C         1.0138593830       -3.4504757645       -0.9555721015
  C         1.1872759785        3.9448745846        1.3936083805
  H        -0.3626174833       -1.0014909910       -0.8245163939
  H        -0.6779394508       -1.0157262008        0.9373949269
  H         2.1225520496       -0.9202287361       -0.3306677584
  H         1.7611819911       -0.9563706366        1.4054910825
  H         0.7078310194       -3.1927093169        1.1840290961
  H         2.3864828824       -3.1795955862        0.6942181196
  H         1.9107647905        1.2422458018        1.1483244228
  H        -1.9694272210        1.1395483556       -0.5762207311
  H        -1.3270682262        3.7675871486        0.1022386558
  H         1.0700444478       -4.5479168573       -0.9148142379
  H        -0.0075322077       -3.1965043782       -1.2684865405
  H         1.6956503616       -3.1148649543       -1.7487700594
  H         0.9636194140        4.8794678955        0.8711388638
  H         2.2674982186        3.7709009252        1.3984000149
  H         0.8187529545        3.9697459850        2.4276096259
      40
 i =       36, E =      -325.5839472464
  S        -0.7938184387        0.9480163077        3.6572521074
  S         2.0382555822        1.1141068417        3.9953934646
  F        -0.8096474493        1.3754420676        6.3124270337
  F        -2.7645570858        1.5081346417        5.3132549915
  F        -1.8666189031       -0.4531079575        5.6875479336
  F         3.0590999372       -1.1219494122        5.0651126135
  F         3.9940845733        0.7491077253        5.7488419537
  F         2.0006498102        0.1853362510        6.4991823106
  O        -1.6103914823        0.0577267807        2.8370471109
  O        -0.8111138800        2.3793254645        3.3671242223
  O         1.9377455200        2.4974534745        4.4409346837
  O         2.9419764761        0.8163899945        2.8739712008
  N         0.6663338614        0.2912112460        3.7926030666
  C        -1.5912276728        0.8289160078        5.3507792891
  C         2.8120836530        0.1660989628        5.4155281328
  N         0.0176056116        0.7790108812        0.1809336285
  N         0.5274920423        2.8351503216        0.6990713364
  C         0.0268265877       -0.7008151315        0.1547445386
  C         1.4066465226       -1.2924838583        0.4243190132
  C         1.3839168469       -2.8314677026        0.4035239123
  C         0.9737053522        1.5660876406        0.7040549224
  C        -1.0694245392        1.5677007698       -0.1564523272
  C        -0.7516699467        2.8561220227        0.1734059964
  C         1.0174501801       -3.4493396502       -0.9535923522
  C         1.1887487776        3.9444415738        1.3946227229
  H        -0.3605783939       -0.9997392557       -0.8270348096
  H        -0.6834426676       -1.0146222681        0.9335807199
  H         2.1237822011       -0.9203128788       -0.3219856606
  H         1.7550006565       -0.9574494094        1.4123235737
  H         0.6989294507       -3.1919932493        1.1844920753
  H         2.3819462918       -3.1811349783        0.7040653508
  H         1.9094680507        1.2396215204        1.1495192644
  H        -1.9708462938        1.1428222686       -0.5749025620
  H        -1.3246698456        3.7694797712        0.1023229755
  H         1.0734672422       -4.5464168425       -0.9133372020
  H        -0.0024650185       -3.1948560593       -1.2714264138
  H         1.7024073173       -3.1126194034       -1.7434058864
  H         0.9639458103        4.8788060968        0.8722620625
  H         2.2690588590        3.7703502881        1.3972730930
  H         0.8225037693        3.9687870236        2.4294695167
      40
 i =       37, E =      -325.5839636909
  S        -0.7932961317        0.9478813412        3.6577630808
  S         2.0386353823        1.1143144756        3.9958210842
  F        -0.8095841940        1.3754844197        6.3123316031
  F        -2.7650838702        1.5078545828        5.3130034294
  F        -1.8665079145       -0.4530841866        5.6876497700
  F         3.0593028370       -1.1220411903        5.0651829932
  F         3.9939128936        0.7496063524        5.7481162474
  F         2.0012091912        0.1851751664        6.4994691524
  O        -1.6106897838        0.0571315022        2.8389408794
  O        -0.8110787405        2.3792145285        3.3676860036
  O         1.9382018858        2.4975955485        4.4413146857
  O         2.9421952628        0.8161530618        2.8743780587
  N         0.6666613714        0.2909813134        3.7939078955
  C        -1.5914067116        0.8291132977        5.3508214714
  C         2.8121015465        0.1659905052        5.4155183160
  N         0.0141965038        0.7805950207        0.1823837345
  N         0.5299832627        2.8346886707        0.7014940169
  C         0.0212029202       -0.6992159978        0.1538752655
  C         1.3981562240       -1.2931899396        0.4392559693
  C         1.3748580455       -2.8317338973        0.4163925965
  C         0.9725080137        1.5644240304        0.7054880923
  C        -1.0707424194        1.5726814980       -0.1544305944
  C        -0.7488580120        2.8596946472        0.1757178138
  C         1.0273020538       -3.4459863177       -0.9479258313
  C         1.1941818064        3.9424843095        1.3974694306
  H        -0.3552102957       -0.9957309102       -0.8334210476
  H        -0.6993824883       -1.0125168536        0.9238829615
  H         2.1254935573       -0.9207621976       -0.2976306767
  H         1.7349870071       -0.9597590574        1.4325693914
  H         0.6773259982       -3.1928079937        1.1870110061
  H         2.3686225800       -3.1832114225        0.7300466330
  H         1.9071242338        1.2343444605        1.1511932808
  H        -1.9741430983        1.1512345726       -0.5723282105
  H        -1.3188728166        3.7749559424        0.1035554548
  H         1.0820898393       -4.5429002009       -0.9100580360
  H         0.0116474836       -3.1898892327       -1.2801630839
  H         1.7236365351       -3.1065234841       -1.7274949091
  H         0.9658844060        4.8777773784        0.8779356200
  H         2.2747100077        3.7689795871        1.3947554852
  H         0.8325571774        3.9644198058        2.4338953105
      40
 i =       38, E =      -325.5839817969
  S        -0.7931032266        0.9480110523        3.6588527065
  S         2.0392560656        1.1141743320        3.9963942145
  F        -0.8094120936        1.3752075459        6.3125219709
  F        -2.7652034452        1.5078285187        5.3129777255
  F        -1.8672902533       -0.4532789767        5.6883860689
  F         3.0593092591       -1.1218452654        5.0655383254
  F         3.9940849675        0.7497585566        5.7483947539
  F         2.0011235065        0.1854134062        6.4996685380
  O        -1.6105095988        0.0564945895        2.8409256788
  O        -0.8107653746        2.3791606396        3.3677021325
  O         1.9385151373        2.4973772142        4.4416534442
  O         2.9424294855        0.8161955716        2.8745849237
  N         0.6667124265        0.2909869519        3.7950264612
  C        -1.5915826407        0.8288714513        5.3513139945
  C         2.8122741653        0.1661641364        5.4159888018
  N         0.0097756084        0.7825139676        0.1849927228
  N         0.5326383136        2.8341473425        0.7052458479
  C         0.0143711989       -0.6973003744        0.1528872433
  C         1.3875839911       -1.2943067198        0.4561193997
  C         1.3620843353       -2.8324774845        0.4319016596
  C         0.9704752978        1.5622856660        0.7087489712
  C        -1.0726689374        1.5787679051       -0.1515226700
  C        -0.7453899405        2.8641671729        0.1783745691
  C         1.0386192632       -3.4421568535       -0.9408769229
  C         1.2011357784        3.9401753998        1.4007218078
  H        -0.3488670033       -0.9909471016       -0.8402872272
  H        -0.7172370986       -1.0109297089        0.9120966197
  H         2.1263493860       -0.9228667438       -0.2701718292
  H         1.7117327226       -0.9624303477        1.4547267243
  H         0.6507139970       -3.1935895011        1.1895339487
  H         2.3501261011       -3.1865225242        0.7624725398
  H         1.9032662042        1.2270043371        1.1549884479
  H        -1.9789784032        1.1625326773       -0.5685720860
  H        -1.3109791050        3.7822941641        0.1045761695
  H         1.0958880475       -4.5387809088       -0.9078290836
  H         0.0280058222       -3.1865739548       -1.2882577228
  H         1.7473067052       -3.0962993858       -1.7074013195
  H         0.9699722548        4.8760496371        0.8831354599
  H         2.2816943899        3.7667454026        1.3931845237
  H         0.8439055145        3.9612636229        2.4385303385
      40
 i =       39, E =      -325.5839988457
  S        -0.7929291067        0.9482018119        3.6594477629
  S         2.0397139152        1.1144214504        3.9968299285
  F        -0.8087074883        1.3750877049        6.3120065092
  F        -2.7653438365        1.5079020875        5.3136168181
  F        -1.8674682518       -0.4531171315        5.6883678766
  F         3.0593813402       -1.1217873996        5.0653931193
  F         3.9939582260        0.7502807211        5.7475991930
  F         2.0019518637        0.1850837113        6.5004303307
  O        -1.6106949921        0.0563982124        2.8421471077
  O        -0.8108874424        2.3793388288        3.3681755574
  O         1.9388303517        2.4975133534        4.4420035519
  O         2.9427089607        0.8161501919        2.8749979602
  N         0.6666845375        0.2910537471        3.7954153084
  C        -1.5916831137        0.8290250832        5.3513238688
  C         2.8121904459        0.1661067520        5.4161569550
  N         0.0059008582        0.7828295698        0.1894562287
  N         0.5336120719        2.8335387925        0.7092314686
  C         0.0108235288       -0.6968611576        0.1528424230
  C         1.3822131929       -1.2954784182        0.4625132906
  C         1.3556134162       -2.8336443032        0.4393026093
  C         0.9676534535        1.5602602644        0.7141855830
  C        -1.0741224252        1.5820772024       -0.1492534951
  C        -0.7435680421        2.8665549138        0.1804958561
  C         1.0440054312       -3.4406872138       -0.9363475070
  C         1.2049125763        3.9395484262        1.4022556115
  H        -0.3456811203       -0.9873213426       -0.8430655808
  H        -0.7246571598       -1.0129610260        0.9059604158
  H         2.1245143647       -0.9259540131       -0.2601797688
  H         1.7024349738       -0.9632852950        1.4615904275
  H         0.6361612768       -3.1934588013        1.1891315810
  H         2.3394546566       -3.1893329223        0.7786764259
  H         1.8987787792        1.2220564102        1.1619329039
  H        -1.9820918622        1.1692029546       -0.5659090239
  H        -1.3061736273        3.7863706733        0.1030195431
  H         1.1061502781       -4.5371377335       -0.9093512991
  H         0.0352713118       -3.1873818631       -1.2886710202
  H         1.7543302455       -3.0878356685       -1.6967532394
  H         0.9753774414        4.8744360744        0.8824703390
  H         2.2850710409        3.7638825977        1.3941626517
  H         0.8491656494        3.9641651218        2.4404124657
      40
 i =       40, E =      -325.5840165182
  S        -0.7933852948        0.9482956484        3.6601544631
  S         2.0396810947        1.1146611646        3.9972933502
  F        -0.8090156984        1.3755349264        6.3126829785
  F        -2.7647677462        1.5080234974        5.3133566883
  F        -1.8675416409       -0.4527436110        5.6888806427
  F         3.0592772236       -1.1216575333        5.0651489824
  F         3.9941583208        0.7500283825        5.7479415166
  F         2.0019099007        0.1849486457        6.5006064164
  O        -1.6108225169        0.0561948301        2.8429274196
  O        -0.8107980876        2.3792258191        3.3678557921
  O         1.9387169263        2.4978128055        4.4422545089
  O         2.9424132329        0.8164777529        2.8753527921
  N         0.6662895314        0.2914891878        3.7958948428
  C        -1.5912700791        0.8291034886        5.3517058084
  C         2.8122330124        0.1661824297        5.4163949536
  N         0.0010923246        0.7851981378        0.1925041187
  N         0.5376061213        2.8343817972        0.7123362380
  C         0.0026380658       -0.6945677863        0.1523740770
  C         1.3678279623       -1.2966559208        0.4828160203
  C         1.3386936679       -2.8350734661        0.4567731974
  C         0.9660750380        1.5589116881        0.7174288189
  C        -1.0758274725        1.5891021308       -0.1462092340
  C        -0.7394030876        2.8725121225        0.1830021970
  C         1.0567949003       -3.4372099912       -0.9283020905
  C         1.2132392838        3.9373997267        1.4054446039
  H        -0.3386029644       -0.9823101926       -0.8498637831
  H        -0.7442710594       -1.0118753203        0.8938327984
  H         2.1219993936       -0.9290307449       -0.2288296394
  H         1.6731433944       -0.9650974103        1.4865916294
  H         0.6032228578       -3.1957158022        1.1903541738
  H         2.3151141530       -3.1917604687        0.8182995577
  H         1.8960651842        1.2172077506        1.1643251632
  H        -1.9857175731        1.1807011198       -0.5627302349
  H        -1.2980828996        3.7947566047        0.1059112782
  H         1.1258625337       -4.5337980824       -0.9085374861
  H         0.0531448285       -3.1875963950       -1.2972047374
  H         1.7802638145       -3.0745793118       -1.6727370738
  H         0.9839338294        4.8739590670        0.8888267172
  H         2.2930305323        3.7601027633        1.3935142653
  H         0.8606512321        3.9604182285        2.4449267619
      40
 i =       41, E =      -325.5840329817
  S        -0.7939131311        0.9487899806        3.6595457745
  S         2.0393450762        1.1148926104        3.9973537697
  F        -0.8090378598        1.3756442555        6.3123882776
  F        -2.7643930811        1.5081455866        5.3132394028
  F        -1.8675332605       -0.4524414635        5.6887754680
  F         3.0590769764       -1.1215336623        5.0652038592
  F         3.9942577836        0.7496260531        5.7487319626
  F         2.0012214960        0.1851342112        6.5003918751
  O        -1.6109069911        0.0572480335        2.8411645844
  O        -0.8110600573        2.3797718334        3.3676810837
  O         1.9382300412        2.4980826478        4.4423366844
  O         2.9421404281        0.8169583474        2.8755146121
  N         0.6657811311        0.2920923814        3.7952922810
  C        -1.5911744240        0.8290849539        5.3513440321
  C         2.8121434111        0.1663170080        5.4166203351
  N        -0.0017797697        0.7863691726        0.1959220205
  N         0.5390080564        2.8351994297        0.7142292375
  C        -0.0015314188       -0.6933911963        0.1530675146
  C         1.3593927812       -1.2966655747        0.4925390156
  C         1.3287400693       -2.8356625999        0.4643353995
  C         0.9647644326        1.5587201767        0.7208952243
  C        -1.0767383275        1.5923653084       -0.1439659138
  C        -0.7378189844        2.8758415691        0.1839457659
  C         1.0629784260       -3.4360845429       -0.9241679465
  C         1.2182537120        3.9358372960        1.4067083103
  H        -0.3350452525       -0.9799186044       -0.8513634277
  H        -0.7526399537       -1.0129392457        0.8887918073
  H         2.1189009809       -0.9290118487       -0.2137258628
  H         1.6568617389       -0.9659690832        1.4989008500
  H         0.5841475131       -3.1963901660        1.1879582669
  H         2.2995050957       -3.1925869913        0.8383473820
  H         1.8941086294        1.2160447678        1.1675776783
  H        -1.9864805191        1.1857798545       -0.5621335501
  H        -1.2943066195        3.7993202077        0.1074595511
  H         1.1395376515       -4.5326637455       -0.9078055149
  H         0.0609399739       -3.1917079400       -1.3000114914
  H         1.7894226518       -3.0671891710       -1.6610399844
  H         0.9925856430        4.8736768195        0.8907581767
  H         2.2973551454        3.7554420186        1.3948484861
  H         0.8655026779        3.9606142870        2.4460834461
      40
 i =       42, E =      -325.5840427878
  S        -0.7942379583        0.9491193910        3.6587471359
  S         2.0388818865        1.1152224265        3.9971167710
  F        -0.8091296200        1.3754034275        6.3121964441
  F        -2.7645645425        1.5084896958        5.3138103983
  F        -1.8670971289       -0.4525050246        5.6875674158
  F         3.0589902115       -1.1215337429        5.0650619366
  F         3.9941303831        0.7497830532        5.7482256802
  F         2.0014559647        0.1850809592        6.5004560427
  O        -1.6110450516        0.0582854415        2.8393059251
  O        -0.8112325378        2.3802293343        3.3677807218
  O         1.9380038094        2.4983672190        4.4425537987
  O         2.9421584444        0.8171705391        2.8757648384
  N         0.6655484860        0.2924505238        3.7947963844
  C        -1.5915070752        0.8292821908        5.3509910035
  C         2.8119670337        0.1663296984        5.4164270005
  N        -0.0051432801        0.7885555332        0.1984743140
  N         0.5418648195        2.8366523558        0.7149941378
  C        -0.0075428928       -0.6914350193        0.1530865745
  C         1.3478564607       -1.2972297777        0.5087956173
  C         1.3162084434       -2.8364355015        0.4758925591
  C         0.9638256961        1.5590134359        0.7223742788
  C        -1.0773075545        1.5974545114       -0.1423579241
  C        -0.7358623866        2.8802535472        0.1865387706
  C         1.0723568014       -3.4338072824       -0.9185818928
  C         1.2244661410        3.9341612912        1.4089234127
  H        -0.3299394405       -0.9762455297       -0.8557936057
  H        -0.7673373869       -1.0105869761        0.8808050017
  H         2.1158523347       -0.9291553542       -0.1884387877
  H         1.6334282396       -0.9681839437        1.5188430270
  H         0.5583801113       -3.1982166383        1.1862923855
  H         2.2799597281       -3.1941798584        0.8661984420
  H         1.8929051141        1.2156313538        1.1686130617
  H        -1.9872842647        1.1921130554       -0.5612295130
  H        -1.2901539159        3.8048192267        0.1101667823
  H         1.1544303802       -4.5301248079       -0.9040535685
  H         0.0733234064       -3.1942047628       -1.3077372829
  H         1.8076887160       -3.0592339259       -1.6444652362
  H         1.0017224271        4.8740829369        0.8955569249
  H         2.3029735993        3.7499026410        1.3945120033
  H         0.8737599182        3.9575115222        2.4492897704
      40
 i =       43, E =      -325.5840503186
  S        -0.7943982521        0.9496826373        3.6573975025
  S         2.0384469994        1.1153876688        3.9969109107
  F        -0.8094699123        1.3756265175        6.3118352203
  F        -2.7651317201        1.5080116926        5.3130846337
  F        -1.8671484827       -0.4524690748        5.6879140091
  F         3.0591483095       -1.1216651727        5.0650078466
  F         3.9939926450        0.7496580593        5.7482844091
  F         2.0011678059        0.1850605454        6.4998734666
  O        -1.6110823675        0.0595831941        2.8368234234
  O        -0.8114781895        2.3810811834        3.3680536093
  O         1.9379509806        2.4985294574        4.4425621311
  O         2.9421898629        0.8170077611        2.8759659172
  N         0.6653870720        0.2927493338        3.7940080161
  C        -1.5918257528        0.8292295322        5.3504976937
  C         2.8119198971        0.1662086086        5.4161324553
  N        -0.0047378634        0.7889573915        0.1994206836
  N         0.5406825616        2.8372650282        0.7157042799
  C        -0.0076581241       -0.6911509028        0.1540335224
  C         1.3468485345       -1.2970052802        0.5082825593
  C         1.3152145975       -2.8360960235        0.4736146623
  C         0.9635099661        1.5602148588        0.7232548801
  C        -1.0771224234        1.5967752711       -0.1415827604
  C        -0.7367292555        2.8799491674        0.1865918272
  C         1.0717499426       -3.4345058025       -0.9191716399
  C         1.2250277768        3.9345355125        1.4085352292
  H        -0.3298904450       -0.9749622417       -0.8551847570
  H        -0.7677360580       -1.0103817539        0.8815259900
  H         2.1137679315       -0.9276641855       -0.1885405109
  H         1.6323884693       -0.9693205196        1.5181702831
  H         0.5572764422       -3.1978043626        1.1822472280
  H         2.2766381793       -3.1951211589        0.8650173955
  H         1.8927933297        1.2185614808        1.1706573848
  H        -1.9853144704        1.1895608721       -0.5626698037
  H        -1.2921908138        3.8036634044        0.1099667346
  H         1.1559420841       -4.5303347340       -0.9012495319
  H         0.0717696222       -3.1980644193       -1.3068326474
  H         1.8046391786       -3.0596782618       -1.6463705988
  H         1.0065749718        4.8745046977        0.8933070541
  H         2.3028944434        3.7459875516        1.3958863195
  H         0.8730830382        3.9598958966        2.4483853709
      40
 i =       44, E =      -325.5840561608
  S        -0.7943031504        0.9498852665        3.6570287677
  S         2.0386856879        1.1152110966        3.9971417894
  F        -0.8092533685        1.3754566164        6.3114809326
  F        -2.7656033024        1.5078516399        5.3131662137
  F        -1.8672668718       -0.4526595872        5.6880193548
  F         3.0590894655       -1.1217284666        5.0652710033
  F         3.9939698620        0.7496053882        5.7484919749
  F         2.0010691920        0.1851429086        6.5000723232
  O        -1.6105612736        0.0599651121        2.8357361240
  O        -0.8114205117        2.3813583838        3.3681808538
  O         1.9380094448        2.4984392744        4.4424538273
  O         2.9420319659        0.8170475624        2.8757315720
  N         0.6655672831        0.2930041457        3.7943487746
  C        -1.5921443578        0.8291724408        5.3504097379
  C         2.8119228856        0.1661324778        5.4164242937
  N        -0.0051745802        0.7907064789        0.1988982465
  N         0.5415764798        2.8373420928        0.7165140031
  C        -0.0105324725       -0.6892925253        0.1530648617
  C         1.3411564431       -1.2971799458        0.5158946790
  C         1.3076269773       -2.8356168953        0.4795507986
  C         0.9640379848        1.5603790764        0.7228239650
  C        -1.0772887384        1.5991756888       -0.1406790576
  C        -0.7357332652        2.8818024668        0.1877448757
  C         1.0770065239       -3.4334095584       -0.9164343543
  C         1.2281253804        3.9333885088        1.4093432867
  H        -0.3275251869       -0.9729295917       -0.8577504475
  H        -0.7755639095       -1.0065806990        0.8762676404
  H         2.1143087572       -0.9270325543       -0.1744548749
  H         1.6195122455       -0.9717148168        1.5293590708
  H         0.5410163899       -3.1971537171        1.1805172028
  H         2.2649304754       -3.1975950289        0.8804955538
  H         1.8931416584        1.2173853132        1.1702968670
  H        -1.9859215709        1.1925886859       -0.5617596868
  H        -1.2904064965        3.8062444335        0.1122267794
  H         1.1643227386       -4.5287608044       -0.8975260109
  H         0.0787019765       -3.2003733936       -1.3115321327
  H         1.8131528681       -3.0561967918       -1.6386869620
  H         1.0104850945        4.8738365052        0.8944185476
  H         2.3057533799        3.7434948719        1.3962356479
  H         0.8769862046        3.9591940999        2.4492025056
      40
 i =       45, E =      -325.5840608640
  S        -0.7943394472        0.9497899981        3.6574098652
  S         2.0388851633        1.1148477526        3.9971898923
  F        -0.8093361753        1.3751287238        6.3118523682
  F        -2.7657027327        1.5080632133        5.3135388840
  F        -1.8674395925       -0.4530294051        5.6878045470
  F         3.0590888059       -1.1216402991        5.0653926919
  F         3.9939425437        0.7498361086        5.7483535642
  F         2.0012987217        0.1851867402        6.5004221644
  O        -1.6099052048        0.0596123848        2.8357427009
  O        -0.8111098046        2.3811215669        3.3679422070
  O         1.9382270039        2.4980798903        4.4424283395
  O         2.9421642567        0.8169541825        2.8755180157
  N         0.6657420026        0.2929607790        3.7947676791
  C        -1.5923398193        0.8290442308        5.3507630905
  C         2.8119368451        0.1661884316        5.4165743140
  N        -0.0049334680        0.7913653657        0.1982492392
  N         0.5418035279        2.8376211767        0.7167925735
  C        -0.0114144895       -0.6885657638        0.1518858277
  C         1.3392428319       -1.2981974737        0.5180072438
  C         1.3041949963       -2.8361140538        0.4813898238
  C         0.9641609535        1.5605857248        0.7225502521
  C        -1.0770428744        1.6000386036       -0.1408963520
  C        -0.7356165163        2.8822605029        0.1886220606
  C         1.0776778519       -3.4333009633       -0.9153326421
  C         1.2291374048        3.9335565998        1.4094005201
  H        -0.3269034219       -0.9716804331       -0.8595288037
  H        -0.7784794828       -1.0042405569        0.8733800344
  H         2.1146755669       -0.9285810412       -0.1698564753
  H         1.6156363992       -0.9728243103        1.5319489595
  H         0.5354749084       -3.1967202406        1.1797100581
  H         2.2598413590       -3.1993414885        0.8844881934
  H         1.8930471832        1.2170562092        1.1707390939
  H        -1.9862973067        1.1935177938       -0.5609646084
  H        -1.2906222989        3.8066327410        0.1131080087
  H         1.1672466458       -4.5283808865       -0.8960263379
  H         0.0801132067       -3.2018782392       -1.3134061842
  H         1.8164386930       -3.0544596344       -1.6357612546
  H         1.0125630940        4.8734433775        0.8930732332
  H         2.3065634155        3.7422385506        1.3970843983
  H         0.8777811779        3.9609225827        2.4489413650
      40
 i =       46, E =      -325.5840646572
  S        -0.7941524806        0.9496596046        3.6577541612
  S         2.0388764727        1.1148391802        3.9973145716
  F        -0.8093496310        1.3752516187        6.3118190412
  F        -2.7655587894        1.5079505653        5.3133331718
  F        -1.8676312487       -0.4530261935        5.6881727154
  F         3.0591216393       -1.1216139619        5.0652116811
  F         3.9940133230        0.7498874628        5.7481060312
  F         2.0015495399        0.1851187133        6.5003935555
  O        -1.6094853076        0.0591106697        2.8363448850
  O        -0.8110424897        2.3808986871        3.3679478399
  O         1.9384880493        2.4980745090        4.4425701123
  O         2.9422073468        0.8167015119        2.8756575375
  N         0.6658999243        0.2927620821        3.7957208586
  C        -1.5921517429        0.8289215121        5.3508160065
  C         2.8120298580        0.1662244762        5.4163875558
  N        -0.0045383408        0.7920248246        0.1971171464
  N         0.5423336072        2.8379430065        0.7175707462
  C        -0.0123952292       -0.6876871432        0.1506080517
  C         1.3367957093       -1.2991158519        0.5203323421
  C         1.2999905603       -2.8366587051        0.4834652430
  C         0.9645649759        1.5606807843        0.7221194318
  C        -1.0767247924        1.6010253577       -0.1411701388
  C        -0.7350988052        2.8828799065        0.1894932620
  C         1.0788299119       -3.4335176258       -0.9141812502
  C         1.2300945813        3.9341412991        1.4091662453
  H        -0.3257983085       -0.9700809722       -0.8620948941
  H        -0.7819257614       -1.0020393001        0.8699939641
  H         2.1146756594       -0.9311857414       -0.1651915255
  H         1.6108391929       -0.9735872400        1.5347011492
  H         0.5279139917       -3.1965235601        1.1782941615
  H         2.2538593295       -3.2010507490        0.8902173463
  H         1.8932726860        1.2169464783        1.1707716703
  H        -1.9864546236        1.1944064383       -0.5600360002
  H        -1.2907392600        3.8069678720        0.1145061800
  H         1.1707991829       -4.5285199350       -0.8952611027
  H         0.0821252021       -3.2039068925       -1.3151776328
  H         1.8184901085       -3.0525619848       -1.6327120484
  H         1.0154231165        4.8732197543        0.8908093219
  H         2.3072728664        3.7409240989        1.3982965947
  H         0.8781171890        3.9634322909        2.4485433357
      40
 i =       47, E =      -325.5840690542
  S        -0.7938744198        0.9493102622        3.6580211700
  S         2.0390126396        1.1148333342        3.9976673607
  F        -0.8092663143        1.3753918529        6.3117718168
  F        -2.7653523104        1.5080107761        5.3134795477
  F        -1.8672908221       -0.4529221861        5.6879619351
  F         3.0592347856       -1.1217171942        5.0650990857
  F         3.9940619709        0.7498655704        5.7481293694
  F         2.0016488611        0.1849330287        6.5004791854
  O        -1.6089918693        0.0585892341        2.8366733619
  O        -0.8109801963        2.3804830970        3.3680588903
  O         1.9385674796        2.4982130651        4.4424900534
  O         2.9419519418        0.8166541432        2.8756335213
  N         0.6662435320        0.2925997888        3.7967039247
  C        -1.5919158352        0.8290173694        5.3507733813
  C         2.8121407138        0.1661207365        5.4163817587
  N        -0.0038235041        0.7927912302        0.1958729376
  N         0.5425341645        2.8385281972        0.7179920784
  C        -0.0129642140       -0.6865840808        0.1486401640
  C         1.3341250499       -1.3002107234        0.5218502637
  C         1.2951145923       -2.8376555288        0.4848408699
  C         0.9651734012        1.5611175364        0.7216363637
  C        -1.0763239076        1.6018557986       -0.1416340906
  C        -0.7350553930        2.8835194864        0.1900399297
  C         1.0789390176       -3.4343906208       -0.9133336564
  C         1.2310654503        3.9348764141        1.4083797439
  H        -0.3247056489       -0.9684896097       -0.8647595762
  H        -0.7847807176       -1.0001157407        0.8657773508
  H         2.1149641269       -0.9339903520       -0.1609375786
  H         1.6053468395       -0.9747160356        1.5370510176
  H         0.5199939516       -3.1964330885        1.1760625727
  H         2.2470325438       -3.2029159054        0.8949228023
  H         1.8937139392        1.2172606857        1.1705742571
  H        -1.9863067682        1.1951808572       -0.5597064514
  H        -1.2919949996        3.8069521716        0.1165239318
  H         1.1735795305       -4.5293554472       -0.8946821559
  H         0.0831689463       -3.2069281530       -1.3171724002
  H         1.8192779702       -3.0516758331       -1.6302288044
  H         1.0200547905        4.8731914583        0.8871575940
  H         2.3078512746        3.7390843678        1.4005663066
  H         0.8772260564        3.9678975643        2.4470676702
      40
 i =       48, E =      -325.5840745258
  S        -0.7935970661        0.9490867518        3.6584977449
  S         2.0390080555        1.1149689294        3.9979181728
  F        -0.8093480377        1.3755747849        6.3118941862
  F        -2.7649198852        1.5079314554        5.3131030169
  F        -1.8674223935       -0.4527503220        5.6883524874
  F         3.0590926051       -1.1216176705        5.0651164747
  F         3.9943005944        0.7497163281        5.7482633486
  F         2.0015184935        0.1851479812        6.5003245975
  O        -1.6083325793        0.0579986658        2.8372840268
  O        -0.8107889188        2.3801322516        3.3679994025
  O         1.9386936064        2.4983586425        4.4427370541
  O         2.9418713421        0.8167175750        2.8758241821
  N         0.6663782351        0.2924232938        3.7982178026
  C        -1.5915768584        0.8288830701        5.3508251680
  C         2.8122681681        0.1663193614        5.4163407929
  N        -0.0044115170        0.7939811594        0.1952821211
  N         0.5434605619        2.8394145909        0.7190519732
  C        -0.0154879826       -0.6850403866        0.1457388748
  C         1.3275485728       -1.3015250535        0.5282310957
  C         1.2861564616       -2.8391717085        0.4895171793
  C         0.9650931163        1.5613396276        0.7218183067
  C        -1.0763185624        1.6043456296       -0.1415253553
  C        -0.7343739361        2.8855440184        0.1912470813
  C         1.0812366214       -3.4349417791       -0.9108135166
  C         1.2341721503        3.9352426429        1.4080012733
  H        -0.3214648698       -0.9655210342       -0.8701682191
  H        -0.7923903909       -0.9982834103        0.8574706954
  H         2.1150235695       -0.9369403995       -0.1480962876
  H         1.5915307432       -0.9770094160        1.5459228039
  H         0.5037555640       -3.1971457448        1.1730652653
  H         2.2341059215       -3.2054872241        0.9077059966
  H         1.8931473983        1.2164709207        1.1708151249
  H        -1.9866843663        1.1986924142       -0.5595017130
  H        -1.2918604663        3.8087525029        0.1196578775
  H         1.1784983447       -4.5298910255       -0.8931161553
  H         0.0880127920       -3.2093825696       -1.3222209511
  H         1.8256196427       -3.0498942331       -1.6224745471
  H         1.0285747769        4.8729277689        0.8833496574
  H         2.3102395592        3.7352829687        1.4036983579
  H         0.8778754977        3.9732578334        2.4457400963
      40
 i =       49, E =      -325.5840824385
  S        -0.7931131275        0.9487260854        3.6591145450
  S         2.0392142940        1.1152523105        3.9983571015
  F        -0.8092631994        1.3754932197        6.3119748780
  F        -2.7645760573        1.5081333165        5.3133055199
  F        -1.8672602405       -0.4526789803        5.6879879294
  F         3.0592501919       -1.1215537633        5.0650969282
  F         3.9944596214        0.7497603094        5.7485587040
  F         2.0014187990        0.1850769140        6.5002719635
  O        -1.6076468201        0.0572434027        2.8382553619
  O        -0.8105762549        2.3796759918        3.3681130360
  O         1.9387422880        2.4987042082        4.4428876075
  O         2.9415652835        0.8169936348        2.8758998134
  N         0.6666354582        0.2923063577        3.7998891537
  C        -1.5913992982        0.8289111900        5.3508585098
  C         2.8124714010        0.1664027661        5.4164552169
  N        -0.0052187187        0.7953149125        0.1942321403
  N         0.5440736307        2.8401387352        0.7200009543
  C        -0.0173260716       -0.6834268711        0.1417762095
  C         1.3211633879       -1.3029571213        0.5334637599
  C         1.2768871646       -2.8410964862        0.4926676124
  C         0.9648638301        1.5615944308        0.7217416027
  C        -1.0767163745        1.6066640604       -0.1417741352
  C        -0.7340859577        2.8873167882        0.1924132003
  C         1.0819227887       -3.4362670391       -0.9095824665
  C         1.2369295981        3.9359251350        1.4068627829
  H        -0.3174387907       -0.9623797208       -0.8765149367
  H        -0.7995524765       -0.9974073776        0.8475929751
  H         2.1150021584       -0.9395866799       -0.1358515304
  H         1.5773543248       -0.9802005369        1.5539508050
  H         0.4888152234       -3.1984524441        1.1695084641
  H         2.2212399364       -3.2085818454        0.9184593002
  H         1.8924903238        1.2156043573        1.1703722799
  H        -1.9871238116        1.2021023304       -0.5604749527
  H        -1.2919001322        3.8104410607        0.1231681681
  H         1.1792003684       -4.5313052444       -0.8915123331
  H         0.0917405735       -3.2109094517       -1.3273370332
  H         1.8304791639       -3.0510219775       -1.6163611328
  H         1.0390254124        4.8724146972        0.8767743692
  H         2.3119473834        3.7305529060        1.4085306162
  H         0.8761349936        3.9811129197        2.4429030390
      40
 i =       50, E =      -325.5840951541
  S        -0.7924360206        0.9482008229        3.6599962035
  S         2.0396747785        1.1157093325        3.9990371931
  F        -0.8091766529        1.3756604814        6.3122476759
  F        -2.7643655487        1.5079752917        5.3131623886
  F        -1.8670911827       -0.4525157961        5.6883489890
  F         3.0591293364       -1.1216208396        5.0652358076
  F         3.9948506863        0.7494060629        5.7488926911
  F         2.0013472099        0.1851720714        6.5003057305
  O        -1.6067187959        0.0559683951        2.8399175632
  O        -0.8102189107        2.3790397468        3.3681798209
  O         1.9388272654        2.4992558854        4.4430379037
  O         2.9410089366        0.8175089236        2.8758586496
  N         0.6670361577        0.2923093770        3.8020976565
  C        -1.5911565612        0.8289374131        5.3511153528
  C         2.8127473129        0.1664306277        5.4167391175
  N        -0.0077019343        0.7973730051        0.1927762011
  N         0.5449745702        2.8406976220        0.7213821964
  C        -0.0216144382       -0.6814442917        0.1350727840
  C         1.3093452398       -1.3053998540        0.5437197267
  C         1.2624181095       -2.8442173774        0.4986900987
  C         0.9637002722        1.5614865838        0.7214801831
  C        -1.0778878771        1.6112724109       -0.1417678541
  C        -0.7334833017        2.8909686638        0.1941463333
  C         1.0830906844       -3.4376990673       -0.9066626814
  C         1.2416529013        3.9361954910        1.4052096772
  H        -0.3097083009       -0.9573445178       -0.8879877430
  H        -0.8125839840       -0.9968321663        0.8304652010
  H         2.1147646510       -0.9428492025       -0.1125404459
  H         1.5518596176       -0.9863708169        1.5686834080
  H         0.4647940599       -3.2015925447        1.1647958519
  H         2.2005791519       -3.2139358171        0.9351778417
  H         1.8904928641        1.2129802078        1.1694347369
  H        -1.9885907874        1.2094675139       -0.5625417533
  H        -1.2902687908        3.8149220383        0.1282709600
  H         1.1769721605       -4.5330217516       -0.8883645245
  H         0.0985639530       -3.2099697734       -1.3377097923
  H         1.8416121673       -3.0545980890       -1.6040434390
  H         1.0570191850        4.8706822001        0.8662361897
  H         2.3147300981        3.7217041369        1.4173206579
  H         0.8731735770        3.9931374257        2.4381249928
      40
 i =       51, E =      -325.5841101202
  S        -0.7920467145        0.9480002850        3.6609060982
  S         2.0399625581        1.1163418352        3.9990657139
  F        -0.8092609229        1.3755100104        6.3127454330
  F        -2.7644689069        1.5080457395        5.3132161796
  F        -1.8672601647       -0.4525916949        5.6884213304
  F         3.0591813572       -1.1212918552        5.0652654996
  F         3.9949358186        0.7497304667        5.7487904471
  F         2.0014789472        0.1853328793        6.5002568342
  O        -1.6059504359        0.0549326350        2.8415165311
  O        -0.8099974865        2.3787536067        3.3680878575
  O         1.9392971836        2.4996457610        4.4435111581
  O         2.9410060121        0.8178741801        2.8758944017
  N         0.6669490147        0.2925316057        3.8039023368
  C        -1.5912600607        0.8289997331        5.3514858591
  C         2.8128376556        0.1667804480        5.4167843680
  N        -0.0108026180        0.7986250820        0.1912603912
  N         0.5457245375        2.8405268485        0.7218611093
  C        -0.0246703701       -0.6806222149        0.1281829502
  C         1.3001398608       -1.3076996538        0.5502139633
  C         1.2511809698       -2.8469810466        0.5005067328
  C         0.9619192256        1.5608317394        0.7205767664
  C        -1.0793809092        1.6147375633       -0.1427972329
  C        -0.7330457458        2.8932881578        0.1956360819
  C         1.0810741054       -3.4394637715       -0.9064064571
  C         1.2448431613        3.9360973375        1.4033793451
  H        -0.3021991009       -0.9533405623       -0.8981785276
  H        -0.8233408199       -0.9976505964        0.8142298415
  H         2.1139834394       -0.9436152690       -0.0941893008
  H         1.5296147686       -0.9927706282        1.5798535637
  H         0.4487955162       -3.2046953067        1.1605703083
  H         2.1854007771       -3.2188632349        0.9443948873
  H         1.8883505681        1.2097422591        1.1670634309
  H        -1.9903328293        1.2156223825       -0.5659437502
  H        -1.2873241568        3.8189051453        0.1318090798
  H         1.1660543148       -4.5353429204       -0.8853963383
  H         0.1025379880       -3.2046120081       -1.3456654652
  H         1.8492218844       -3.0632403357       -1.5963231239
  H         1.0740099449        4.8671682159        0.8533498807
  H         2.3157420478        3.7120570852        1.4282290746
  H         0.8662446650        4.0057912534        2.4318073555
      40
 i =       52, E =      -325.5841246708
  S        -0.7920179761        0.9480622519        3.6611759772
  S         2.0403759548        1.1166661927        3.9992723276
  F        -0.8092354188        1.3752920521        6.3127670019
  F        -2.7649552435        1.5082663465        5.3136436907
  F        -1.8673372375       -0.4527679004        5.6880396765
  F         3.0594793783       -1.1213180469        5.0653022557
  F         3.9948777417        0.7498175651        5.7490871375
  F         2.0014658476        0.1850641033        6.5003060015
  O        -1.6061138667        0.0543564576        2.8428016010
  O        -0.8101865041        2.3788337719        3.3679759581
  O         1.9394618338        2.4999699564        4.4433989463
  O         2.9405955508        0.8181378823        2.8755745623
  N         0.6669273718        0.2931155765        3.8040877177
  C        -1.5916331803        0.8292151050        5.3515873449
  C         2.8129177737        0.1666665015        5.4170417060
  N        -0.0146732032        0.8000096222        0.1898226693
  N         0.5466999469        2.8392801714        0.7229246273
  C        -0.0301460898       -0.6802015092        0.1233003290
  C         1.2893182103       -1.3102707563        0.5598256932
  C         1.2408148738       -2.8493508060        0.5056596765
  C         0.9599976348        1.5591369077        0.7198186869
  C        -1.0816702449        1.6190498632       -0.1423898841
  C        -0.7311865000        2.8965301440        0.1959076601
  C         1.0815754187       -3.4391577284       -0.9043103757
  C         1.2485170510        3.9344191579        1.4025311803
  H        -0.2939330962       -0.9490166177       -0.9081749148
  H        -0.8374713708       -0.9986691122        0.7990340155
  H         2.1113634167       -0.9447802697       -0.0732119522
  H         1.5063611732       -0.9986201547        1.5924085920
  H         0.4335889363       -3.2086347780        1.1597234401
  H         2.1710998894       -3.2232974255        0.9558626864
  H         1.8861630935        1.2057606071        1.1650485971
  H        -1.9931217640        1.2232839617       -0.5679744110
  H        -1.2818059456        3.8244958336        0.1330844781
  H         1.1557979799       -4.5358195938       -0.8830311352
  H         0.1092883554       -3.1953147784       -1.3545722199
  H         1.8620432408       -3.0692825736       -1.5845566430
  H         1.0890866233        4.8629413704        0.8448770405
  H         2.3172146566        3.7024259310        1.4386799040
  H         0.8619188212        4.0132552681        2.4270516715
      40
 i =       53, E =      -325.5841323888
  S        -0.7926516673        0.9486392926        3.6601743098
  S         2.0403135940        1.1166048175        3.9985192232
  F        -0.8093152994        1.3754008693        6.3125695501
  F        -2.7654776323        1.5080467939        5.3132877709
  F        -1.8676511587       -0.4527900655        5.6886278459
  F         3.0589267537       -1.1214740381        5.0654257243
  F         3.9948291970        0.7495334265        5.7484597595
  F         2.0018127305        0.1853182683        6.5005625267
  O        -1.6067440822        0.0551374893        2.8414607172
  O        -0.8106609039        2.3795779481        3.3675303395
  O         1.9395258054        2.4997768863        4.4429728271
  O         2.9406367094        0.8180071235        2.8749471632
  N         0.6664943769        0.2937918252        3.8020554250
  C        -1.5918332971        0.8292788281        5.3513910915
  C         2.8125903409        0.1666031079        5.4168846864
  N        -0.0159132798        0.7989374851        0.1883563327
  N         0.5466545908        2.8374172838        0.7200811420
  C        -0.0308347174       -0.6820634167        0.1206610322
  C         1.2892769843       -1.3114713476        0.5559189395
  C         1.2428190260       -2.8498309273        0.5011622616
  C         0.9594253571        1.5575904611        0.7171972344
  C        -1.0820479151        1.6186239368       -0.1446834995
  C        -0.7312652269        2.8956702891        0.1947086173
  C         1.0753994755       -3.4395188001       -0.9066712014
  C         1.2461605180        3.9327954978        1.4009964593
  H        -0.2923134112       -0.9496547214       -0.9098146887
  H        -0.8370521314       -0.9999210163        0.7956476696
  H         2.1090732484       -0.9438309285       -0.0765945210
  H         1.5058273821       -1.0009746013        1.5873914859
  H         0.4410509466       -3.2100640435        1.1608889695
  H         2.1752162741       -3.2246024514        0.9442079742
  H         1.8865198308        1.2043836488        1.1609262814
  H        -1.9942818306        1.2236694880       -0.5695786737
  H        -1.2794636084        3.8250061284        0.1301991813
  H         1.1379417648       -4.5368470889       -0.8843499894
  H         0.1051482602       -3.1860950611       -1.3548032343
  H         1.8582239101       -3.0791907933       -1.5873316986
  H         1.0939338455        4.8585687983        0.8376875077
  H         2.3135429033        3.6974548202        1.4478640089
  H         0.8519253675        4.0171211248        2.4216647444
      40
 i =       54, E =      -325.5841429753
  S        -0.7934115867        0.9493209801        3.6592026166
  S         2.0398745073        1.1167678135        3.9982150446
  F        -0.8095295289        1.3757350548        6.3123574933
  F        -2.7660657109        1.5078566452        5.3130753992
  F        -1.8675324182       -0.4526685780        5.6888334226
  F         3.0589411459       -1.1214675649        5.0651700956
  F         3.9945382589        0.7497623287        5.7478976837
  F         2.0021136819        0.1852157862        6.5005464787
  O        -1.6068558359        0.0563010287        2.8392054932
  O        -0.8110601727        2.3803651403        3.3673770642
  O         1.9398187876        2.4998507149        4.4430588853
  O         2.9406753988        0.8176762901        2.8750350877
  N         0.6660529684        0.2945444469        3.8016715109
  C        -1.5920357568        0.8295370668        5.3511211571
  C         2.8123296208        0.1665927617        5.4165097273
  N        -0.0215431181        0.8010655143        0.1895338730
  N         0.5510346660        2.8368118253        0.7213147687
  C        -0.0415822812       -0.6799903020        0.1165378179
  C         1.2701850866       -1.3143700342        0.5764564249
  C         1.2211052674       -2.8515228242        0.5156503754
  C         0.9575266953        1.5549412292        0.7179614945
  C        -1.0834749434        1.6259084717       -0.1440761441
  C        -0.7266060979        2.9009924763        0.1968272884
  C         1.0835470762       -3.4361294699       -0.8993982245
  C         1.2547169650        3.9286604739        1.4030421893
  H        -0.2824578729       -0.9430296780       -0.9205112515
  H        -0.8636140844       -0.9961134300        0.7750961583
  H         2.1047487096       -0.9448090315       -0.0384907816
  H         1.4647724560       -1.0074033003        1.6155189978
  H         0.4038708251       -3.2121269528        1.1583527681
  H         2.1442350146       -3.2298383492        0.9791718229
  H         1.8838006692        1.1979548445        1.1612130878
  H        -1.9982091518        1.2351393671       -0.5677424172
  H        -1.2697788936        3.8333895290        0.1315480694
  H         1.1447376667       -4.5334798725       -0.8787470126
  H         0.1222289558       -3.1798660228       -1.3667964345
  H         1.8828354373       -3.0748186854       -1.5623577191
  H         1.1144753506        4.8527536752        0.8339588968
  H         2.3198470697        3.6830932609        1.4589539014
  H         0.8542030626        4.0201579690        2.4203995114
      40
 i =       55, E =      -325.5841582675
  S        -0.7937880381        0.9495357944        3.6587940226
  S         2.0393770111        1.1164213374        3.9977563863
  F        -0.8093305653        1.3752710994        6.3120477078
  F        -2.7658291220        1.5083067143        5.3138201111
  F        -1.8675079918       -0.4528026178        5.6878503385
  F         3.0593326394       -1.1211543551        5.0650254005
  F         3.9942616977        0.7502040470        5.7483323634
  F         2.0015993987        0.1851667232        6.5001694159
  O        -1.6067773461        0.0571952410        2.8375035089
  O        -0.8110278913        2.3805352837        3.3672525249
  O         1.9396306038        2.4994360873        4.4430992967
  O         2.9410444348        0.8174597752        2.8751178360
  N         0.6658427572        0.2942649282        3.8010763165
  C        -1.5921385500        0.8294574306        5.3508953947
  C         2.8122419286        0.1668225562        5.4162883905
  N        -0.0203657365        0.8005283926        0.1891597904
  N         0.5507258634        2.8367362766        0.7218130467
  C        -0.0415666229       -0.6797982219        0.1174045191
  C         1.2702504488       -1.3146319391        0.5748634724
  C         1.2210080974       -2.8516920563        0.5149397943
  C         0.9580553876        1.5547004552        0.7184064820
  C        -1.0833039752        1.6247146934       -0.1432169736
  C        -0.7259082441        2.9003455569        0.1947134473
  C         1.0823497678       -3.4361198452       -0.8989875091
  C         1.2546757017        3.9284487374        1.4029824458
  H        -0.2834068389       -0.9427013339       -0.9197179346
  H        -0.8631580549       -0.9963525974        0.7760080254
  H         2.1029671172       -0.9470844865       -0.0429027298
  H         1.4678193737       -1.0057931121        1.6119386767
  H         0.4039230385       -3.2114601725        1.1575058587
  H         2.1442849857       -3.2292933196        0.9775216911
  H         1.8840163336        1.1984180864        1.1628191062
  H        -1.9977137055        1.2332301923       -0.5663196933
  H        -1.2708512777        3.8316717274        0.1300046161
  H         1.1464633086       -4.5332823664       -0.8799119778
  H         0.1206079042       -3.1814158092       -1.3651748221
  H         1.8789009217       -3.0718637548       -1.5627483518
  H         1.1155604538        4.8528067617        0.8338312967
  H         2.3196867287        3.6822459719        1.4603902329
  H         0.8526036875        4.0203186510        2.4199704794
      40
 i =       56, E =      -325.5841752086
  S        -0.7940518477        0.9499942345        3.6571277645
  S         2.0390267128        1.1159671305        3.9977691659
  F        -0.8094514883        1.3751928963        6.3112589576
  F        -2.7655116872        1.5082574934        5.3133334996
  F        -1.8676287548       -0.4526959064        5.6875904828
  F         3.0593535624       -1.1215231469        5.0651264574
  F         3.9942228073        0.7498638362        5.7487272609
  F         2.0012279974        0.1850131659        6.5001685752
  O        -1.6063357231        0.0588082127        2.8336741206
  O        -0.8111641328        2.3811613224        3.3672227554
  O         1.9389403667        2.4992765668        4.4424868188
  O         2.9404302605        0.8174215836        2.8746470381
  N         0.6659594127        0.2942421597        3.7999853938
  C        -1.5920503529        0.8291470745        5.3500274482
  C         2.8121933567        0.1664954550        5.4162685937
  N        -0.0221446077        0.8008932694        0.1885814131
  N         0.5529381448        2.8361402260        0.7206720520
  C        -0.0463062309       -0.6783157818        0.1134605854
  C         1.2595181042       -1.3170121788        0.5817167598
  C         1.2070363625       -2.8539557299        0.5204173210
  C         0.9580734295        1.5528999997        0.7179441589
  C        -1.0835572844        1.6271753669       -0.1438531912
  C        -0.7238140362        2.9021293616        0.1935185965
  C         1.0815646894       -3.4356998232       -0.8955252502
  C         1.2583481422        3.9261569285        1.4022977784
  H        -0.2788311783       -0.9387805417       -0.9265650787
  H        -0.8747481818       -0.9949450620        0.7628837114
  H         2.0975519168       -0.9527996619       -0.0301786329
  H         1.4498032582       -1.0083641174        1.6195853943
  H         0.3841204900       -3.2130933639        1.1543513107
  H         2.1255862984       -3.2329054850        0.9898695957
  H         1.8830530413        1.1956337172        1.1634489438
  H        -1.9993526802        1.2368770974       -0.5644748521
  H        -1.2686071228        3.8334149462        0.1291879089
  H         1.1464788992       -4.5329690672       -0.8793617846
  H         0.1246816878       -3.1804135232       -1.3712730650
  H         1.8835916379       -3.0684048135       -1.5508247765
  H         1.1332923776        4.8494307516        0.8268221019
  H         2.3210793851        3.6714824993        1.4729968843
  H         0.8463913855        4.0272838937        2.4152784849
      40
 i =       57, E =      -325.5841891174
  S        -0.7946464455        0.9507352541        3.6550292125
  S         2.0382965055        1.1157843964        3.9972198301
  F        -0.8094154037        1.3752063284        6.3105450794
  F        -2.7657121793        1.5081888404        5.3134350372
  F        -1.8672199224       -0.4526173037        5.6871374613
  F         3.0590290177       -1.1216503709        5.0650180373
  F         3.9941521115        0.7497101624        5.7482812255
  F         2.0012676467        0.1851751542        6.5000450312
  O        -1.6053456790        0.0611076119        2.8279492615
  O        -0.8111800131        2.3821681113        3.3672528457
  O         1.9387326111        2.4990603974        4.4423984102
  O         2.9402900151        0.8172181657        2.8744270212
  N         0.6656160088        0.2943896858        3.7990959816
  C        -1.5922547232        0.8291443217        5.3492527276
  C         2.8119745521        0.1664588905        5.4158102015
  N        -0.0266694597        0.8010817316        0.1876489923
  N         0.5574089081        2.8340949893        0.7189613511
  C        -0.0562695039       -0.6766576238        0.1063583320
  C         1.2385739307       -1.3207711486        0.5960312301
  C         1.1826072530       -2.8571221747        0.5303010437
  C         0.9570892644        1.5488457147        0.7166412674
  C        -1.0844538811        1.6319502840       -0.1446337585
  C        -0.7190821633        2.9053903445        0.1916206639
  C         1.0807736555       -3.4333842007       -0.8895333172
  C         1.2656031204        3.9207562692        1.4021334607
  H        -0.2700308088       -0.9327056728       -0.9389595012
  H        -0.8973371387       -0.9927769769        0.7387132944
  H         2.0884421794       -0.9585025723       -0.0017371615
  H         1.4123148902       -1.0136178472        1.6374949446
  H         0.3473394498       -3.2156686767        1.1488551529
  H         2.0927128391       -3.2391149759        1.0144466472
  H         1.8802841011        1.1875722328        1.1629703795
  H        -2.0029480682        1.2452284543       -0.5624507271
  H        -1.2602151598        3.8388209054        0.1275697653
  H         1.1431795690       -4.5309742547       -0.8764472113
  H         0.1340876285       -3.1736887350       -1.3823316535
  H         1.8960783324       -3.0653139094       -1.5282714419
  H         1.1648443510        4.8403590253        0.8150542860
  H         2.3234191727        3.6515803259        1.4969701953
  H         0.8356756074        4.0374228526        2.4066004474
      40
 i =       58, E =      -325.5841970730
  S        -0.7943932773        0.9509720718        3.6548152258
  S         2.0385007945        1.1157595175        3.9975606504
  F        -0.8096921773        1.3754427835        6.3106642285
  F        -2.7657797054        1.5078975169        5.3128408019
  F        -1.8673162050       -0.4525791526        5.6875513287
  F         3.0592526187       -1.1217936786        5.0650989282
  F         3.9940762539        0.7497983405        5.7483975975
  F         2.0013277795        0.1849404829        6.5002314356
  O        -1.6049280949        0.0612744756        2.8275626589
  O        -0.8109780605        2.3824646567        3.3673298742
  O         1.9386535844        2.4991093713        4.4423765638
  O         2.9399509558        0.8173627969        2.8743030751
  N         0.6656764469        0.2943777007        3.7993082865
  C        -1.5923015552        0.8290250027        5.3492233250
  C         2.8120523988        0.1662196897        5.4160401645
  N        -0.0285230809        0.7998290263        0.1878470599
  N         0.5595226671        2.8321791982        0.7170139045
  C        -0.0581086427       -0.6771462175        0.1044634539
  C         1.2342611496       -1.3212638626        0.5978144422
  C         1.1778918236       -2.8575609727        0.5320737132
  C         0.9566998180        1.5462952402        0.7160779473
  C        -1.0845851468        1.6320211690       -0.1456860222
  C        -0.7173587073        2.9049634195        0.1902163714
  C         1.0787194734       -3.4316791826       -0.8883681731
  C         1.2667012412        3.9179919992        1.4028165920
  H        -0.2698655655       -0.9327276005       -0.9405903411
  H        -0.9017542110       -0.9932992436        0.7332286675
  H         2.0841684691       -0.9595924684        0.0010168610
  H         1.4061070720       -1.0129322204        1.6395025354
  H         0.3423460054       -3.2165678513        1.1488768680
  H         2.0873501122       -3.2395429784        1.0164450209
  H         1.8790017762        1.1833357323        1.1628145334
  H        -2.0040341589        1.2458596020       -0.5620032276
  H        -1.2563927011        3.8394552409        0.1245348357
  H         1.1378951220       -4.5295359726       -0.8767124268
  H         0.1348394046       -3.1682199427       -1.3839988217
  H         1.8963082231       -3.0644584895       -1.5238121403
  H         1.1731162403        4.8358157496        0.8138651511
  H         2.3220024816        3.6463362212        1.5058564420
  H         0.8308581306        4.0382033171        2.4034152907
      40
 i =       59, E =      -325.5842052525
  S        -0.7936479804        0.9510189801        3.6553151825
  S         2.0392116767        1.1162453625        3.9978419541
  F        -0.8097427454        1.3752354592        6.3108840839
  F        -2.7659632654        1.5078821406        5.3127659820
  F        -1.8676624029       -0.4527401915        5.6876740873
  F         3.0590353787       -1.1216089995        5.0653009041
  F         3.9943283141        0.7497406765        5.7483873078
  F         2.0014629645        0.1851965992        6.5003940761
  O        -1.6035515515        0.0604047398        2.8284688619
  O        -0.8106192744        2.3824835878        3.3671841472
  O         1.9391713083        2.4993823269        4.4428287589
  O         2.9399214501        0.8178207598        2.8741335757
  N         0.6658670121        0.2945894747        3.8009859414
  C        -1.5925494905        0.8289312882        5.3493694121
  C         2.8121868667        0.1664120864        5.4163430174
  N        -0.0321974447        0.8008006885        0.1855470172
  N         0.5619655415        2.8305659913        0.7163809253
  C        -0.0641657196       -0.6760222671        0.0972776892
  C         1.2197208374       -1.3244086199        0.6079193614
  C         1.1606607262       -2.8605889840        0.5385418266
  C         0.9553250878        1.5439202054        0.7142372335
  C        -1.0858131949        1.6361092216       -0.1471411230
  C        -0.7151327428        2.9076572289        0.1901432832
  C         1.0775333525       -3.4311755954       -0.8850899620
  C         1.2715099758        3.9152161267        1.4025374242
  H        -0.2630326932       -0.9284510934       -0.9518478029
  H        -0.9173449133       -0.9919005667        0.7140178431
  H         2.0793114412       -0.9643163412        0.0231170325
  H         1.3788611192       -1.0178790049        1.6526666920
  H         0.3165751301       -3.2197752737        1.1446226459
  H         2.0637761710       -3.2462458815        1.0334626025
  H         1.8764651139        1.1775617076        1.1604437985
  H        -2.0064411280        1.2523407231       -0.5633924899
  H        -1.2507866539        3.8441332968        0.1249848709
  H         1.1307230824       -4.5292200768       -0.8748804165
  H         0.1412618450       -3.1619259578       -1.3929719849
  H         1.9054374176       -3.0667612200       -1.5092967516
  H         1.1967189639        4.8293119013        0.8038964348
  H         2.3223671903        3.6319147790        1.5230628250
  H         0.8228770551        4.0487487365        2.3960187892
      40
 i =       60, E =      -325.5842112195
  S        -0.7927333770        0.9506489950        3.6552238560
  S         2.0399168389        1.1169304825        3.9978274173
  F        -0.8093966108        1.3750469390        6.3107269579
  F        -2.7661484276        1.5078688285        5.3130889266
  F        -1.8675136145       -0.4528320915        5.6875269312
  F         3.0587910084       -1.1215000905        5.0651927495
  F         3.9946889703        0.7494712044        5.7481304376
  F         2.0017213277        0.1854256136        6.5001396312
  O        -1.6019752939        0.0597552527        2.8279578803
  O        -0.8103368736        2.3822652607        3.3671805520
  O         1.9398587416        2.4997668895        4.4433217785
  O         2.9404022248        0.8181434160        2.8742416563
  N         0.6662888937        0.2945903728        3.8016297970
  C        -1.5927127513        0.8289835404        5.3492300975
  C         2.8123900654        0.1665827645        5.4162385311
  N        -0.0329200531        0.8013854992        0.1824162613
  N         0.5618198277        2.8302239473        0.7152579146
  C        -0.0656692589       -0.6757836380        0.0946723532
  C         1.2147632043       -1.3257994476        0.6094238165
  C         1.1538597135       -2.8620683096        0.5392543988
  C         0.9546681812        1.5438942710        0.7114223283
  C        -1.0863618903        1.6370896481       -0.1490929257
  C        -0.7153543695        2.9082888100        0.1891123528
  C         1.0746994384       -3.4317166863       -0.8850389153
  C         1.2727472191        3.9140467680        1.4027018814
  H        -0.2613670237       -0.9285678051       -0.9552281344
  H        -0.9193768421       -0.9902718253        0.7090858258
  H         2.0784306800       -0.9668297819        0.0287559196
  H         1.3713877215       -1.0198190972        1.6546187210
  H         0.3072132947       -3.2204228514        1.1420841009
  H         2.0543381378       -3.2505147880        1.0376261872
  H         1.8754917569        1.1762786050        1.1569578035
  H        -2.0072419595        1.2537602492       -0.5656103979
  H        -1.2500410414        3.8453590963        0.1247239061
  H         1.1266187870       -4.5293176991       -0.8753047442
  H         0.1409319157       -3.1614128909       -1.3948196656
  H         1.9056237239       -3.0688476400       -1.5061030679
  H         1.2073328788        4.8265202720        0.8012849894
  H         2.3203736680        3.6249069914        1.5315469135
  H         0.8182202186        4.0524945133        2.3918994832
      40
 i =       61, E =      -325.5842180928
  S        -0.7922981342        0.9503792850        3.6553463200
  S         2.0405197221        1.1174269533        3.9980924516
  F        -0.8093867085        1.3751520907        6.3109613583
  F        -2.7661012801        1.5078911174        5.3132640988
  F        -1.8674498434       -0.4528517148        5.6875543975
  F         3.0592372730       -1.1213286857        5.0650609854
  F         3.9947309325        0.7497599562        5.7484345634
  F         2.0017540402        0.1852116747        6.5000060922
  O        -1.6000935565        0.0592698324        2.8268993942
  O        -0.8101065717        2.3820008074        3.3668672406
  O         1.9403560012        2.5001453654        4.4435550391
  O         2.9405304890        0.8185297901        2.8742444868
  N         0.6665409695        0.2949879658        3.8023960663
  C        -1.5926391344        0.8290371419        5.3492939839
  C         2.8126190572        0.1666711559        5.4163348995
  N        -0.0348613922        0.8019892456        0.1800899815
  N         0.5620351869        2.8296846187        0.7151466317
  C        -0.0689785995       -0.6754066553        0.0906146087
  C         1.2064191085       -1.3283821081        0.6150472035
  C         1.1426232778       -2.8644115440        0.5424630248
  C         0.9530173957        1.5429270291        0.7103701007
  C        -1.0873613289        1.6390575759       -0.1507808656
  C        -0.7144360547        2.9097962522        0.1876429040
  C         1.0727122547       -3.4318860303       -0.8830622322
  C         1.2758464412        3.9116702778        1.4032586257
  H        -0.2576556179       -0.9268638375       -0.9608568196
  H        -0.9290306161       -0.9891697898        0.6980505543
  H         2.0744350690       -0.9706336402        0.0411754662
  H         1.3554116888       -1.0226501536        1.6619510028
  H         0.2899847959       -3.2215755600        1.1382299555
  H         2.0381277278       -3.2555251275        1.0465503237
  H         1.8732884773        1.1736256569        1.1555716380
  H        -2.0085311702        1.2570665726       -0.5681666789
  H        -1.2477191134        3.8477713478        0.1238558873
  H         1.1210489695       -4.5295317754       -0.8743096955
  H         0.1433313692       -3.1578580130       -1.4000064192
  H         1.9091459113       -3.0705520676       -1.4975811204
  H         1.2248387750        4.8215569431        0.7962773307
  H         2.3194157294        3.6127213061        1.5441896877
  H         0.8132214732        4.0587617815        2.3872770516
      40
 i =       62, E =      -325.5842267974
  S        -0.7913939023        0.9501065806        3.6557921889
  S         2.0412378269        1.1177789691        3.9987851467
  F        -0.8096045865        1.3752440092        6.3110483803
  F        -2.7656089720        1.5079693700        5.3130771142
  F        -1.8675583458       -0.4528982305        5.6873154246
  F         3.0594126609       -1.1212002968        5.0651515178
  F         3.9948890983        0.7500242700        5.7488340189
  F         2.0017232373        0.1851701050        6.5001849654
  O        -1.5973358856        0.0581689399        2.8266862660
  O        -0.8100922100        2.3816407167        3.3665894078
  O         1.9407038154        2.5005258925        4.4437547343
  O         2.9403864552        0.8189668464        2.8742204593
  N         0.6671203819        0.2953315419        3.8044570358
  C        -1.5922641997        0.8289014773        5.3491107387
  C         2.8128760712        0.1668101561        5.4166897213
  N        -0.0372950628        0.8019879035        0.1782028207
  N         0.5624365100        2.8281575961        0.7153711713
  C        -0.0732813575       -0.6753614218        0.0871485901
  C         1.1971938452       -1.3308378208        0.6202793106
  C         1.1293090490       -2.8663724521        0.5454204703
  C         0.9513645451        1.5405973979        0.7102206143
  C        -1.0879807944        1.6411792938       -0.1535163241
  C        -0.7131492806        2.9112923306        0.1860727688
  C         1.0697733019       -3.4319154971       -0.8808464819
  C         1.2789774412        3.9077474922        1.4043240209
  H        -0.2543126241       -0.9258894514       -0.9662097987
  H        -0.9389301261       -0.9888002248        0.6877233302
  H         2.0699085692       -0.9755167757        0.0528060953
  H         1.3396886477       -1.0250903658        1.6680333194
  H         0.2703818403       -3.2207433690        1.1331707215
  H         2.0187543217       -3.2611111613        1.0571898027
  H         1.8707775875        1.1701639661        1.1560316988
  H        -2.0092513065        1.2604582210       -0.5717532763
  H        -1.2454533583        3.8498165092        0.1222048143
  H         1.1161242680       -4.5298049171       -0.8735531877
  H         0.1446855554       -3.1548851628       -1.4046345969
  H         1.9111186809       -3.0704416743       -1.4883883149
  H         1.2443413049        4.8146137042        0.7919686665
  H         2.3176923849        3.5988396094        1.5587957705
  H         0.8082704011        4.0652701134        2.3827734688
      40
 i =       63, E =      -325.5842349973
  S        -0.7898429224        0.9497136728        3.6559207705
  S         2.0419085564        1.1181191709        3.9995340502
  F        -0.8095265984        1.3751895120        6.3106921067
  F        -2.7648470236        1.5079110203        5.3126022259
  F        -1.8674376525       -0.4529641085        5.6872247334
  F         3.0594835942       -1.1212533904        5.0650609893
  F         3.9952462075        0.7498963608        5.7491721415
  F         2.0017013397        0.1850670539        6.5001131391
  O        -1.5929000286        0.0566982466        2.8256230658
  O        -0.8100137620        2.3811843164        3.3665036048
  O         1.9411259017        2.5010082973        4.4439533489
  O         2.9401603947        0.8192909114        2.8741870858
  N         0.6683262930        0.2955466579        3.8071651923
  C        -1.5916168095        0.8286054217        5.3486054620
  C         2.8132585953        0.1668857794        5.4167431919
  N        -0.0397843532        0.8021689561        0.1744391262
  N         0.5630856636        2.8269630939        0.7154323017
  C        -0.0782022221       -0.6750127392        0.0824991387
  C         1.1861535645       -1.3343217608        0.6261503535
  C         1.1106464101       -2.8692250902        0.5502535773
  C         0.9493321732        1.5381763237        0.7090108747
  C        -1.0885645866        1.6440357899       -0.1576987488
  C        -0.7112847177        2.9130318704        0.1840304668
  C         1.0657924360       -3.4321217300       -0.8781687296
  C         1.2829406186        3.9026306339        1.4061325994
  H        -0.2513150198       -0.9257154285       -0.9711728364
  H        -0.9486318677       -0.9866896267        0.6762570334
  H         2.0646040089       -0.9832220164        0.0660235047
  H         1.3209932517       -1.0289634253        1.6747294124
  H         0.2420456765       -3.2185275427        1.1268957308
  H         1.9912743579       -3.2691505850        1.0720032387
  H         1.8679533058        1.1666397197        1.1554807593
  H        -2.0100718438        1.2658589194       -0.5775111452
  H        -1.2432721505        3.8517751274        0.1211196213
  H         1.1129370663       -4.5302537143       -0.8734014270
  H         0.1452809008       -3.1553650104       -1.4102712839
  H         1.9127220724       -3.0684174173       -1.4766528215
  H         1.2682319813        4.8055956097        0.7875524273
  H         2.3153242289        3.5812375993        1.5772403033
  H         0.8018052869        4.0721286547        2.3775993844
      40
 i =       64, E =      -325.5842385258
  S        -0.7891359981        0.9495003519        3.6568674951
  S         2.0421114610        1.1181815019        4.0000495249
  F        -0.8094696256        1.3752906308        6.3109489190
  F        -2.7646193159        1.5079116231        5.3126436238
  F        -1.8672501855       -0.4529929716        5.6873814230
  F         3.0592810449       -1.1213271813        5.0651322592
  F         3.9955495817        0.7497013352        5.7490203507
  F         2.0018899546        0.1852044651        6.5002592671
  O        -1.5906619073        0.0555509588        2.8265435940
  O        -0.8098312159        2.3807794997        3.3668766675
  O         1.9414166612        2.5012392598        4.4441113920
  O         2.9400184198        0.8193406700        2.8743202071
  N         0.6690007412        0.2957622418        3.8090448772
  C        -1.5913174146        0.8286427817        5.3489269286
  C         2.8134512226        0.1669268466        5.4168055924
  N        -0.0404114024        0.8011139525        0.1744309754
  N         0.5620186296        2.8255258416        0.7166645525
  C        -0.0790389816       -0.6759028605        0.0832948477
  C         1.1861683071       -1.3345246860        0.6245778008
  C         1.1095420879       -2.8690928297        0.5483758077
  C         0.9481164415        1.5366335190        0.7105101935
  C        -1.0880671448        1.6436915350       -0.1599224463
  C        -0.7115103416        2.9123255739        0.1837146999
  C         1.0628744770       -3.4324639614       -0.8787206009
  C         1.2826071583        3.8999033167        1.4074831701
  H        -0.2518825259       -0.9272086175       -0.9704868099
  H        -0.9479186511       -0.9878944530        0.6783550986
  H         2.0646053142       -0.9834575325        0.0642570368
  H         1.3215095392       -1.0296638659        1.6730534008
  H         0.2411338815       -3.2160928188        1.1247279447
  H         1.9886150150       -3.2701183527        1.0705882511
  H         1.8663492005        1.1650613746        1.1579559641
  H        -2.0089779072        1.2667730144       -0.5820368945
  H        -1.2430847605        3.8513015150        0.1196713833
  H         1.1084203280       -4.5308672118       -0.8729133688
  H         0.1424604644       -3.1538385485       -1.4095399394
  H         1.9094695185       -3.0702986401       -1.4777424874
  H         1.2706856237        4.8017826584        0.7888309347
  H         2.3134163263        3.5772864313        1.5802590029
  H         0.8015016831        4.0717838566        2.3781137457
      40
 i =       65, E =      -325.5842407925
  S        -0.7882639527        0.9496825748        3.6568056097
  S         2.0424947185        1.1183894380        4.0002676388
  F        -0.8094093036        1.3751998311        6.3108732952
  F        -2.7647852364        1.5077706920        5.3125580070
  F        -1.8672006903       -0.4530769714        5.6874641327
  F         3.0593114870       -1.1212894143        5.0651690960
  F         3.9957477600        0.7496819577        5.7489444732
  F         2.0020203173        0.1852814405        6.5002480957
  O        -1.5875688848        0.0552749110        2.8250256720
  O        -0.8095328609        2.3809644679        3.3673381944
  O         1.9419312321        2.5014590826        4.4444148504
  O         2.9400201078        0.8195478872        2.8741943005
  N         0.6697474505        0.2961977909        3.8105928279
  C        -1.5914107838        0.8286102359        5.3488905155
  C         2.8136648070        0.1669893686        5.4168141945
  N        -0.0438436545        0.8011707514        0.1725739513
  N         0.5635245367        2.8231500276        0.7167961410
  C        -0.0851324420       -0.6752291996        0.0788043385
  C         1.1734363150       -1.3374662724        0.6320615287
  C         1.0932271780       -2.8716164576        0.5529579283
  C         0.9462913223        1.5334809488        0.7099282247
  C        -1.0884513206        1.6470512945       -0.1628995972
  C        -0.7094670531        2.9141354878        0.1830257971
  C         1.0597942873       -3.4323536041       -0.8760064716
  C         1.2865618034        3.8948612104        1.4086830651
  H        -0.2471036857       -0.9245509833       -0.9778382576
  H        -0.9603012941       -0.9866000113        0.6650892086
  H         2.0595909394       -0.9879389178        0.0809397223
  H         1.2987345267       -1.0347188652        1.6826560796
  H         0.2168871577       -3.2166918358        1.1192169302
  H         1.9652686574       -3.2767943083        1.0860150812
  H         1.8632498181        1.1591769293        1.1579403581
  H        -2.0100149868        1.2734998996       -0.5866338703
  H        -1.2381321533        3.8547894534        0.1186087642
  H         1.1016871025       -4.5308169839       -0.8716188318
  H         0.1457547821       -3.1495381929       -1.4158081305
  H         1.9147528620       -3.0717991690       -1.4652607772
  H         1.2922250772        4.7935426782        0.7830065225
  H         2.3125794012        3.5618413429        1.5972854592
  H         0.7947794849        4.0783739328        2.3728981580
      40
 i =       66, E =      -325.5842449706
  S        -0.7882747651        0.9498987752        3.6566584637
  S         2.0424921003        1.1181720775        3.9999916496
  F        -0.8094799589        1.3750179760        6.3109031691
  F        -2.7649525823        1.5077477800        5.3125292008
  F        -1.8673489261       -0.4531511597        5.6874327039
  F         3.0592725087       -1.1212160307        5.0652531533
  F         3.9957015841        0.7497075979        5.7489427586
  F         2.0019574252        0.1853822582        6.5002654356
  O        -1.5875518286        0.0556837732        2.8246430870
  O        -0.8095239431        2.3811806031        3.3676353235
  O         1.9419750900        2.5012230551        4.4444554987
  O         2.9403114047        0.8195110835        2.8741039379
  N         0.6699238694        0.2962486397        3.8100712475
  C        -1.5916156556        0.8285542927        5.3489565812
  C         2.8136362802        0.1670222907        5.4168351807
  N        -0.0428515447        0.8014283327        0.1727947143
  N         0.5635731618        2.8235686083        0.7172983269
  C        -0.0835697261       -0.6749058996        0.0805556184
  C         1.1769276377       -1.3368260832        0.6309143815
  C         1.0973826239       -2.8711680514        0.5532184465
  C         0.9468456930        1.5342589931        0.7102023835
  C        -1.0880536983        1.6466187809       -0.1622376938
  C        -0.7094690326        2.9137667511        0.1834201916
  C         1.0616897492       -3.4325660422       -0.8762765960
  C         1.2855515369        3.8956829347        1.4096539275
  H        -0.2500266773       -0.9251759551       -0.9742617719
  H        -0.9566553687       -0.9856429124        0.6704152052
  H         2.0601750240       -0.9873404407        0.0761744599
  H         1.3053831911       -1.0339173099        1.6805042816
  H         0.2216548518       -3.2171818895        1.1210158581
  H         1.9707465032       -3.2756146422        1.0851874289
  H         1.8640117555        1.1602951495        1.1580083431
  H        -2.0089842962        1.2728183040       -0.5870057931
  H        -1.2386712051        3.8540700497        0.1192556847
  H         1.1056700969       -4.5307083267       -0.8729033885
  H         0.1457119496       -3.1522856468       -1.4136009957
  H         1.9142061118       -3.0703095629       -1.4677438976
  H         1.2835972984        4.7960750550        0.7882131244
  H         2.3131383446        3.5670946212        1.5909940829
  H         0.7984739518        4.0731477481        2.3762925814
      40
 i =       67, E =      -325.5842481069
  S        -0.7878214200        0.9498484432        3.6568717186
  S         2.0428013484        1.1182360991        4.0001841919
  F        -0.8094881145        1.3749563273        6.3109330797
  F        -2.7648575177        1.5077338736        5.3125104316
  F        -1.8673968494       -0.4532165096        5.6874079091
  F         3.0592592156       -1.1212836797        5.0652279943
  F         3.9958574590        0.7495629206        5.7490007968
  F         2.0020428630        0.1853186141        6.5002592006
  O        -1.5866455965        0.0553130830        2.8249157692
  O        -0.8094599665        2.3810832231        3.3678671436
  O         1.9422073929        2.5013669869        4.4444710101
  O         2.9403587805        0.8195490447        2.8740831395
  N         0.6704667957        0.2963238349        3.8105186431
  C        -1.5915852197        0.8284532274        5.3490211633
  C         2.8138274376        0.1669431845        5.4168853662
  N        -0.0425003602        0.8008166516        0.1716547662
  N         0.5634413867        2.8231359091        0.7178862031
  C        -0.0827046476       -0.6754476390        0.0795719709
  C         1.1786065313       -1.3373333842        0.6281218478
  C         1.0995178646       -2.8719789578        0.5511763471
  C         0.9464071303        1.5338583687        0.7102901937
  C        -1.0879077740        1.6457895116       -0.1632175547
  C        -0.7091309978        2.9128592497        0.1826933218
  C         1.0589723676       -3.4337430409       -0.8776564287
  C         1.2843926612        3.8961140687        1.4101284637
  H        -0.2517309577       -0.9258852178       -0.9742656037
  H        -0.9541909130       -0.9860995590        0.6713341099
  H         2.0606600107       -0.9871259325        0.0722213673
  H         1.3081527066       -1.0345259671        1.6776391634
  H         0.2267779209       -3.2184534622        1.1216378650
  H         1.9744082372       -3.2752818631        1.0783356299
  H         1.8632964738        1.1592701779        1.1580349454
  H        -2.0080933654        1.2722435766       -0.5898736095
  H        -1.2384566818        3.8531282272        0.1193692635
  H         1.0982145452       -4.5321090490       -0.8734714763
  H         0.1433080171       -3.1498690812       -1.4134936675
  H         1.9112863719       -3.0754571084       -1.4711063283
  H         1.2814006205        4.7959658706        0.7876009610
  H         2.3121985443        3.5675061540        1.5914647379
  H         0.7962143692        4.0729710593        2.3765385948
      40
 i =       68, E =      -325.5842525960
  S        -0.7872134057        0.9499084762        3.6571104061
  S         2.0431866362        1.1184280235        4.0006208518
  F        -0.8094643637        1.3750154590        6.3110047814
  F        -2.7646725967        1.5076807440        5.3125088340
  F        -1.8673348085       -0.4532573040        5.6874638513
  F         3.0595505088       -1.1213117539        5.0651361715
  F         3.9959632884        0.7496455204        5.7491869604
  F         2.0020953614        0.1851120797        6.5001730099
  O        -1.5844116496        0.0549620293        2.8242249515
  O        -0.8092594586        2.3810547725        3.3680622042
  O         1.9425874564        2.5016875961        4.4445958083
  O         2.9404386820        0.8196605662        2.8742516712
  N         0.6711591324        0.2967091676        3.8115480303
  C        -1.5914308495        0.8283633761        5.3491004675
  C         2.8141135704        0.1668797686        5.4169196427
  N        -0.0433392502        0.8003728265        0.1710404992
  N         0.5637949753        2.8217056108        0.7189290356
  C        -0.0850327559       -0.6756874614        0.0786587804
  C         1.1745726010       -1.3387420062        0.6298528259
  C         1.0945011940       -2.8733526966        0.5523603498
  C         0.9455936876        1.5321643156        0.7113183543
  C        -1.0872787822        1.6466779645       -0.1652233327
  C        -0.7080455099        2.9131878160        0.1821471977
  C         1.0573228847       -3.4343158724       -0.8768714703
  C         1.2855035000        3.8936704427        1.4118746042
  H        -0.2517552128       -0.9256606823       -0.9761595244
  H        -0.9580181685       -0.9857459156        0.6687375046
  H         2.0581424024       -0.9892543551        0.0759154024
  H         1.3015714063       -1.0359534297        1.6797820691
  H         0.2191603657       -3.2189942509        1.1196776778
  H         1.9672389505       -3.2775838326        1.0826650263
  H         1.8615448576        1.1562151172        1.1598308983
  H        -2.0072447633        1.2745248229       -0.5936261688
  H        -1.2360586200        3.8542146164        0.1187416669
  H         1.0941593697       -4.5327422105       -0.8734080104
  H         0.1438865619       -3.1479200977       -1.4151799264
  H         1.9121352204       -3.0771588608       -1.4675914004
  H         1.2864357407        4.7928675700        0.7883386272
  H         2.3119346022        3.5630176764        1.5967991858
  H         0.7950822325        4.0731222952        2.3766530054
      40
 i =       69, E =      -325.5842604958
  S        -0.7847278183        0.9501128783        3.6571504042
  S         2.0448530577        1.1190862221        4.0016489300
  F        -0.8093797797        1.3749983924        6.3109354698
  F        -2.7640329659        1.5075171683        5.3124172385
  F        -1.8670140349       -0.4534754696        5.6872074989
  F         3.0594303535       -1.1211477121        5.0652564084
  F         3.9966780234        0.7495507397        5.7494035393
  F         2.0023356950        0.1853992798        6.5002621716
  O        -1.5758410031        0.0539305587        2.8203219836
  O        -0.8087644112        2.3811437688        3.3686992191
  O         1.9441483374        2.5024933369        4.4453288617
  O         2.9414247044        0.8202959451        2.8745976157
  N         0.6738347627        0.2979780471        3.8149830270
  C        -1.5909367286        0.8279927873        5.3488738713
  C         2.8148723026        0.1671574012        5.4171831104
  N        -0.0459160541        0.7991473518        0.1670266543
  N         0.5655279472        2.8165319819        0.7226550173
  C        -0.0932965234       -0.6764008371        0.0743027531
  C         1.1595740641       -1.3443085524        0.6352387606
  C         1.0747283117       -2.8787064015        0.5559570870
  C         0.9431223384        1.5259442957        0.7139994186
  C        -1.0849112001        1.6501294956       -0.1733589227
  C        -0.7033495668        2.9144966207        0.1794968494
  C         1.0501433128       -3.4376629106       -0.8742857308
  C         1.2890383500        3.8853547465        1.4186380918
  H        -0.2536438813       -0.9256461257       -0.9821982818
  H        -0.9720712303       -0.9833239303        0.6586973366
  H         2.0495152264       -0.9979629556        0.0887080006
  H         1.2780524843       -1.0421206855        1.6865298950
  H         0.1913256760       -3.2214656667        1.1124368284
  H         1.9397825984       -3.2875415191        1.0975146455
  H         1.8555990078        1.1455452021        1.1657842616
  H        -2.0036426070        1.2823581253       -0.6084603663
  H        -1.2274855061        3.8577677026        0.1167950472
  H         1.0778864099       -4.5362356257       -0.8733698517
  H         0.1449662772       -3.1419121714       -1.4227349493
  H         1.9142598722       -3.0854122065       -1.4550447866
  H         1.3047314775        4.7823777066        0.7914156724
  H         2.3106253717        3.5467095497        1.6170908791
  H         0.7899557373        4.0732366533        2.3774417128
      40
 i =       70, E =      -325.5842663713
  S        -0.7849097331        0.9501405930        3.6569394498
  S         2.0450103612        1.1191665937        4.0018468327
  F        -0.8093702582        1.3750332064        6.3108676687
  F        -2.7639603962        1.5074919594        5.3122471898
  F        -1.8670860687       -0.4534517976        5.6872709257
  F         3.0598910474       -1.1210802145        5.0651667792
  F         3.9964742018        0.7498889146        5.7497697325
  F         2.0021847083        0.1850449309        6.5002414530
  O        -1.5772571430        0.0544490258        2.8206937261
  O        -0.8087986302        2.3812260967        3.3685879563
  O         1.9442542384        2.5026201818        4.4452872222
  O         2.9416109824        0.8204352991        2.8748148445
  N         0.6737746457        0.2981283313        3.8144004327
  C        -1.5908870688        0.8279397990        5.3487807465
  C         2.8149196416        0.1671076899        5.4173138826
  N        -0.0443261830        0.7986670480        0.1675005581
  N         0.5657957423        2.8164407686        0.7236643063
  C        -0.0925616592       -0.6772560175        0.0755478533
  C         1.1622056993       -1.3444616699        0.6322802431
  C         1.0791508737       -2.8790930487        0.5542690613
  C         0.9439566082        1.5259404572        0.7153528113
  C        -1.0833273345        1.6492651504       -0.1735687356
  C        -0.7027045265        2.9137924906        0.1798340650
  C         1.0502956514       -3.4386391556       -0.8755918321
  C         1.2875666650        3.8865530078        1.4198500087
  H        -0.2570908189       -0.9268637524       -0.9805772405
  H        -0.9692328270       -0.9832833241        0.6633055045
  H         2.0497451514       -0.9977654676        0.0826011498
  H         1.2842988040       -1.0410612125        1.6826878139
  H         0.1980815416       -3.2228455924        1.1142685131
  H         1.9470673127       -3.2858194054        1.0921724756
  H         1.8561794578        1.1459970195        1.1679799684
  H        -2.0015088117        1.2806302979       -0.6089791178
  H        -1.2268963219        3.8569484449        0.1169553394
  H         1.0772345474       -4.5372355392       -0.8738697839
  H         0.1441300700       -3.1429780565       -1.4208079407
  H         1.9129977772       -3.0877022428       -1.4591029440
  H         1.2949649312        4.7852303836        0.7953807105
  H         2.3118332425        3.5533070263        1.6116555993
  H         0.7924907345        4.0692202793        2.3814995426
      40
 i =       71, E =      -325.5842745770
  S        -0.7848115018        0.9502072697        3.6565677287
  S         2.0451940328        1.1194993414        4.0019696489
  F        -0.8093480363        1.3749190925        6.3108075859
  F        -2.7638694561        1.5074751618        5.3121706920
  F        -1.8671182543       -0.4535994754        5.6871297127
  F         3.0597784336       -1.1211254956        5.0650570161
  F         3.9965223134        0.7497561612        5.7495754850
  F         2.0022606936        0.1850643231        6.5001387722
  O        -1.5780638419        0.0549445206        2.8206273575
  O        -0.8087160277        2.3814111672        3.3683035930
  O         1.9445253314        2.5028168665        4.4456154986
  O         2.9421069615        0.8206601327        2.8752616910
  N         0.6737971670        0.2983218681        3.8135741416
  C        -1.5908712391        0.8278044322        5.3486059522
  C         2.8149019063        0.1671404112        5.4171950914
  N        -0.0427481686        0.7982031898        0.1662872480
  N         0.5668165359        2.8155291235        0.7254093296
  C        -0.0936296634       -0.6783743578        0.0754172908
  C         1.1614967465       -1.3463312167        0.6299692376
  C         1.0781799021       -2.8810472380        0.5531217862
  C         0.9446816797        1.5247156284        0.7169227945
  C        -1.0808632991        1.6493436692       -0.1758255797
  C        -0.7003426591        2.9134702554        0.1792813999
  C         1.0484993786       -3.4413892995       -0.8765161141
  C         1.2867277593        3.8863474420        1.4230450277
  H        -0.2620187319       -0.9290027652       -0.9798715977
  H        -0.9689606308       -0.9819865568        0.6657945808
  H         2.0479503594       -1.0003638017        0.0786599785
  H         1.2859486449       -1.0421423458        1.6800336517
  H         0.1985825870       -3.2250183048        1.1152582534
  H         1.9476655840       -3.2869690925        1.0890741744
  H         1.8560111936        1.1447345321        1.1715041901
  H        -1.9981818630        1.2809108153       -0.6131416604
  H        -1.2240693951        3.8568055128        0.1165398692
  H         1.0730458041       -4.5400243097       -0.8740650275
  H         0.1429900147       -3.1441883922       -1.4224735904
  H         1.9121436895       -3.0930129508       -1.4601891158
  H         1.2874313765        4.7868586896        0.8013473096
  H         2.3133728896        3.5577498681        1.6100077543
  H         0.7940427666        4.0638415072        2.3868525068
      40
 i =       72, E =      -325.5842838283
  S        -0.7840658506        0.9503985703        3.6560815188
  S         2.0459083982        1.1198237601        4.0023257802
  F        -0.8092391006        1.3747766309        6.3106079568
  F        -2.7637858090        1.5073047899        5.3118851559
  F        -1.8670262671       -0.4537756127        5.6870665396
  F         3.0596548025       -1.1209442716        5.0652261996
  F         3.9965839752        0.7497891843        5.7497943701
  F         2.0021308209        0.1852334587        6.5003679569
  O        -1.5768859618        0.0551195640        2.8196860614
  O        -0.8088500179        2.3818620431        3.3684209593
  O         1.9448205672        2.5028285926        4.4464049156
  O         2.9427519661        0.8213183357        2.8755189909
  N         0.6741741781        0.2988395061        3.8130117437
  C        -1.5907917097        0.8276731124        5.3482602962
  C         2.8148883538        0.1673651189        5.4175518578
  N        -0.0416395131        0.7972897062        0.1625634513
  N         0.5687415545        2.8129080721        0.7288168841
  C        -0.0977313453       -0.6799402078        0.0735011614
  C         1.1548373315       -1.3516899790        0.6280091367
  C         1.0671910101       -2.8860998560        0.5518251887
  C         0.9444794589        1.5210865102        0.7194777336
  C        -1.0765590984        1.6509538067       -0.1825846518
  C        -0.6954762733        2.9136213434        0.1773304408
  C         1.0417475599       -3.4470554632       -0.8774594197
  C         1.2868468822        3.8828368010        1.4300654215
  H        -0.2692187841       -0.9321407315       -0.9804359652
  H        -0.9738608109       -0.9787798304        0.6651282753
  H         2.0429076280       -1.0084249519        0.0775804361
  H         1.2803726144       -1.0475804929        1.6777616581
  H         0.1850199038       -3.2275995590        1.1122693448
  H         1.9344863154       -3.2940756717        1.0898593224
  H         1.8536121564        1.1399333617        1.1781151557
  H        -1.9922639339        1.2847125567       -0.6250993922
  H        -1.2176288847        3.8577292041        0.1140159905
  H         1.0618399702       -4.5458598272       -0.8737755005
  H         0.1400824750       -3.1472813822       -1.4274816236
  H         1.9098060359       -3.1032335810       -1.4570285849
  H         1.2863908011        4.7848120408        0.8101461747
  H         2.3143266320        3.5552374052        1.6166223686
  H         0.7932233403        4.0571794725        2.3942525424
      40
 i =       73, E =      -325.5842905817
  S        -0.7842888974        0.9503756276        3.6560037791
  S         2.0456834754        1.1199693399        4.0023078654
  F        -0.8092562771        1.3748107500        6.3106578816
  F        -2.7638929336        1.5073676372        5.3120073602
  F        -1.8669946254       -0.4538086609        5.6870198468
  F         3.0593531417       -1.1210397472        5.0651887514
  F         3.9966363668        0.7495704730        5.7494151194
  F         2.0022403562        0.1854115367        6.5003167136
  O        -1.5775778774        0.0552713237        2.8197719672
  O        -0.8090553746        2.3820055682        3.3686724755
  O         1.9446822512        2.5027035154        4.4469933094
  O         2.9429397839        0.8214245461        2.8758867958
  N         0.6736987281        0.2988199163        3.8121597542
  C        -1.5909165090        0.8277789367        5.3482926948
  C         2.8147552047        0.1673303972        5.4174678372
  N        -0.0420681990        0.7967684910        0.1609098410
  N         0.5703513048        2.8109394787        0.7305935635
  C        -0.1015851675       -0.6805996201        0.0725345009
  C         1.1489432019       -1.3551759158        0.6289920568
  C         1.0575224404       -2.8892577653        0.5521002520
  C         0.9438230257        1.5182641491        0.7214497440
  C        -1.0744394469        1.6525846897       -0.1865047027
  C        -0.6917805631        2.9142910267        0.1750644198
  C         1.0373017735       -3.4505590302       -0.8772885200
  C         1.2879583770        3.8791640674        1.4350587534
  H        -0.2726595712       -0.9335251362       -0.9812792004
  H        -0.9788250187       -0.9770206575        0.6634356942
  H         2.0385947950       -1.0136684599        0.0799655290
  H         1.2737049348       -1.0522472764        1.6795482875
  H         0.1738212904       -3.2289742752        1.1104172966
  H         1.9222774356       -3.2991869383        1.0927678483
  H         1.8514150154        1.1357398120        1.1824657004
  H        -1.9891545598        1.2889135512       -0.6330965409
  H        -1.2123155596        3.8592543144        0.1104943196
  H         1.0545749911       -4.5495219841       -0.8727980623
  H         0.1389550087       -3.1484770373       -1.4330474048
  H         1.9099628110       -3.1093214848       -1.4519502817
  H         1.2882233458        4.7825418649        0.8174310729
  H         2.3152181614        3.5511894694        1.6220817555
  H         0.7932777339        4.0511477167        2.3991134789
      40
 i =       74, E =      -325.5842991727
  S        -0.7848608124        0.9503104327        3.6565132735
  S         2.0452669302        1.1198592663        4.0024880165
  F        -0.8093785361        1.3747707341        6.3108940539
  F        -2.7640775932        1.5075032894        5.3122131175
  F        -1.8671967617       -0.4538166442        5.6870627580
  F         3.0590467702       -1.1212273136        5.0652850815
  F         3.9966735920        0.7492906442        5.7491413361
  F         2.0023658205        0.1855050511        6.5004924622
  O        -1.5785022564        0.0551398609        2.8206047916
  O        -0.8093885491        2.3819815088        3.3690736226
  O         1.9441791533        2.5024199403        4.4474867744
  O         2.9424879009        0.8213982245        2.8760462267
  N         0.6728174501        0.2986465015        3.8117022655
  C        -1.5911705789        0.8279242224        5.3485784705
  C         2.8145950378        0.1670989002        5.4176342738
  N        -0.0429348315        0.7960166759        0.1588463227
  N         0.5720285122        2.8084976682        0.7319514126
  C        -0.1062291161       -0.6808690038        0.0706412309
  C         1.1406245467       -1.3602179120        0.6298632626
  C         1.0429863354       -2.8937353590        0.5516531145
  C         0.9425347386        1.5149855347        0.7233241722
  C        -1.0718007750        1.6545272657       -0.1920955129
  C        -0.6878316524        2.9150174757        0.1717121792
  C         1.0296081329       -3.4555031820       -0.8772897344
  C         1.2896924672        3.8737232233        1.4406857822
  H        -0.2755885662       -0.9336699243       -0.9833200182
  H        -0.9857768658       -0.9747870054        0.6593265508
  H         2.0325961488       -1.0217130938        0.0830337268
  H         1.2641954506       -1.0590834134        1.6809643271
  H         0.1545469311       -3.2297201404        1.1051539872
  H         1.9025452618       -3.3078359068        1.0978793017
  H         1.8482064079        1.1301383229        1.1865392637
  H        -1.9852688712        1.2942561943       -0.6437809847
  H        -1.2060876390        3.8611508876        0.1047486820
  H         1.0442272100       -4.5545447694       -0.8717913852
  H         0.1359805012       -3.1514351842       -1.4397746189
  H         1.9067905106       -3.1169957903       -1.4454196225
  H         1.2959431515        4.7779968090        0.8239301886
  H         2.3150495852        3.5417460275        1.6325225892
  H         0.7907665424        4.0460979151        2.4028764055
      40
 i =       75, E =      -325.5843064632
  S        -0.7857312152        0.9500669938        3.6570881662
  S         2.0446457708        1.1193330648        4.0027232103
  F        -0.8094084405        1.3749518355        6.3108684308
  F        -2.7643541795        1.5074466364        5.3123505189
  F        -1.8672096364       -0.4536385651        5.6873565866
  F         3.0594828391       -1.1211612962        5.0653172489
  F         3.9963291139        0.7496820022        5.7495233355
  F         2.0021450519        0.1851886199        6.5005491974
  O        -1.5796097662        0.0548393255        2.8215225458
  O        -0.8099845134        2.3816619426        3.3695906541
  O         1.9436434038        2.5018906746        4.4478564015
  O         2.9417364232        0.8209979630        2.8760944736
  N         0.6719422285        0.2981212842        3.8120626087
  C        -1.5913788484        0.8281187484        5.3488339474
  C         2.8145069029        0.1668404518        5.4179332085
  N        -0.0457803337        0.7948309958        0.1568393781
  N         0.5747462354        2.8047304518        0.7330306153
  C        -0.1135240720       -0.6810788849        0.0683125493
  C         1.1278697955       -1.3664918461        0.6334910818
  C         1.0229007990       -2.8994312820        0.5529290105
  C         0.9400852123        1.5099281256        0.7254835445
  C        -1.0695304933        1.6576726053       -0.1991595799
  C        -0.6823454400        2.9165446655        0.1666711959
  C         1.0197528651       -3.4606221871       -0.8765097887
  C         1.2929461489        3.8654082169        1.4476663294
  H        -0.2774046107       -0.9325169762       -0.9870786390
  H        -0.9974858843       -0.9726047888        0.6521199141
  H         2.0248648314       -1.0312997566        0.0912693681
  H         1.2472976629       -1.0676188829        1.6859507778
  H         0.1279273266       -3.2311957024        1.0985055943
  H         1.8749692464       -3.3184176091        1.1066312541
  H         1.8429577073        1.1213467381        1.1909528844
  H        -1.9817947100        1.3020359423       -0.6568977508
  H        -1.1965654241        3.8647856555        0.0962546356
  H         1.0290138839       -4.5598745405       -0.8704550605
  H         0.1338241065       -3.1517569530       -1.4486931816
  H         1.9058931811       -3.1264246316       -1.4344508916
  H         1.3094570735        4.7703887331        0.8321011207
  H         2.3145462824        3.5266313285        1.6477045113
  H         0.7875988942        4.0392350966        2.4062824715
      40
 i =       76, E =      -325.5843108578
  S        -0.7869124676        0.9497909709        3.6574798249
  S         2.0438537211        1.1186945441        4.0026803168
  F        -0.8094847770        1.3750445949        6.3109890406
  F        -2.7645600683        1.5075519754        5.3126276626
  F        -1.8672279607       -0.4535172955        5.6874314761
  F         3.0592816567       -1.1213183696        5.0653901596
  F         3.9963052470        0.7494730897        5.7493012459
  F         2.0022112852        0.1852481428        6.5006337906
  O        -1.5818978159        0.0548986649        2.8225550470
  O        -0.8101726784        2.3812092723        3.3694502149
  O         1.9431725574        2.5014549814        4.4475262453
  O         2.9409806658        0.8202933430        2.8760312948
  N         0.6710450018        0.2974000442        3.8121537122
  C        -1.5915605804        0.8282388573        5.3491034434
  C         2.8143624169        0.1666123153        5.4179052018
  N        -0.0458542963        0.7943505766        0.1570365757
  N         0.5751827574        2.8040637187        0.7320842940
  C        -0.1141881060       -0.6810454282        0.0679364271
  C         1.1269057331       -1.3679468164        0.6319296795
  C         1.0194604320       -2.9008412699        0.5513159715
  C         0.9397778837        1.5093185170        0.7257669424
  C        -1.0687567048        1.6574567538       -0.2007576523
  C        -0.6814459132        2.9163563560        0.1644680932
  C         1.0156454885       -3.4629569256       -0.8775084465
  C         1.2929791900        3.8637040302        1.4485369766
  H        -0.2780817286       -0.9313488925       -0.9878254097
  H        -0.9981291450       -0.9726594802        0.6516411602
  H         2.0230954669       -1.0341335308        0.0885141105
  H         1.2476327021       -1.0692840595        1.6840958016
  H         0.1237383744       -3.2310050529        1.0961502895
  H         1.8702339157       -3.3214752080        1.1057237179
  H         1.8420756503        1.1199868595        1.1912046170
  H        -1.9805404919        1.3019900493       -0.6593495683
  H        -1.1946232669        3.8650214816        0.0924302966
  H         1.0236492700       -4.5621197435       -0.8708584821
  H         0.1309632267       -3.1534161169       -1.4498722631
  H         1.9013540429       -3.1303692101       -1.4353284814
  H         1.3106666569        4.7695316794        0.8341611534
  H         2.3139742715        3.5240809730        1.6493613196
  H         0.7866330226        4.0367396456        2.4068062156
      40
 i =       77, E =      -325.5843149098
  S        -0.7874968361        0.9495082533        3.6578340559
  S         2.0434810570        1.1180845728        4.0028938126
  F        -0.8095561094        1.3749628450        6.3110096219
  F        -2.7646421308        1.5076467144        5.3126283506
  F        -1.8674743918       -0.4535155860        5.6874374427
  F         3.0594712100       -1.1214336866        5.0653671244
  F         3.9961969041        0.7495251506        5.7493830820
  F         2.0021942964        0.1850464063        6.5006661802
  O        -1.5832175152        0.0546161513        2.8236908179
  O        -0.8101584868        2.3807072915        3.3690477688
  O         1.9430495475        2.5011746156        4.4470676320
  O         2.9403639221        0.8196074545        2.8759808945
  N         0.6707563592        0.2967508308        3.8130651217
  C        -1.5916876430        0.8281413937        5.3492195746
  C         2.8143806819        0.1664067125        5.4179084010
  N        -0.0464896723        0.7937851309        0.1564129489
  N         0.5762481274        2.8030080077        0.7312175184
  C        -0.1159729300       -0.6814390203        0.0662188274
  C         1.1236647304       -1.3698687123        0.6316598886
  C         1.0143156315       -2.9027737264        0.5510600736
  C         0.9392783034        1.5079425409        0.7256179528
  C        -1.0681687537        1.6578905209       -0.2027620572
  C        -0.6797582265        2.9165490170        0.1623354653
  C         1.0116002066       -3.4649594612       -0.8778534870
  C         1.2937891642        3.8618195776        1.4493200851
  H        -0.2784373743       -0.9303619216       -0.9900791083
  H        -1.0008245588       -0.9727301371        0.6485109158
  H         2.0209652021       -1.0371880520        0.0892907660
  H         1.2435822581       -1.0707012016        1.6837791385
  H         0.1162548263       -3.2313492779        1.0936894674
  H         1.8634194464       -3.3248004922        1.1070508658
  H         1.8407763691        1.1175694051        1.1913661720
  H        -1.9798583787        1.3025827094       -0.6617740730
  H        -1.1912157289        3.8660037189        0.0892723982
  H         1.0161150984       -4.5641240298       -0.8711425101
  H         0.1293416709       -3.1525239000       -1.4522496779
  H         1.8992487792       -3.1354058701       -1.4344501917
  H         1.3138720526        4.7675466882        0.8350289894
  H         2.3136907777        3.5208381563        1.6526206282
  H         0.7853662114        4.0352976061        2.4062896377
      40
 i =       78, E =      -325.5843198596
  S        -0.7887181938        0.9490921017        3.6574579312
  S         2.0426079322        1.1169094108        4.0024468342
  F        -0.8095308907        1.3750175188        6.3107657851
  F        -2.7650226906        1.5075613033        5.3126105241
  F        -1.8674467039       -0.4534204401        5.6875939474
  F         3.0597226127       -1.1214683633        5.0653345205
  F         3.9957943608        0.7497449084        5.7494014963
  F         2.0019835785        0.1849142443        6.5005736800
  O        -1.5859946064        0.0548472766        2.8240032311
  O        -0.8102292994        2.3801803162        3.3683899983
  O         1.9427167884        2.5003182703        4.4462500297
  O         2.9398950403        0.8183990691        2.8757438563
  N         0.6700922586        0.2954666212        3.8129863421
  C        -1.5919310388        0.8280824785        5.3491618562
  C         2.8141384913        0.1663071796        5.4176435465
  N        -0.0467573630        0.7932605712        0.1554449712
  N         0.5773223050        2.8022148231        0.7288598697
  C        -0.1168555885       -0.6822363756        0.0639082250
  C         1.1221205797       -1.3719295734        0.6287442873
  C         1.0106526315       -2.9050904410        0.5490639389
  C         0.9392665060        1.5068536259        0.7245486372
  C        -1.0676784357        1.6578894605       -0.2050089523
  C        -0.6781781378        2.9165931225        0.1592057547
  C         1.0056467696       -3.4683908817       -0.8796364198
  C         1.2938660861        3.8608558201        1.4487017504
  H        -0.2790184353       -0.9295271518       -0.9925644333
  H        -1.0020738847       -0.9736045872        0.6455807009
  H         2.0196868273       -1.0407287192        0.0861965954
  H         1.2428560474       -1.0720012771        1.6804985340
  H         0.1123930194       -3.2319976808        1.0916255271
  H         1.8594664850       -3.3284298819        1.1042526744
  H         1.8401230363        1.1162203660        1.1909537895
  H        -1.9797083769        1.3017839580       -0.6630146197
  H        -1.1877677391        3.8668189269        0.0847315831
  H         1.0036571541       -4.5675659550       -0.8723380615
  H         0.1256529642       -3.1515332571       -1.4544082549
  H         1.8952643876       -3.1445958774       -1.4372477163
  H         1.3137771635        4.7673157945        0.8358063394
  H         2.3136068949        3.5204577243        1.6524605405
  H         0.7847996840        4.0328501626        2.4053164334
      40
 i =       79, E =      -325.5843228144
  S        -0.7891037653        0.9489162100        3.6572459376
  S         2.0422658891        1.1163658748        4.0023098160
  F        -0.8096423787        1.3749640301        6.3107458353
  F        -2.7651923056        1.5076104866        5.3126146777
  F        -1.8675283445       -0.4534794729        5.6874889534
  F         3.0594706713       -1.1216309986        5.0654425565
  F         3.9958102189        0.7495500042        5.7492035175
  F         2.0020273204        0.1850438456        6.5007258478
  O        -1.5869215482        0.0548821668        2.8240095190
  O        -0.8102080993        2.3800336216        3.3681761469
  O         1.9423912313        2.4998923844        4.4458824460
  O         2.9395492369        0.8180155424        2.8754992028
  N         0.6698194320        0.2949102836        3.8127675464
  C        -1.5921110624        0.8280236121        5.3491320444
  C         2.8140173026        0.1662458787        5.4176104746
  N        -0.0472921915        0.7928880010        0.1539383787
  N         0.5785182617        2.8014317620        0.7278045664
  C        -0.1187321506       -0.6828411997        0.0611583114
  C         1.1185033391       -1.3741815820        0.6280654702
  C         1.0043658586       -2.9073511738        0.5484822438
  C         0.9390197402        1.5054533597        0.7239640602
  C        -1.0671758930        1.6584947922       -0.2070984325
  C        -0.6762690787        2.9169177516        0.1569975555
  C         1.0011169689       -3.4711955037       -0.8804495586
  C         1.2950303496        3.8596473085        1.4485854791
  H        -0.2790106985       -0.9291892773       -0.9959803882
  H        -1.0053168762       -0.9737567863        0.6409725645
  H         2.0177035245       -1.0443259847        0.0872971443
  H         1.2379518322       -1.0742323487        1.6802226538
  H         0.1035833004       -3.2320465487        1.0888392311
  H         1.8513378550       -3.3322041199        1.1056888304
  H         1.8391951288        1.1142718676        1.1915504234
  H        -1.9794876947        1.3028056261       -0.6651113498
  H        -1.1844378974        3.8678225585        0.0816959567
  H         0.9941281310       -4.5703525659       -0.8723735652
  H         0.1235791841       -3.1510304853       -1.4574602301
  H         1.8931133037       -3.1517793822       -1.4371051273
  H         1.3168016404        4.7658713118        0.8354480448
  H         2.3141131233        3.5182826118        1.6542107487
  H         0.7843658344        4.0322004513        2.4042080889
      40
 i =       80, E =      -325.5843262681
  S        -0.7893713896        0.9488257838        3.6567887672
  S         2.0417593365        1.1159900078        4.0017586162
  F        -0.8096286692        1.3748630926        6.3106465223
  F        -2.7652994962        1.5075692963        5.3125725410
  F        -1.8676898616       -0.4535722282        5.6875171485
  F         3.0596734178       -1.1217377869        5.0653002496
  F         3.9955565285        0.7496933027        5.7490785200
  F         2.0019592009        0.1849271494        6.5005287908
  O        -1.5877029641        0.0549978027        2.8236986683
  O        -0.8101574688        2.3800841847        3.3679865042
  O         1.9418937482        2.4994337461        4.4456431581
  O         2.9394762843        0.8177684758        2.8752319129
  N         0.6695096668        0.2943524712        3.8115286586
  C        -1.5922435590        0.8279148918        5.3490899989
  C         2.8138680093        0.1661904934        5.4173134097
  N        -0.0468946018        0.7926521282        0.1518708173
  N         0.5792457141        2.8012743499        0.7257171219
  C        -0.1186512058       -0.6834133660        0.0582655295
  C         1.1179530009       -1.3759773985        0.6245745433
  C         1.0011751516       -2.9091209964        0.5457119383
  C         0.9396720395        1.5049713914        0.7221360745
  C        -1.0666412452        1.6584289350       -0.2088301341
  C        -0.6753700829        2.9168592272        0.1549424443
  C         0.9956344739       -3.4749107690       -0.8822792365
  C         1.2951361325        3.8600313285        1.4464488843
  H        -0.2794435400       -0.9297003306       -0.9984217048
  H        -1.0051407706       -0.9742262040        0.6379858220
  H         2.0177071324       -1.0473433184        0.0839979856
  H         1.2382116412       -1.0763596728        1.6767482764
  H         0.1000435663       -3.2312649490        1.0865746364
  H         1.8475833115       -3.3352998986        1.1031241202
  H         1.8396644699        1.1140585037        1.1909079026
  H        -1.9794991829        1.3029435055       -0.6660267657
  H        -1.1833526429        3.8678275829        0.0794351018
  H         0.9839478379       -4.5739146820       -0.8729423684
  H         0.1188577776       -3.1520661420       -1.4597151489
  H         1.8886076096       -3.1602670095       -1.4403978745
  H         1.3156415079        4.7664318545        0.8336898619
  H         2.3147790333        3.5199842644        1.6513158735
  H         0.7848698131        4.0317972637        2.4024325919
      40
 i =       81, E =      -325.5843299242
  S        -0.7891496113        0.9488532052        3.6563508247
  S         2.0417206076        1.1161370172        4.0013185108
  F        -0.8096287962        1.3749246574        6.3106569071
  F        -2.7652617190        1.5075028739        5.3125968430
  F        -1.8674452260       -0.4535869095        5.6874951588
  F         3.0592771804       -1.1218158717        5.0654006116
  F         3.9956496141        0.7494325602        5.7488328629
  F         2.0020036467        0.1852009617        6.5005875707
  O        -1.5871753124        0.0550802953        2.8228839864
  O        -0.8101292044        2.3802964653        3.3681298018
  O         1.9416356686        2.4993646130        4.4457051428
  O         2.9396677821        0.8181290692        2.8749193160
  N         0.6695836325        0.2944616308        3.8103104448
  C        -1.5921752880        0.8279951340        5.3490304500
  C         2.8137428287        0.1662495928        5.4172631929
  N        -0.0467524816        0.7923588586        0.1498732613
  N         0.5801221035        2.8008803945        0.7240413614
  C        -0.1193893171       -0.6837417549        0.0555338375
  C         1.1159460097       -1.3779202766        0.6226904964
  C         0.9961485039       -2.9108577661        0.5442320852
  C         0.9401977681        1.5042395239        0.7205989909
  C        -1.0660921424        1.6585513173       -0.2105680964
  C        -0.6743375925        2.9168093254        0.1531447877
  C         0.9907618165       -3.4778383640       -0.8835828205
  C         1.2962396107        3.8597695570        1.4442556384
  H        -0.2792465551       -0.9297269741       -1.0016288484
  H        -1.0071673163       -0.9744523789        0.6339734965
  H         2.0164759293       -1.0510157370        0.0826152071
  H         1.2358984610       -1.0788072100        1.6749904500
  H         0.0936551457       -3.2305420597        1.0841414703
  H         1.8407090973       -3.3382715282        1.1031839544
  H         1.8398578304        1.1131290942        1.1904809174
  H        -1.9795331082        1.3041984550       -0.6673494780
  H        -1.1821646907        3.8679359924        0.0774627899
  H         0.9749740995       -4.5768190947       -0.8731297675
  H         0.1150178982       -3.1530581953       -1.4615380440
  H         1.8852612576       -3.1664005892       -1.4414478642
  H         1.3165037604        4.7659274579        0.8312063884
  H         2.3160872339        3.5201046305        1.6490757992
  H         0.7859723861        4.0319377560        2.4002153914
      40
 i =       82, E =      -325.5843343503
  S        -0.7884018465        0.9491064174        3.6558057162
  S         2.0421425007        1.1167496387        4.0010374862
  F        -0.8095615859        1.3748676768        6.3105797670
  F        -2.7648899081        1.5074819993        5.3125290355
  F        -1.8673623416       -0.4536737471        5.6873799531
  F         3.0593861748       -1.1216781727        5.0653898628
  F         3.9957037588        0.7495714156        5.7489632873
  F         2.0019978294        0.1851919944        6.5005221414
  O        -1.5852267630        0.0551762697        2.8214193346
  O        -0.8100490445        2.3807129207        3.3682183289
  O         1.9417102759        2.4997122293        4.4459156554
  O         2.9401092237        0.8188811938        2.8746414774
  N         0.6700913082        0.2951904625        3.8092041310
  C        -1.5919057229        0.8279655690        5.3488234864
  C         2.8138386443        0.1663652386        5.4173318379
  N        -0.0464971061        0.7919179636        0.1474509046
  N         0.5813330789        2.8001975483        0.7219115675
  C        -0.1202152826       -0.6838075122        0.0527771865
  C         1.1137889111       -1.3798215494        0.6207014816
  C         0.9903120723       -2.9122912661        0.5426378706
  C         0.9410098714        1.5033523279        0.7183953505
  C        -1.0654083614        1.6585884798       -0.2125406302
  C        -0.6732734847        2.9165964625        0.1513198281
  C         0.9852657478       -3.4807821285       -0.8845496232
  C         1.2977837117        3.8593338033        1.4411411137
  H        -0.2795422664       -0.9297933470       -1.0046706826
  H        -1.0086112195       -0.9738427166        0.6304294140
  H         2.0152143939       -1.0546021828        0.0808848352
  H         1.2333587847       -1.0813156462        1.6733085601
  H         0.0858775494       -3.2288165879        1.0811314533
  H         1.8320757929       -3.3414994401        1.1042882839
  H         1.8403891944        1.1118985217        1.1888867361
  H        -1.9792647529        1.3054677882       -0.6690301777
  H        -1.1814660976        3.8676475684        0.0760009083
  H         0.9674278381       -4.5795702286       -0.8728605914
  H         0.1099491596       -3.1551967791       -1.4632015919
  H         1.8803551194       -3.1714393272       -1.4420366211
  H         1.3170750913        4.7652719721        0.8278617447
  H         2.3180196972        3.5203008047        1.6448994198
  H         0.7883888649        4.0316526295        2.3974668296
      40
 i =       83, E =      -325.5843392981
  S        -0.7871496789        0.9494194619        3.6557263178
  S         2.0430489309        1.1178028756        4.0011108260
  F        -0.8094173969        1.3748854519        6.3106100028
  F        -2.7643396732        1.5074612640        5.3124196474
  F        -1.8671555712       -0.4536513284        5.6872860391
  F         3.0593329962       -1.1215993605        5.0653040419
  F         3.9959978017        0.7494336812        5.7490460322
  F         2.0021255977        0.1852153254        6.5003422455
  O        -1.5824515834        0.0547377682        2.8209866333
  O        -0.8098640722        2.3810017829        3.3680737291
  O         1.9422819425        2.5005738555        4.4461891096
  O         2.9407103338        0.8196932760        2.8746048396
  N         0.6710610376        0.2962589439        3.8091097122
  C        -1.5914021506        0.8280352053        5.3486419669
  C         2.8141148201        0.1664342133        5.4173531564
  N        -0.0465906641        0.7909919967        0.1447367327
  N         0.5832657762        2.7984820814        0.7193425773
  C        -0.1224603716       -0.6840778041        0.0492434212
  C         1.1092280956       -1.3827678935        0.6189949908
  C         0.9812679765       -2.9146336756        0.5415500162
  C         0.9416420687        1.5013919342        0.7160307335
  C        -1.0643544569        1.6588099150       -0.2155706738
  C        -0.6711729336        2.9163185714        0.1483565421
  C         0.9773377178       -3.4839219966       -0.8851484361
  C         1.3005060099        3.8575365158        1.4377432749
  H        -0.2807118263       -0.9292689182       -1.0086686232
  H        -1.0127172482       -0.9732126692        0.6250415558
  H         2.0118031595       -1.0603656267        0.0793938068
  H         1.2282099438       -1.0840088501        1.6713662780
  H         0.0741744875       -3.2276441336        1.0775758727
  H         1.8190231771       -3.3463572243        1.1066418220
  H         1.8402623738        1.1084637064        1.1866675790
  H        -1.9785586642        1.3074148929       -0.6724264265
  H        -1.1786781457        3.8678646208        0.0732790171
  H         0.9564195194       -4.5828000582       -0.8727897410
  H         0.1036607321       -3.1562733457       -1.4650931705
  H         1.8748016478       -3.1768546000       -1.4404187315
  H         1.3190332945        4.7631451315        0.8240240006
  H         2.3209549113        3.5188590870        1.6408008916
  H         0.7916920447        4.0303820398        2.3942346651
      40
 i =       84, E =      -325.5843448354
  S        -0.7863296978        0.9497997159        3.6551784856
  S         2.0439917273        1.1185113410        4.0010441191
  F        -0.8092887663        1.3749088182        6.3104678960
  F        -2.7639310939        1.5074947504        5.3122728183
  F        -1.8669545406       -0.4535703520        5.6871310601
  F         3.0594697619       -1.1213005956        5.0653372814
  F         3.9960805169        0.7496486132        5.7493705064
  F         2.0020741751        0.1852050721        6.5003135109
  O        -1.5805004647        0.0549252147        2.8196955725
  O        -0.8097025710        2.3813380945        3.3675948743
  O         1.9429604020        2.5011578412        4.4462700667
  O         2.9414172902        0.8203629017        2.8744486697
  N         0.6718439220        0.2971986304        3.8089618282
  C        -1.5910025949        0.8281141143        5.3482386258
  C         2.8142776127        0.1666304846        5.4174837816
  N        -0.0472479972        0.7900127613        0.1421416147
  N         0.5860650404        2.7964733327        0.7159304858
  C        -0.1259727875       -0.6843414332        0.0462576057
  C         1.1031068252       -1.3861708611        0.6179046788
  C         0.9697568369       -2.9174637987        0.5413254782
  C         0.9419990485        1.4988916782        0.7133844294
  C        -1.0632718240        1.6594611398       -0.2192532892
  C        -0.6681077340        2.9163187530        0.1444999468
  C         0.9685989724       -3.4874801721       -0.8852214622
  C         1.3043454383        3.8548327480        1.4343865117
  H        -0.2827437042       -0.9284414256       -1.0123517317
  H        -1.0177619942       -0.9716569862        0.6203061614
  H         2.0071520753       -1.0669397124        0.0782975544
  H         1.2217812606       -1.0865256865        1.6700811449
  H         0.0593461320       -3.2265390946        1.0741116391
  H         1.8029178574       -3.3521818285        1.1101503174
  H         1.8397532934        1.1043411621        1.1837613319
  H        -1.9777540739        1.3090956612       -0.6761780344
  H        -1.1738753247        3.8687374046        0.0687578366
  H         0.9459643069       -4.5862993991       -0.8722669362
  H         0.0970709088       -3.1583470001       -1.4676382652
  H         1.8679496304       -3.1821529143       -1.4375309227
  H         1.3202525678        4.7613051569        0.8219653513
  H         2.3254985068        3.5167983092        1.6341664529
  H         0.7976756970        4.0257661999        2.3921344438
      40
 i =       85, E =      -325.5843531976
  S        -0.7855010083        0.9502027915        3.6549230735
  S         2.0450342078        1.1192186820        4.0012904506
  F        -0.8091543341        1.3749458977        6.3103358940
  F        -2.7636528078        1.5075893243        5.3120875899
  F        -1.8669030977       -0.4533828092        5.6869404595
  F         3.0596263279       -1.1211024925        5.0652411797
  F         3.9963137666        0.7497227987        5.7495976715
  F         2.0021441913        0.1851473097        6.5001468181
  O        -1.5790964541        0.0549085905        2.8195437666
  O        -0.8093601009        2.3815514876        3.3667418469
  O         1.9439751467        2.5018555360        4.4464239221
  O         2.9419681407        0.8208022885        2.8745284773
  N         0.6726393148        0.2979807851        3.8095476679
  C        -1.5906578083        0.8282790154        5.3478335109
  C         2.8145784152        0.1667554595        5.4174646335
  N        -0.0495228317        0.7879578848        0.1375047552
  N         0.5916265639        2.7915041772        0.7110780222
  C        -0.1349763541       -0.6855162051        0.0402420011
  C         1.0881351810       -1.3940179923        0.6169319204
  C         0.9442609037       -2.9244761674        0.5412402783
  C         0.9414899896        1.4924743219        0.7104833686
  C        -1.0607065212        1.6617835636       -0.2276567343
  C        -0.6605175413        2.9170460514        0.1359879381
  C         0.9501733331       -3.4951569165       -0.8849431768
  C         1.3119179105        3.8474333829        1.4314542638
  H        -0.2881493362       -0.9273746708       -1.0193352651
  H        -1.0306493622       -0.9689590747        0.6099946657
  H         1.9954581163       -1.0814182149        0.0786981260
  H         1.2055283941       -1.0929497516        1.6690652396
  H         0.0269567663       -3.2263881425        1.0668302269
  H         1.7686934027       -3.3656368558        1.1176574108
  H         1.8367916661        1.0940106709        1.1814766899
  H        -1.9750405757        1.3141755921       -0.6873084529
  H        -1.1608841489        3.8720813706        0.0575686605
  H         0.9211203796       -4.5941271121       -0.8713070114
  H         0.0855713388       -3.1605880797       -1.4744864986
  H         1.8567127444       -3.1958017393       -1.4292847601
  H         1.3252638140        4.7561231473        0.8220460578
  H         2.3338465498        3.5091356140        1.6267004443
  H         0.8079897171        4.0147227614        2.3912542955
      40
 i =       86, E =      -325.5843604279
  S        -0.7852376058        0.9505785510        3.6546616350
  S         2.0456058667        1.1193501733        4.0014049610
  F        -0.8091579094        1.3750157568        6.3103211334
  F        -2.7637257059        1.5077109510        5.3119802129
  F        -1.8668825176       -0.4531768239        5.6868213558
  F         3.0596233352       -1.1210756356        5.0652062218
  F         3.9963803527        0.7497123394        5.7496057604
  F         2.0021749676        0.1851409481        6.5001225678
  O        -1.5788889574        0.0552209406        2.8193831961
  O        -0.8089232707        2.3817701802        3.3659272884
  O         1.9447117693        2.5020349263        4.4465675481
  O         2.9421781339        0.8208162732        2.8745434179
  N         0.6730110442        0.2982226147        3.8099477280
  C        -1.5906009311        0.8284638457        5.3475989066
  C         2.8146587849        0.1668279787        5.4173315832
  N        -0.0525458120        0.7859606064        0.1331901677
  N         0.5973609440        2.7867034019        0.7061070952
  C        -0.1452670949       -0.6870244751        0.0354175166
  C         1.0718870741       -1.4020937677        0.6166812813
  C         0.9181633257       -2.9318550446        0.5420988477
  C         0.9402941336        1.4858042941        0.7079016578
  C        -1.0582200253        1.6645820271       -0.2363474987
  C        -0.6523407817        2.9181278159        0.1270980058
  C         0.9318021092       -3.5031026088       -0.8840101423
  C         1.3207890392        3.8393679205        1.4285714861
  H        -0.2951290974       -0.9272522627       -1.0248720589
  H        -1.0446786044       -0.9659889313        0.6015421077
  H         1.9827471337       -1.0959886169        0.0796735899
  H         1.1892698933       -1.0990887647        1.6682780265
  H        -0.0050655837       -3.2270083726        1.0610495415
  H         1.7350616939       -3.3783027075        1.1245600525
  H         1.8331250512        1.0834726346        1.1798842982
  H        -1.9724475230        1.3197505503       -0.6988877463
  H        -1.1460305401        3.8762369453        0.0448011663
  H         0.8960936586       -4.6020651241       -0.8700707671
  H         0.0745040788       -3.1630149436       -1.4812573204
  H         1.8446859084       -3.2097690172       -1.4205488934
  H         1.3274433810        4.7517896107        0.8244991186
  H         2.3448964520        3.5020483868        1.6140452085
  H         0.8230076970        3.9997008713        2.3928579061
      40
 i =       87, E =      -325.5843695398
  S        -0.7854145696        0.9508269462        3.6549166191
  S         2.0455192445        1.1189564085        4.0015263675
  F        -0.8092730700        1.3750352459        6.3104056246
  F        -2.7641342073        1.5078065241        5.3119942454
  F        -1.8670593697       -0.4530653130        5.6867388854
  F         3.0594449681       -1.1211682649        5.0652665380
  F         3.9964293968        0.7495826904        5.7494728726
  F         2.0021842935        0.1852947363        6.5002626736
  O        -1.5797269766        0.0554438732        2.8201080291
  O        -0.8086367809        2.3819508499        3.3657877881
  O         1.9448511811        2.5017693353        4.4466274908
  O         2.9418581674        0.8204218804        2.8745641409
  N         0.6728952521        0.2979178239        3.8107612408
  C        -1.5908923526        0.8285562220        5.3477208840
  C         2.8146055930        0.1669297203        5.4172389778
  N        -0.0546850718        0.7859810315        0.1346506817
  N         0.5982276107        2.7863191853        0.7051432380
  C        -0.1481351903       -0.6874613097        0.0380363622
  C         1.0696092251       -1.4010032553        0.6190513732
  C         0.9181590520       -2.9309038564        0.5446417820
  C         0.9392252634        1.4848581953        0.7079372986
  C        -1.0594141171        1.6654385152       -0.2352045516
  C        -0.6512036134        2.9188646789        0.1265578536
  C         0.9323540237       -3.5013207836       -0.8814721164
  C         1.3246364628        3.8383179096        1.4256037073
  H        -0.2981127221       -0.9286420324       -1.0217159154
  H        -1.0467823268       -0.9655236661        0.6051338401
  H         1.9793217082       -1.0944071434        0.0812009596
  H         1.1880480965       -1.0969191589        1.6707320597
  H        -0.0036947825       -3.2277806972        1.0643049596
  H         1.7368185012       -3.3758578356        1.1252509446
  H         1.8323562706        1.0824943409        1.1790907623
  H        -1.9736575041        1.3204061492       -0.6979297593
  H        -1.1425924966        3.8777692281        0.0426296043
  H         0.8989790200       -4.6001078125       -0.8688180247
  H         0.0750038665       -3.1627873666       -1.4784282062
  H         1.8443978521       -3.2062500005       -1.4178936661
  H         1.3211399273        4.7537611951        0.8258171843
  H         2.3523653550        3.5042067235        1.5978058988
  H         0.8365593666        3.9919584079        2.3962603733
      40
 i =       88, E =      -325.5843809906
  S        -0.7853095336        0.9507688064        3.6554994193
  S         2.0452725088        1.1183394512        4.0018325883
  F        -0.8093934520        1.3751456300        6.3106429412
  F        -2.7646119844        1.5078114108        5.3121111421
  F        -1.8671761691       -0.4529579354        5.6869917937
  F         3.0596466831       -1.1213152829        5.0651977668
  F         3.9964904461        0.7496731193        5.7493629548
  F         2.0022384962        0.1852677812        6.5002393973
  O        -1.5787369491        0.0551386009        2.8199084766
  O        -0.8080361614        2.3818945808        3.3661433357
  O         1.9450580726        2.5012593370        4.4471226202
  O         2.9411727284        0.8197923946        2.8745798408
  N         0.6729459371        0.2973775023        3.8128617258
  C        -1.5912691144        0.8285824743        5.3481634193
  C         2.8147765615        0.1670266679        5.4170853984
  N        -0.0601878176        0.7860507526        0.1340726037
  N         0.6005346269        2.7838102515        0.7041537074
  C        -0.1576864244       -0.6881174194        0.0397358721
  C         1.0565727116       -1.4026959183        0.6271690378
  C         0.9058984531       -2.9327109292        0.5511710564
  C         0.9359790630        1.4807485659        0.7082340853
  C        -1.0605261113        1.6695398505       -0.2379101063
  C        -0.6473013482        2.9215842200        0.1239698136
  C         0.9292213865       -3.5008817209       -0.8759226964
  C         1.3339537197        3.8318010608        1.4235442501
  H        -0.3033969382       -0.9316198519       -1.0197793893
  H        -1.0589635742       -0.9628751542        0.6043576261
  H         1.9688702727       -1.0967463793        0.0937859671
  H         1.1717911886       -1.0988303803        1.6794043225
  H        -0.0183626409       -3.2308732655        1.0660751001
  H         1.7235399391       -3.3777832552        1.1350164110
  H         1.8277907889        1.0758184985        1.1802464166
  H        -1.9748309260        1.3283359350       -0.7039591777
  H        -1.1331121458        3.8829733423        0.0371778507
  H         0.8931191049       -4.5995905738       -0.8657129287
  H         0.0768247684       -3.1593349721       -1.4792784408
  H         1.8456922203       -3.2063745394       -1.4060538004
  H         1.3220083585        4.7514677715        0.8297270108
  H         2.3649047129        3.4980509472        1.5801404284
  H         0.8578842680        3.9787572503        2.4018347866
      40
 i =       89, E =      -325.5843871717
  S        -0.7855667159        0.9503967941        3.6557739893
  S         2.0446054495        1.1177403154        4.0016215803
  F        -0.8094940685        1.3749955559        6.3106633690
  F        -2.7646633220        1.5078212067        5.3121627857
  F        -1.8673416164       -0.4530195417        5.6869743406
  F         3.0594421085       -1.1215560546        5.0653148935
  F         3.9964362066        0.7494342385        5.7491985045
  F         2.0022691012        0.1853510298        6.5003876870
  O        -1.5791401940        0.0546536734        2.8203973876
  O        -0.8080223768        2.3815656949        3.3662932924
  O         1.9443008520        2.5007068257        4.4468699407
  O         2.9402450486        0.8193527607        2.8740296756
  N         0.6724858697        0.2966426195        3.8131512646
  C        -1.5914411453        0.8284905068        5.3483472097
  C         2.8146335039        0.1668643724        5.4171403176
  N        -0.0621576712        0.7861321206        0.1328177870
  N         0.6015817125        2.7835379015        0.7018681192
  C        -0.1603919642       -0.6881655705        0.0402735033
  C         1.0528129470       -1.4029295873        0.6286979832
  C         0.9026294831       -2.9330288285        0.5521544652
  C         0.9352774113        1.4799531280        0.7062987348
  C        -1.0613354842        1.6707830440       -0.2388244314
  C        -0.6463429612        2.9225227053        0.1223702684
  C         0.9262490082       -3.5015811190       -0.8744724083
  C         1.3381701498        3.8303540616        1.4194400142
  H        -0.3053106437       -0.9333623120       -1.0189106613
  H        -1.0625707717       -0.9619657234        0.6042927786
  H         1.9663965316       -1.0967396268        0.0973969495
  H         1.1665303799       -1.1000781894        1.6815382556
  H        -0.0216553568       -3.2315924908        1.0666182608
  H         1.7208317398       -3.3776098444        1.1357422066
  H         1.8265884265        1.0743428123        1.1790433534
  H        -1.9764451695        1.3319899969       -0.7045872851
  H        -1.1315162046        3.8842114693        0.0352164556
  H         0.8875389802       -4.6000902484       -0.8642482658
  H         0.0752482647       -3.1584624576       -1.4785152313
  H         1.8437358131       -3.2090271393       -1.4043181676
  H         1.3204557319        4.7518967885        0.8288438836
  H         2.3708922308        3.4978133011        1.5670633500
  H         0.8690253520        3.9732120656        2.4018104108
      40
 i =       90, E =      -325.5843933017
  S        -0.7858082724        0.9497690183        3.6559304254
  S         2.0438256011        1.1173113257        4.0012460347
  F        -0.8094924649        1.3750505024        6.3106422225
  F        -2.7645842912        1.5076687887        5.3122915062
  F        -1.8671799696       -0.4530624115        5.6871824804
  F         3.0595531471       -1.1215574201        5.0653430798
  F         3.9962560775        0.7495900434        5.7492003226
  F         2.0022209467        0.1852901516        6.5003233297
  O        -1.5789740286        0.0539539614        2.8203183027
  O        -0.8080231907        2.3809518274        3.3662199727
  O         1.9434937040        2.5002588512        4.4465029923
  O         2.9394411315        0.8190290884        2.8734303784
  N         0.6718703940        0.2959535763        3.8137289186
  C        -1.5914266755        0.8284575335        5.3484862186
  C         2.8145391084        0.1667509357        5.4172236688
  N        -0.0649587269        0.7856136171        0.1297031172
  N         0.6043515383        2.7816312182        0.6979975870
  C        -0.1665284536       -0.6883785336        0.0379405917
  C         1.0430679899       -1.4058583809        0.6313609371
  C         0.8901360939       -2.9357276124        0.5537407843
  C         0.9344218964        1.4771703694        0.7034583356
  C        -1.0612930704        1.6730306761       -0.2426190190
  C        -0.6433206694        2.9238591508        0.1183050277
  C         0.9176125175       -3.5043733569       -0.8727996011
  C         1.3451003693        3.8259876226        1.4145304222
  H        -0.3084984821       -0.9347835149       -1.0216518786
  H        -1.0712166141       -0.9597697999        0.5989729886
  H         1.9594850993       -1.1012578088        0.1044294137
  H         1.1524661404       -1.1044791500        1.6847896122
  H        -0.0368060906       -3.2326626192        1.0645000282
  H         1.7058061820       -3.3817200889        1.1404615359
  H         1.8239366927        1.0693641230        1.1780525008
  H        -1.9775369147        1.3388489587       -0.7087425502
  H        -1.1273139132        3.8863579549        0.0309501562
  H         0.8725815667       -4.6026248344       -0.8624568123
  H         0.0709135411       -3.1570076937       -1.4803817697
  H         1.8386195058       -3.2166036418       -1.3993404984
  H         1.3255308941        4.7490838377        0.8265894495
  H         2.3781770635        3.4923777495        1.5561421756
  H         0.8808229300        3.9669127041        2.3993445641
      40
 i =       91, E =      -325.5843973438
  S        -0.7860762024        0.9495022469        3.6555799029
  S         2.0434351563        1.1172223958        4.0011047191
  F        -0.8094630921        1.3749127058        6.3104437371
  F        -2.7644126741        1.5077171951        5.3122576338
  F        -1.8672881505       -0.4531421327        5.6870815432
  F         3.0595439585       -1.1215875107        5.0653665203
  F         3.9962020734        0.7495213311        5.7492323029
  F         2.0022406529        0.1852173154        6.5003083559
  O        -1.5794602637        0.0538686450        2.8200382338
  O        -0.8080277938        2.3806375509        3.3655977382
  O         1.9430980064        2.5002226627        4.4460815988
  O         2.9388845489        0.8189198887        2.8730465811
  N         0.6713594601        0.2957764221        3.8137030577
  C        -1.5914019564        0.8284063666        5.3482497715
  C         2.8144622884        0.1665682227        5.4173253635
  N        -0.0678509172        0.7843103134        0.1261085763
  N         0.6088492153        2.7783428647        0.6936843026
  C        -0.1747747196       -0.6890262409        0.0348331555
  C         1.0296518944       -1.4109756548        0.6332869957
  C         0.8718669923       -2.9401857042        0.5551960035
  C         0.9335927812        1.4726113122        0.7007126523
  C        -1.0600375859        1.6755751827       -0.2483157504
  C        -0.6377975075        2.9249953880        0.1124069576
  C         0.9047650245       -3.5089996893       -0.8710355412
  C         1.3531885833        3.8198348075        1.4105232869
  H        -0.3138419493       -0.9354875110       -1.0253537836
  H        -1.0830966669       -0.9567131693        0.5920785576
  H         1.9495634969       -1.1094856550        0.1104446034
  H         1.1346177574       -1.1099019239        1.6870592930
  H        -0.0587444485       -3.2340440891        1.0611859658
  H         1.6830343407       -3.3889117311        1.1463560655
  H         1.8205022898        1.0616664302        1.1775506100
  H        -1.9771449680        1.3458126344       -0.7154703558
  H        -1.1190287190        3.8890581922        0.0242196912
  H         0.8532740784       -4.6069119701       -0.8609184189
  H         0.0639156604       -3.1565129420       -1.4839641723
  H         1.8307139995       -3.2264761535       -1.3917918714
  H         1.3314934020        4.7447720787        0.8256100858
  H         2.3866615614        3.4852321309        1.5464915600
  H         0.8929022495        3.9577858068        2.3975311814
      40
 i =       92, E =      -325.5844006761
  S        -0.7863738900        0.9494818504        3.6554027910
  S         2.0432712124        1.1173538174        4.0009841006
  F        -0.8094210592        1.3749706009        6.3103976475
  F        -2.7644169395        1.5077066323        5.3122915794
  F        -1.8671947798       -0.4531669082        5.6870848330
  F         3.0595655677       -1.1214727349        5.0653391969
  F         3.9960949477        0.7496262196        5.7492419925
  F         2.0022030643        0.1851614564        6.5002387379
  O        -1.5803177320        0.0538984181        2.8203837645
  O        -0.8080547196        2.3804907814        3.3648723403
  O         1.9430279092        2.5003571636        4.4458307547
  O         2.9388093104        0.8188769284        2.8729882227
  N         0.6709245749        0.2958245374        3.8135537245
  C        -1.5913705767        0.8284943676        5.3481097424
  C         2.8143490561        0.1665350736        5.4173271627
  N        -0.0691097916        0.7835897339        0.1250548003
  N         0.6111285655        2.7765130182        0.6917466580
  C        -0.1787305834       -0.6892585440        0.0332829099
  C         1.0232781534       -1.4129594807        0.6344563446
  C         0.8641489600       -2.9417641444        0.5560101835
  C         0.9333636674        1.4703624105        0.6997401653
  C        -1.0595686672        1.6764670083       -0.2500931000
  C        -0.6352314773        2.9251872013        0.1102111682
  C         0.8988868419       -3.5104654153       -0.8701465177
  C         1.3570428012        3.8171179084        1.4080833644
  H        -0.3170104864       -0.9353504279       -1.0271310994
  H        -1.0883214455       -0.9552004931        0.5888569137
  H         1.9448325480       -1.1125214455        0.1138422674
  H         1.1253325528       -1.1116969014        1.6881112916
  H        -0.0674406665       -3.2348090382        1.0604355870
  H         1.6735230824       -3.3912484121        1.1483384384
  H         1.8189482187        1.0579955314        1.1775261348
  H        -1.9771585655        1.3480751950       -0.7170713153
  H        -1.1152063067        3.8899683784        0.0223101376
  H         0.8450422417       -4.6081792904       -0.8603571207
  H         0.0604496490       -3.1558769302       -1.4845413114
  H         1.8262078367       -3.2298916526       -1.3884217656
  H         1.3356147574        4.7421031891        0.8234395597
  H         2.3901592310        3.4818175623        1.5431276293
  H         0.8976214611        3.9553817328        2.3952025614
      40
 i =       93, E =      -325.5844045157
  S        -0.7866181460        0.9497440564        3.6549359197
  S         2.0433942954        1.1174743887        4.0010079262
  F        -0.8093588611        1.3749945080        6.3102079168
  F        -2.7645514847        1.5077426838        5.3122264204
  F        -1.8672035694       -0.4531506805        5.6869498545
  F         3.0595692791       -1.1213634949        5.0653538770
  F         3.9960411336        0.7496717327        5.7493571772
  F         2.0021041999        0.1851566523        6.5002454673
  O        -1.5810810097        0.0541843146        2.8203656881
  O        -0.8081134148        2.3806193070        3.3639839812
  O         1.9432319167        2.5004680561        4.4458219848
  O         2.9388308846        0.8188879150        2.8729626491
  N         0.6706562740        0.2960617652        3.8132719692
  C        -1.5914254250        0.8286239097        5.3477886654
  C         2.8142510493        0.1665266794        5.4173626995
  N        -0.0717873610        0.7824565017        0.1233408998
  N         0.6146426223        2.7729442740        0.6904663183
  C        -0.1861394860       -0.6898217162        0.0305154448
  C         1.0108743196       -1.4170839251        0.6374615353
  C         0.8482338698       -2.9453084374        0.5579668397
  C         0.9320299132        1.4657391842        0.6995068791
  C        -1.0586319932        1.6787425399       -0.2537381760
  C        -0.6302781447        2.9259893179        0.1068641155
  C         0.8889633042       -3.5132289885       -0.8682742565
  C         1.3629827131        3.8115747762        1.4071502967
  H        -0.3212552860       -0.9348722531       -1.0306860402
  H        -1.0986209934       -0.9526021778        0.5823272870
  H         1.9355882332       -1.1189797294        0.1216735261
  H         1.1068865099       -1.1158086414        1.6917762539
  H        -0.0867203674       -3.2362414329        1.0578274360
  H         1.6529980133       -3.3974289674        1.1546051307
  H         1.8152904192        1.0506417809        1.1789505990
  H        -1.9764220196        1.3524495547       -0.7221340222
  H        -1.1065337466        3.8925531204        0.0185603694
  H         0.8313833275       -4.6107181355       -0.8596578727
  H         0.0557466322       -3.1549393287       -1.4875565235
  H         1.8210063385       -3.2359292140       -1.3800033411
  H         1.3462589793        4.7358341383        0.8215551928
  H         2.3942674201        3.4726002230        1.5447042058
  H         0.9022262739        3.9525978954        2.3929136375
      40
 i =       94, E =      -325.5844081620
  S        -0.7870452020        0.9501759949        3.6545218297
  S         2.0433714551        1.1174678945        4.0009724044
  F        -0.8093536534        1.3750846615        6.3101596179
  F        -2.7648099476        1.5078694720        5.3122160648
  F        -1.8672145708       -0.4529867273        5.6868998792
  F         3.0596670008       -1.1213994872        5.0652274255
  F         3.9959938878        0.7497165475        5.7492571532
  F         2.0020979062        0.1850582154        6.5001008137
  O        -1.5821630805        0.0545896232        2.8204542086
  O        -0.8080358000        2.3809004429        3.3630326359
  O         1.9434333323        2.5004098556        4.4460165757
  O         2.9387902618        0.8187310962        2.8730309576
  N         0.6702879176        0.2961239947        3.8126317696
  C        -1.5915609435        0.8288778554        5.3476073068
  C         2.8142036407        0.1664697466        5.4171225909
  N        -0.0754926996        0.7813387868        0.1211479264
  N         0.6189442398        2.7685043008        0.6888615597
  C        -0.1962146648       -0.6903087576        0.0267896776
  C         0.9935394256       -1.4227708968        0.6418439909
  C         0.8255581258       -2.9503124184        0.5608177682
  C         0.9301727248        1.4598194714        0.6991438273
  C        -1.0576005939        1.6819924184       -0.2581697888
  C        -0.6240183141        2.9272980578        0.1028959801
  C         0.8754707025       -3.5174714387       -0.8657382479
  C         1.3714843530        3.8044455761        1.4051618812
  H        -0.3268784086       -0.9342595991       -1.0351479193
  H        -1.1130731650       -0.9490349596        0.5733739807
  H         1.9236039377       -1.1281883898        0.1331841196
  H         1.0824154410       -1.1215333248        1.6964810166
  H        -0.1137905951       -3.2379386279        1.0544069722
  H         1.6241655515       -3.4056823776        1.1630255278
  H         1.8106475541        1.0410478525        1.1804323404
  H        -1.9757920214        1.3582913309       -0.7281174015
  H        -1.0946352317        3.8963846509        0.0136104643
  H         0.8137515415       -4.6147517875       -0.8585376559
  H         0.0490446436       -3.1553059171       -1.4916681545
  H         1.8128148391       -3.2434405726       -1.3687925201
  H         1.3607568930        4.7275465451        0.8176440577
  H         2.4006876439        3.4601623656        1.5451951637
  H         0.9098814039        3.9501093879        2.3898840847
      40
 i =       95, E =      -325.5844105190
  S        -0.7871944952        0.9503769303        3.6544837815
  S         2.0433627721        1.1172476297        4.0008900569
  F        -0.8093859564        1.3751295362        6.3101886020
  F        -2.7649357251        1.5079343841        5.3122321915
  F        -1.8672351276       -0.4528289859        5.6868733836
  F         3.0595695337       -1.1214871651        5.0652879396
  F         3.9959678702        0.7496613868        5.7492065985
  F         2.0020639088        0.1851473995        6.5002025118
  O        -1.5824047213        0.0547352470        2.8204690716
  O        -0.8080921284        2.3811145117        3.3631469259
  O         1.9433692042        2.5001312990        4.4462075462
  O         2.9388246926        0.8187183026        2.8729781753
  N         0.6702985151        0.2960048229        3.8122179208
  C        -1.5916418117        0.8289989395        5.3476824244
  C         2.8141468081        0.1664688926        5.4170837527
  N        -0.0764678028        0.7811830618        0.1209048713
  N         0.6193243292        2.7673960200        0.6897836393
  C        -0.1983195214       -0.6903019437        0.0256724600
  C         0.9889539774       -1.4242379680        0.6430322871
  C         0.8190021384       -2.9516362027        0.5610274441
  C         0.9294500634        1.4583741619        0.6996617676
  C        -1.0575801493        1.6827296295       -0.2585456015
  C        -0.6229462531        2.9274986407        0.1030883468
  C         0.8715381357       -3.5187940811       -0.8652747852
  C         1.3729647932        3.8029414558        1.4054428122
  H        -0.3269743151       -0.9337942022       -1.0366017317
  H        -1.1163593443       -0.9483653554        0.5704078943
  H         1.9206014400       -1.1307273897        0.1373862281
  H         1.0751653644       -1.1235932050        1.6980936454
  H        -0.1217005898       -3.2379395470        1.0526043909
  H         1.6155382487       -3.4081480960        1.1649312039
  H         1.8094932984        1.0388810115        1.1811358886
  H        -1.9757871853        1.3595787386       -0.7289909043
  H        -1.0920014201        3.8971204475        0.0134792718
  H         0.8093692939       -4.6160871712       -0.8586168779
  H         0.0467726238       -3.1561640631       -1.4931053361
  H         1.8102297551       -3.2451443380       -1.3659544330
  H         1.3688400662        4.7238624726        0.8144356216
  H         2.4000176681        3.4546318042        1.5514041539
  H         0.9078792615        3.9541498113        2.3877455788
      40
 i =       96, E =      -325.5844129221
  S        -0.7872432158        0.9505358953        3.6547897828
  S         2.0432453026        1.1169928801        4.0008688360
  F        -0.8094842245        1.3751049775        6.3103334916
  F        -2.7649986902        1.5080044699        5.3123052553
  F        -1.8673369251       -0.4526728448        5.6869118747
  F         3.0594901750       -1.1216743714        5.0653028510
  F         3.9960153834        0.7495283850        5.7490490517
  F         2.0021303522        0.1852095336        6.5002596704
  O        -1.5821904410        0.0548515932        2.8204655801
  O        -0.8081000995        2.3813859499        3.3640195678
  O         1.9432090800        2.4998294403        4.4464523157
  O         2.9388269218        0.8187373547        2.8730265277
  N         0.6704815189        0.2957845152        3.8119460879
  C        -1.5917434000        0.8290180799        5.3480069155
  C         2.8141977570        0.1664417068        5.4170030638
  N        -0.0769903925        0.7816382726        0.1219995895
  N         0.6181262814        2.7676327247        0.6922926111
  C        -0.1981765007       -0.6898434287        0.0255664761
  C         0.9874886726       -1.4241620006        0.6451228941
  C         0.8170914759       -2.9515125402        0.5614631923
  C         0.9289294238        1.4586120749        0.7009400534
  C        -1.0584057561        1.6829985870       -0.2563195518
  C        -0.6240670945        2.9277437480        0.1058419899
  C         0.8720283120       -3.5183600991       -0.8648584424
  C         1.3725287026        3.8034548835        1.4067072091
  H        -0.3242687889       -0.9330825622       -1.0369969057
  H        -1.1173938599       -0.9485913218        0.5684514224
  H         1.9208364372       -1.1307552578        0.1427422605
  H         1.0715571566       -1.1247330933        1.7008740088
  H        -0.1245172557       -3.2373972653        1.0512515407
  H         1.6125353457       -3.4082654070        1.1665443948
  H         1.8096624718        1.0392533694        1.1814440900
  H        -1.9766250026        1.3600012014       -0.7267021118
  H        -1.0929645150        3.8972676014        0.0160753608
  H         0.8114881073       -4.6157940513       -0.8587177422
  H         0.0472916722       -3.1573135786       -1.4935362386
  H         1.8106465829       -3.2430884213       -1.3647544946
  H         1.3780110790        4.7207806908        0.8099608798
  H         2.3965073086        3.4497985733        1.5621773137
  H         0.9018646024        3.9633877399        2.3851415613
      40
 i =       97, E =      -325.5844140372
  S        -0.7871964638        0.9505956507        3.6549314759
  S         2.0432259817        1.1169112696        4.0007960017
  F        -0.8094991874        1.3751274849        6.3103878248
  F        -2.7649796725        1.5079573144        5.3123429617
  F        -1.8672712606       -0.4526258336        5.6869601660
  F         3.0594776166       -1.1216759559        5.0653547345
  F         3.9959886764        0.7495408130        5.7490805566
  F         2.0021125445        0.1852434598        6.5003046841
  O        -1.5819508622        0.0549130361        2.8204211611
  O        -0.8080839565        2.3815113791        3.3644829363
  O         1.9431263346        2.4997186517        4.4464662575
  O         2.9388177015        0.8187897115        2.8729166025
  N         0.6705840914        0.2957487279        3.8119552046
  C        -1.5917278937        0.8290085345        5.3481508385
  C         2.8142056344        0.1664640060        5.4170616737
  N        -0.0780210382        0.7814087656        0.1216566559
  N         0.6190396119        2.7667981441        0.6923257812
  C        -0.2005238979       -0.6899988182        0.0248607021
  C         0.9830505221       -1.4258855596        0.6464825493
  C         0.8111514959       -2.9530173337        0.5619793711
  C         0.9286325740        1.4573984600        0.7008024259
  C        -1.0584086501        1.6838343965       -0.2566918098
  C        -0.6229394384        2.9281616328        0.1057058085
  C         0.8681566303       -3.5197933416       -0.8642382580
  C         1.3746468639        3.8021633461        1.4062235824
  H        -0.3246911216       -0.9331049112       -1.0379744601
  H        -1.1209976878       -0.9479830945        0.5660234844
  H         1.9177279984       -1.1335286942        0.1462970623
  H         1.0656100769       -1.1269613153        1.7025568454
  H        -0.1317693283       -3.2379150639        1.0497278580
  H         1.6050015623       -3.4106714902        1.1685747988
  H         1.8091758878        1.0371561421        1.1810329935
  H        -1.9768872624        1.3624297081       -0.7275323179
  H        -1.0909932006        3.8981482998        0.0154706505
  H         0.8061360431       -4.6172561264       -0.8582545599
  H         0.0449711911       -3.1576068684       -1.4947160827
  H         1.8082290804       -3.2455243410       -1.3625221845
  H         1.3828446060        4.7183929485        0.8078401561
  H         2.3976251673        3.4464688959        1.5637660278
  H         0.9030012648        3.9647909006        2.3837996635
      40
 i =       98, E =      -325.5844155362
  S        -0.7871257442        0.9507398651        3.6550813005
  S         2.0432016050        1.1169950745        4.0006930015
  F        -0.8095001913        1.3750651254        6.3104281237
  F        -2.7648498183        1.5078861181        5.3123667813
  F        -1.8672498565       -0.4526748430        5.6869962025
  F         3.0595141387       -1.1216858391        5.0653467880
  F         3.9959756698        0.7495088394        5.7491195410
  F         2.0021229846        0.1852066892        6.5002604774
  O        -1.5817981621        0.0552742813        2.8202496637
  O        -0.8080787378        2.3817854248        3.3652807295
  O         1.9430287178        2.4998092038        4.4462858770
  O         2.9389232122        0.8188979828        2.8728788220
  N         0.6707579722        0.2958724070        3.8117278205
  C        -1.5916610206        0.8288667259        5.3482927642
  C         2.8142473653        0.1664682143        5.4170891049
  N        -0.0778143555        0.7817656433        0.1231874361
  N         0.6188569150        2.7677503137        0.6931935390
  C        -0.1997557475       -0.6897552894        0.0264736452
  C         0.9837176011       -1.4257069962        0.6475019610
  C         0.8126347982       -2.9527444131        0.5623388325
  C         0.9294043627        1.4585600313        0.7008927597
  C        -1.0591152873        1.6836434114       -0.2535997106
  C        -0.6240890711        2.9282019327        0.1084171162
  C         0.8689315597       -3.5194725869       -0.8638933435
  C         1.3747350543        3.8040540203        1.4055826190
  H        -0.3235804969       -0.9330445161       -1.0362465648
  H        -1.1202887207       -0.9480478652        0.5674176100
  H         1.9182051857       -1.1331069065        0.1475646567
  H         1.0670909921       -1.1271081855        1.7035634721
  H        -0.1296824622       -3.2383864407        1.0501913777
  H         1.6071867167       -3.4099380917        1.1682730505
  H         1.8111056330        1.0386418063        1.1792802643
  H        -1.9781386597        1.3628329229       -0.7233318544
  H        -1.0933811651        3.8977636640        0.0186199517
  H         0.8091853588       -4.6169135006       -0.8578223626
  H         0.0442318832       -3.1592142549       -1.4931765077
  H         1.8073561790       -3.2432860850       -1.3639184045
  H         1.3834741556        4.7188872710        0.8052534417
  H         2.3973607790        3.4482402553        1.5643665242
  H         0.9027766493        3.9690076059        2.3825979144
      40
 i =       99, E =      -325.5844170353
  S        -0.7870826798        0.9509395254        3.6551984155
  S         2.0432463954        1.1172171484        4.0006768748
  F        -0.8094801130        1.3750270368        6.3104504802
  F        -2.7647665251        1.5078609307        5.3123900675
  F        -1.8672450011       -0.4527624495        5.6869732612
  F         3.0595571423       -1.1215949253        5.0653093403
  F         3.9959880919        0.7495600946        5.7491315403
  F         2.0021449622        0.1851784907        6.5001877828
  O        -1.5817195186        0.0555158491        2.8203318468
  O        -0.8080103017        2.3819482976        3.3653218468
  O         1.9431814104        2.5000428652        4.4461592867
  O         2.9389992264        0.8189358326        2.8728978047
  N         0.6707483919        0.2961303757        3.8119811020
  C        -1.5915897476        0.8288012482        5.3482839165
  C         2.8142723561        0.1665139471        5.4170969406
  N        -0.0789687698        0.7815449176        0.1236241245
  N         0.6207329380        2.7667133766        0.6929196685
  C        -0.2030150139       -0.6898208385        0.0265465911
  C         0.9781688084       -1.4277624015        0.6501841497
  C         0.8053798044       -2.9544874298        0.5639115086
  C         0.9296117990        1.4571758361        0.7007037789
  C        -1.0592272482        1.6847576301       -0.2529186911
  C        -0.6224072360        2.9288191220        0.1086346343
  C         0.8646405065       -3.5207578731       -0.8625866915
  C         1.3780269913        3.8027306181        1.4043417226
  H        -0.3248177928       -0.9328289466       -1.0364657787
  H        -1.1252230629       -0.9467233809        0.5653466177
  H         1.9143014788       -1.1364830598        0.1520752304
  H         1.0601448534       -1.1294845276        1.7066723440
  H        -0.1388484143       -3.2396473683        1.0489188041
  H         1.5978666453       -3.4130661070        1.1716184193
  H         1.8112301241        1.0361817185        1.1781411379
  H        -1.9788373440        1.3655242841       -0.7223856060
  H        -1.0908641727        3.8989661657        0.0189112816
  H         0.8047561874       -4.6181851196       -0.8564338607
  H         0.0412755871       -3.1603913814       -1.4934344336
  H         1.8040855567       -3.2447619840       -1.3610059379
  H         1.3875599510        4.7171872214        0.8035266287
  H         2.4002438319        3.4462235469        1.5631839917
  H         0.9066701511        3.9690082679        2.3812838143
      40
 i =      100, E =      -325.5844188195
  S        -0.7872019354        0.9511819496        3.6551728113
  S         2.0433472065        1.1174254065        4.0006943707
  F        -0.8094344076        1.3750956688        6.3104326555
  F        -2.7648181013        1.5078427958        5.3123904178
  F        -1.8671473006       -0.4527853856        5.6869371089
  F         3.0595815927       -1.1214659174        5.0652974449
  F         3.9959795469        0.7496507232        5.7492222392
  F         2.0021159567        0.1851627181        6.5001893273
  O        -1.5821597558        0.0558268386        2.8205801857
  O        -0.8080469582        2.3820917703        3.3650092408
  O         1.9434047071        2.5003061396        4.4459564227
  O         2.9390920096        0.8189026503        2.8729403875
  N         0.6705990872        0.2965168709        3.8121405612
  C        -1.5915356845        0.8288836533        5.3481510578
  C         2.8142404136        0.1665701148        5.4171514654
  N        -0.0796016966        0.7813443886        0.1254376741
  N         0.6223088066        2.7663173175        0.6930626247
  C        -0.2049295573       -0.6899962881        0.0282668314
  C         0.9753802584       -1.4290211046        0.6525375450
  C         0.8024935035       -2.9556198655        0.5652955898
  C         0.9301059707        1.4566066697        0.7009954907
  C        -1.0595930538        1.6852870620       -0.2505415982
  C        -0.6214259373        2.9290576678        0.1100609584
  C         0.8621822193       -3.5210725277       -0.8614103850
  C         1.3801369748        3.8025667639        1.4036914760
  H        -0.3258227165       -0.9325490485       -1.0349621547
  H        -1.1278707049       -0.9459670069        0.5659075636
  H         1.9116298526       -1.1380410568        0.1544412073
  H         1.0574485400       -1.1306097060        1.7089046762
  H        -0.1416193346       -3.2415364963        1.0496587322
  H         1.5947404660       -3.4147177630        1.1726619800
  H         1.8119452177        1.0349449591        1.1771734078
  H        -1.9799547064        1.3666099183       -0.7189299296
  H        -1.0893432289        3.8995790848        0.0209678780
  H         0.8027125774       -4.6186805853       -0.8552000119
  H         0.0387847975       -3.1606172723       -1.4923814528
  H         1.8015536495       -3.2445934548       -1.3597480878
  H         1.3884536661        4.7169467142        0.8028577683
  H         2.4026625409        3.4468718600        1.5615949072
  H         0.9095488233        3.9687405666        2.3808283385
      40
 i =      101, E =      -325.5844206670
  S        -0.7872664895        0.9513616939        3.6551221360
  S         2.0434180080        1.1175839257        4.0008283852
  F        -0.8094133235        1.3751604893        6.3103893708
  F        -2.7649478820        1.5079131327        5.3123432938
  F        -1.8671467925       -0.4527412451        5.6868712034
  F         3.0595974032       -1.1214306013        5.0652544177
  F         3.9959849540        0.7496768378        5.7492487648
  F         2.0020897302        0.1851282481        6.5001809505
  O        -1.5824098691        0.0558772654        2.8208782822
  O        -0.8080577024        2.3821220659        3.3644377536
  O         1.9436423252        2.5005362593        4.4458940572
  O         2.9390893810        0.8187754808        2.8730754424
  N         0.6704227051        0.2968362020        3.8126120680
  C        -1.5915542258        0.8290608353        5.3479615782
  C         2.8141969335        0.1665708688        5.4171252594
  N        -0.0804381348        0.7813201259        0.1277156684
  N         0.6240804276        2.7658049736        0.6935522428
  C        -0.2072489140       -0.6899663085        0.0304791840
  C         0.9716892479       -1.4304368423        0.6558466791
  C         0.7977149960       -2.9569927223        0.5675482690
  C         0.9305483897        1.4558050359        0.7016548927
  C        -1.0601948208        1.6861098536       -0.2474294590
  C        -0.6202811867        2.9294624193        0.1121469251
  C         0.8592990500       -3.5212693944       -0.8595231459
  C         1.3828265657        3.8019829465        1.4032845259
  H        -0.3268486479       -0.9322265453       -1.0329003889
  H        -1.1312269627       -0.9447061066        0.5665011527
  H         1.9084017547       -1.1401226555        0.1581201278
  H         1.0530665844       -1.1321480687        1.7123178178
  H        -0.1474109933       -3.2430104035        1.0502697928
  H         1.5888239411       -3.4173991209        1.1756939916
  H         1.8123315385        1.0333804762        1.1770914139
  H        -1.9815333356        1.3676648922       -0.7142900956
  H        -1.0873075111        3.9003999173        0.0242450627
  H         0.8020550186       -4.6189093975       -0.8539983840
  H         0.0357431735       -3.1620530890       -1.4906739368
  H         1.7984657876       -3.2429748740       -1.3570915280
  H         1.3914514149        4.7160867212        0.8020161583
  H         2.4052710349        3.4460399655        1.5611066887
  H         0.9125865730        3.9689686993        2.3803393764
      40
 i =      102, E =      -325.5844224292
  S        -0.7873755565        0.9513763393        3.6551693429
  S         2.0433403371        1.1175050576        4.0009930879
  F        -0.8094524284        1.3751802856        6.3103942715
  F        -2.7651078646        1.5080541172        5.3123517086
  F        -1.8672703394       -0.4526646614        5.6868337711
  F         3.0595452863       -1.1214595146        5.0652623144
  F         3.9960310256        0.7496480131        5.7491917012
  F         2.0021089887        0.1851485997        6.5002436279
  O        -1.5825056108        0.0556578014        2.8211628020
  O        -0.8080646352        2.3820070746        3.3639563885
  O         1.9437062942        2.5005140576        4.4459821430
  O         2.9389202385        0.8185834599        2.8732046477
  N         0.6701872983        0.2969063118        3.8130897964
  C        -1.5916826412        0.8292392295        5.3479162275
  C         2.8141705166        0.1665488787        5.4171170977
  N        -0.0814014084        0.7811613188        0.1299170366
  N         0.6253891229        2.7650792190        0.6942785987
  C        -0.2094346378       -0.6901349094        0.0327097418
  C         0.9684202228       -1.4317331012        0.6589655150
  C         0.7936677843       -2.9583560710        0.5693621606
  C         0.9306930126        1.4547710917        0.7025883765
  C        -1.0608997330        1.6867127540       -0.2444625166
  C        -0.6194242223        2.9297206869        0.1142551381
  C         0.8558816726       -3.5216085835       -0.8578683658
  C         1.3852009312        3.8008791980        1.4032832701
  H        -0.3279926580       -0.9322410494       -1.0307346991
  H        -1.1342333657       -0.9437475598        0.5675370854
  H         1.9056013893       -1.1416659722        0.1617148678
  H         1.0490037012       -1.1340260204        1.7156085337
  H        -0.1517839541       -3.2443599869        1.0512264988
  H         1.5841461126       -3.4195779066        1.1774036331
  H         1.8122128167        1.0318012234        1.1780094203
  H        -1.9832063977        1.3683207460       -0.7097072209
  H        -1.0852722461        3.9011772448        0.0273629266
  H         0.7986848744       -4.6194216600       -0.8529443745
  H         0.0323119591       -3.1619335184       -1.4888907077
  H         1.7951629151       -3.2429367822       -1.3550644351
  H         1.3945603912        4.7147836983        0.8017486051
  H         2.4074162364        3.4442128541        1.5611230004
  H         0.9153152728        3.9687087595        2.3803341616
      40
 i =      103, E =      -325.5844246831
  S        -0.7873423066        0.9511838201        3.6553339594
  S         2.0432290626        1.1172760777        4.0012335453
  F        -0.8095200862        1.3752932167        6.3104343655
  F        -2.7653038494        1.5081170224        5.3123559264
  F        -1.8673013414       -0.4524971568        5.6868905861
  F         3.0595041075       -1.1215370616        5.0653070766
  F         3.9960334365        0.7496094788        5.7491770151
  F         2.0020955387        0.1851654872        6.5003607648
  O        -1.5823629742        0.0550841233        2.8216196726
  O        -0.8080175835        2.3817122927        3.3635719828
  O         1.9436438370        2.5003192166        4.4462318083
  O         2.9386093652        0.8184046421        2.8733003716
  N         0.6700091781        0.2967313647        3.8139031464
  C        -1.5918350462        0.8294661014        5.3480037616
  C         2.8141457818        0.1664861851        5.4171743189
  N        -0.0829781757        0.7807194537        0.1321411889
  N         0.6274789347        2.7637866681        0.6947151413
  C        -0.2132393357       -0.6904927909        0.0349174971
  C         0.9622103316       -1.4344128782        0.6629541198
  C         0.7848124218       -2.9609639593        0.5719936450
  C         0.9307386238        1.4528641744        0.7032383901
  C        -1.0616944037        1.6876137117       -0.2411698479
  C        -0.6177637914        2.9300797672        0.1164247884
  C         0.8486925992       -3.5230814394       -0.8555113733
  C         1.3895708964        3.7984431637        1.4028000108
  H        -0.3300680501       -0.9324308138       -1.0287253213
  H        -1.1396048761       -0.9422102139        0.5678126768
  H         1.9005690161       -1.1455555491        0.1670782735
  H         1.0412235858       -1.1376427479        1.7198435399
  H        -0.1620666790       -3.2453321777        1.0518247886
  H         1.5733123140       -3.4240962239        1.1814674870
  H         1.8116170607        1.0288840975        1.1791408936
  H        -1.9854466638        1.3699135829       -0.7042500404
  H        -1.0818994265        3.9022783313        0.0305750235
  H         0.7908500430       -4.6208620461       -0.8519625998
  H         0.0257410324       -3.1624619114       -1.4869500651
  H         1.7886735762       -3.2444668264       -1.3514260917
  H         1.4003704033        4.7120919110        0.8009125056
  H         2.4112502513        3.4397534397        1.5601744240
  H         0.9204693216        3.9674271693        2.3801030714
      40
 i =      104, E =      -325.5844280605
  S        -0.7872278403        0.9508938409        3.6555748739
  S         2.0430665514        1.1169427885        4.0015495203
  F        -0.8096165375        1.3752765003        6.3105063272
  F        -2.7653999131        1.5082389787        5.3124066207
  F        -1.8675033596       -0.4523618475        5.6869606756
  F         3.0594803758       -1.1216703302        5.0653427703
  F         3.9960751596        0.7495176756        5.7490978254
  F         2.0021554419        0.1851617670        6.5004422877
  O        -1.5819141460        0.0544060677        2.8218758369
  O        -0.8078004715        2.3813381532        3.3632617951
  O         1.9435240219        2.4999869122        4.4466666320
  O         2.9382457229        0.8182302643        2.8734691672
  N         0.6698708167        0.2963767672        3.8148605208
  C        -1.5920392490        0.8295756337        5.3482144103
  C         2.8142001036        0.1663758783        5.4172253027
  N        -0.0861553532        0.7793107908        0.1343220795
  N         0.6317120706        2.7601467844        0.6947057504
  C        -0.2215648489       -0.6915387212        0.0368464786
  C         0.9485242997       -1.4405673200        0.6687667953
  C         0.7649415017       -2.9666533493        0.5756281491
  C         0.9306135184        1.4480388211        0.7037823781
  C        -1.0623752383        1.6892799464       -0.2379999647
  C        -0.6136525844        2.9305145267        0.1181805070
  C         0.8315746888       -3.5277406696       -0.8520075002
  C         1.3983179857        3.7922858923        1.4014603558
  H        -0.3355092643       -0.9331621157       -1.0270834562
  H        -1.1508285919       -0.9392579485        0.5663955948
  H         1.8897743159       -1.1549740919        0.1763150728
  H         1.0244378474       -1.1454263502        1.7262152402
  H        -0.1852201756       -3.2469395016        1.0512867185
  H         1.5488629880       -3.4336555988        1.1878550440
  H         1.8100433317        1.0217395175        1.1805896633
  H        -1.9883316940        1.3740401023       -0.6985109888
  H        -1.0742797769        3.9043530227        0.0328997841
  H         0.7691638287       -4.6253736686       -0.8501290067
  H         0.0115621779       -3.1630869966       -1.4852306468
  H         1.7742737051       -3.2522279921       -1.3446949216
  H         1.4114830382        4.7058936695        0.7994590100
  H         2.4190542952        3.4298384840        1.5572494148
  H         0.9313315324        3.9630191816        2.3796758133
      40
 i =      105, E =      -325.5844310268
  S        -0.7869833318        0.9505418954        3.6559531415
  S         2.0430443624        1.1166400766        4.0018185801
  F        -0.8096597330        1.3753027743        6.3106214412
  F        -2.7653591218        1.5082019591        5.3124621637
  F        -1.8674984567       -0.4522920284        5.6870763206
  F         3.0594848649       -1.1217338575        5.0654132518
  F         3.9960920717        0.7494827863        5.7491282290
  F         2.0021869167        0.1851675736        6.5005398317
  O        -1.5815148606        0.0537695951        2.8223408652
  O        -0.8075258133        2.3809643848        3.3633098613
  O         1.9434115729        2.4996432623        4.4470855817
  O         2.9380278508        0.8181954434        2.8735545610
  N         0.6699516367        0.2958944007        3.8157306418
  C        -1.5920855612        0.8295504810        5.3485090289
  C         2.8142864827        0.1663143197        5.4173726570
  N        -0.0892926058        0.7773625358        0.1354647522
  N         0.6360413118        2.7559810056        0.6942021925
  C        -0.2301803748       -0.6929219846        0.0376283346
  C         0.9343022731       -1.4473955144        0.6732219083
  C         0.7433439057       -2.9726626192        0.5786010926
  C         0.9304289939        1.4427136045        0.7036057204
  C        -1.0626479040        1.6905220790       -0.2361003452
  C        -0.6091934622        2.9304689363        0.1188802346
  C         0.8119218430       -3.5333713909       -0.8491494206
  C         1.4073218722        3.7853206198        1.3999651006
  H        -0.3418375899       -0.9341557626       -1.0266560848
  H        -1.1621521141       -0.9366430353        0.5643755962
  H         1.8786781660       -1.1659622659        0.1842559628
  H         1.0077041211       -1.1534026614        1.7310718066
  H        -0.2100890720       -3.2477612867        1.0504186050
  H         1.5223153163       -3.4440278544        1.1938541726
  H         1.8085713576        1.0139069354        1.1807511305
  H        -1.9905618756        1.3783020807       -0.6946143279
  H        -1.0664892570        3.9058914481        0.0333040684
  H         0.7433608712       -4.6306564826       -0.8485658172
  H        -0.0044719579       -3.1637767907       -1.4844759509
  H         1.7577063740       -3.2625547826       -1.3385286116
  H         1.4219145452        4.6992618018        0.7984576514
  H         2.4272616609        3.4193720618        1.5532106316
  H         0.9429488296        3.9568051288        2.3794868622
      40
 i =      106, E =      -325.5844353522
  S        -0.7865679454        0.9501033258        3.6563517860
  S         2.0432547444        1.1165569542        4.0018838685
  F        -0.8096097604        1.3752001214        6.3107541642
  F        -2.7649885049        1.5079928984        5.3125013506
  F        -1.8673883129       -0.4524939579        5.6872082884
  F         3.0595196429       -1.1217037935        5.0654747013
  F         3.9961094549        0.7494985385        5.7492032969
  F         2.0022253966        0.1851891965        6.5005552615
  O        -1.5810165488        0.0534984872        2.8224361547
  O        -0.8073140185        2.3806984077        3.3642028734
  O         1.9433318589        2.4994498065        4.4473451753
  O         2.9383490203        0.8184555429        2.8736371612
  N         0.6704751348        0.2954035763        3.8157905957
  C        -1.5918822831        0.8291255096        5.3488250535
  C         2.8144272638        0.1663537414        5.4175288896
  N        -0.0883927829        0.7761978951        0.1354957191
  N         0.6352643559        2.7552944362        0.6947188314
  C        -0.2285990514       -0.6938969764        0.0379378269
  C         0.9373967011       -1.4480991400        0.6701047487
  C         0.7446019925       -2.9729177162        0.5770700444
  C         0.9310764916        1.4424534555        0.7033620867
  C        -1.0625518392        1.6883771891       -0.2352090376
  C        -0.6102820087        2.9287226587        0.1198288621
  C         0.8067033839       -3.5350783198       -0.8505783200
  C         1.4062086232        3.7843594103        1.4012197657
  H        -0.3437750993       -0.9354250466       -1.0259268664
  H        -1.1584438375       -0.9381992814        0.5680746055
  H         1.8805838202       -1.1676782964        0.1789055434
  H         1.0142344837       -1.1537818667        1.7276537434
  H        -0.2075715423       -3.2458638403        1.0521895872
  H         1.5246339922       -3.4447643348        1.1899294810
  H         1.8101278930        1.0144104991        1.1794494638
  H        -1.9904843577        1.3761321056       -0.6930796810
  H        -1.0691231430        3.9034646012        0.0332701347
  H         0.7342036250       -4.6320112628       -0.8493089480
  H        -0.0105774499       -3.1630847342       -1.4832857020
  H         1.7516901914       -3.2677205619       -1.3430329690
  H         1.4171816020        4.6998982460        0.8020437604
  H         2.4271725296        3.4199985634        1.5507661443
  H         0.9440552355        3.9521715580        2.3825416456
      40
 i =      107, E =      -325.5844395516
  S        -0.7862774052        0.9499038471        3.6563691053
  S         2.0436035152        1.1166769284        4.0019225267
  F        -0.8094829312        1.3750118083        6.3107305345
  F        -2.7646027877        1.5078268001        5.3124233199
  F        -1.8673449864       -0.4527982413        5.6872010277
  F         3.0596201683       -1.1216936658        5.0654301960
  F         3.9961788952        0.7494729368        5.7492912751
  F         2.0022775785        0.1851208638        6.5004465230
  O        -1.5809072514        0.0537133369        2.8221199022
  O        -0.8071182882        2.3806372094        3.3647594821
  O         1.9434846122        2.4995144839        4.4473767831
  O         2.9387999960        0.8186406002        2.8737294803
  N         0.6709715523        0.2951999667        3.8153878459
  C        -1.5916090464        0.8286644315        5.3487811856
  C         2.8145818010        0.1663430290        5.4175768224
  N        -0.0881348638        0.7744738767        0.1356867779
  N         0.6357288371        2.7537013097        0.6949794175
  C        -0.2286912954       -0.6952852139        0.0382919187
  C         0.9381317271       -1.4501973364        0.6681486361
  C         0.7420869768       -2.9742942393        0.5767564057
  C         0.9318081380        1.4410257605        0.7027157094
  C        -1.0626851609        1.6864833173       -0.2338136549
  C        -0.6104445467        2.9268791071        0.1210902550
  C         0.7980617520       -3.5372809071       -0.8512378408
  C         1.4065240782        3.7821572121        1.4027442726
  H        -0.3470502675       -0.9366639496       -1.0254419002
  H        -1.1573633341       -0.9396422553        0.5711604606
  H         1.8809207963       -1.1717428436        0.1751430352
  H         1.0180502179       -1.1548677675        1.7253530733
  H        -0.2093975023       -3.2446449790        1.0549993994
  H         1.5226763219       -3.4478719594        1.1876462096
  H         1.8118106195        1.0128943820        1.1766736437
  H        -1.9910881196        1.3745356356       -0.6906188397
  H        -1.0701484634        3.9013852316        0.0341162986
  H         0.7205884198       -4.6337268108       -0.8494469143
  H        -0.0189952013       -3.1620382139       -1.4821713034
  H         1.7430435160       -3.2742898447       -1.3458005173
  H         1.4133833393        4.6998985273        0.8066340076
  H         2.4288189885        3.4197242752        1.5478865843
  H         0.9468149790        3.9454898048        2.3859632442
      40
 i =      108, E =      -325.5844429048
  S        -0.7862192157        0.9500217363        3.6563888818
  S         2.0438958247        1.1168029114        4.0017626265
  F        -0.8093901067        1.3750162110        6.3107455004
  F        -2.7644914658        1.5077102413        5.3123658108
  F        -1.8671638130       -0.4529924255        5.6871590971
  F         3.0596778876       -1.1215950072        5.0654111935
  F         3.9961728106        0.7495830844        5.7493436667
  F         2.0022506691        0.1851132956        6.5003803971
  O        -1.5812273933        0.0540347567        2.8223037440
  O        -0.8071066423        2.3807381074        3.3648398527
  O         1.9436993613        2.4996067758        4.4472182670
  O         2.9393019794        0.8186309670        2.8737505974
  N         0.6711643066        0.2952749607        3.8148969211
  C        -1.5913932859        0.8285306078        5.3486303848
  C         2.8145827263        0.1664194722        5.4175559712
  N        -0.0880511373        0.7728587715        0.1369028333
  N         0.6366828125        2.7519703568        0.6957260836
  C        -0.2292454548       -0.6967288417        0.0397758111
  C         0.9386044240       -1.4523700954        0.6671383473
  C         0.7396295779       -2.9759620697        0.5772010643
  C         0.9329470036        1.4394242238        0.7022789369
  C        -1.0634037181        1.6849042524       -0.2305126796
  C        -0.6107154574        2.9251336604        0.1240932038
  C         0.7886253447       -3.5393073035       -0.8511107808
  C         1.4073151035        3.7804670303        1.4038317922
  H        -0.3509683285       -0.9381098883       -1.0236285120
  H        -1.1563239159       -0.9411240712        0.5753765825
  H         1.8808155268       -1.1758723347        0.1721240008
  H         1.0215985023       -1.1559745531        1.7239804529
  H        -0.2105744495       -3.2446832587        1.0594268017
  H         1.5217330991       -3.4512618360        1.1847878444
  H         1.8140969147        1.0109391504        1.1734098540
  H        -1.9926271625        1.3730619787       -0.6857850781
  H        -1.0710972700        3.8994712725        0.0383083184
  H         0.7069365152       -4.6353621024       -0.8487010910
  H        -0.0285429494       -3.1609454526       -1.4798001836
  H         1.7330957290       -3.2801181707       -1.3484477500
  H         1.4091848844        4.7001406030        0.8104953051
  H         2.4313465346        3.4208786855        1.5441278216
  H         0.9506536069        3.9396221848        2.3891716801
      40
 i =      109, E =      -325.5844458612
  S        -0.7865285192        0.9503809198        3.6562018636
  S         2.0439011465        1.1168161967        4.0014563575
  F        -0.8093409984        1.3750190872        6.3106762063
  F        -2.7645968398        1.5077861937        5.3123252390
  F        -1.8671812394       -0.4530391832        5.6870458249
  F         3.0596576657       -1.1216153285        5.0653626230
  F         3.9961528728        0.7495611178        5.7493075487
  F         2.0022036379        0.1851003119        6.5003071144
  O        -1.5820882904        0.0545315506        2.8225169505
  O        -0.8072554197        2.3810156124        3.3646385018
  O         1.9437499292        2.4996687168        4.4468307432
  O         2.9395226806        0.8183867813        2.8736778923
  N         0.6709632477        0.2954912599        3.8140421376
  C        -1.5913619899        0.8286472011        5.3483964089
  C         2.8144752116        0.1663978567        5.4174096916
  N        -0.0889449377        0.7712876975        0.1393258059
  N         0.6380967624        2.7500529784        0.6967471264
  C        -0.2312084428       -0.6981679450        0.0422912037
  C         0.9367198149       -1.4551307212        0.6683074029
  C         0.7343510190       -2.9783026714        0.5791053497
  C         0.9339203058        1.4373991068        0.7017804797
  C        -1.0652238048        1.6838285049       -0.2248249575
  C        -0.6110962796        2.9236486468        0.1289429298
  C         0.7768138280       -3.5412042898       -0.8496081758
  C         1.4099941681        3.7784031645        1.4038994437
  H        -0.3548807579       -0.9393540930       -1.0209988059
  H        -1.1576734610       -0.9421904281        0.5793316934
  H         1.8790117836       -1.1808048970        0.1723630751
  H         1.0214395968       -1.1580758766        1.7248697702
  H        -0.2144745772       -3.2455097221        1.0650928654
  H         1.5179488538       -3.4556481330        1.1834287893
  H         1.8162915824        1.0082677814        1.1696783339
  H        -1.9958795043        1.3721178310       -0.6774335083
  H        -1.0714948167        3.8981354893        0.0457145511
  H         0.6912576327       -4.6368952896       -0.8469961085
  H        -0.0403404824       -3.1596586718       -1.4761621549
  H         1.7207944869       -3.2853754404       -1.3495588624
  H         1.4087291544        4.6989934930        0.8120194860
  H         2.4350670542        3.4202040688        1.5404972513
  H         0.9561487867        3.9356706161        2.3907452487
      40
 i =      110, E =      -325.5844484053
  S        -0.7869943639        0.9507753015        3.6561708582
  S         2.0436990008        1.1166935497        4.0010786473
  F        -0.8093624097        1.3751594457        6.3107034244
  F        -2.7648675722        1.5079161874        5.3123663453
  F        -1.8671623443       -0.4528732806        5.6870222071
  F         3.0595905432       -1.1216096846        5.0653634615
  F         3.9960625284        0.7496042732        5.7492207572
  F         2.0021261649        0.1851478712        6.5003134810
  O        -1.5831880810        0.0548853783        2.8231695355
  O        -0.8074834713        2.3812828379        3.3644205768
  O         1.9436603169        2.4995839670        4.4465091395
  O         2.9395526796        0.8180726055        2.8735806412
  N         0.6704948923        0.2957064248        3.8133833948
  C        -1.5914526599        0.8290248369        5.3483560441
  C         2.8142857862        0.1664061167        5.4172727453
  N        -0.0906972524        0.7696160304        0.1427973261
  N         0.6400087739        2.7475362527        0.6981760958
  C        -0.2348026615       -0.6996882352        0.0454930246
  C         0.9321491110       -1.4589066404        0.6708257878
  C         0.7251665110       -2.9816929650        0.5820830488
  C         0.9348226094        1.4345420912        0.7015717168
  C        -1.0678162007        1.6831292937       -0.2172346704
  C        -0.6113135690        2.9223205581        0.1353274837
  C         0.7612256816       -3.5439735443       -0.8468854287
  C         1.4147015726        3.7755120397        1.4028616178
  H        -0.3595450951       -0.9405526906       -1.0177011682
  H        -1.1611042747       -0.9428104900        0.5831191126
  H         1.8749421963       -1.1875050865        0.1744090945
  H         1.0179714257       -1.1616996357        1.7272112694
  H        -0.2228290457       -3.2465134000        1.0713624310
  H         1.5097285238       -3.4616376010        1.1833002285
  H         1.8182573074        1.0044433334        1.1664156331
  H        -2.0003839605        1.3718653071       -0.6664565245
  H        -1.0711943588        3.8971976478        0.0554675918
  H         0.6715495485       -4.6393438673       -0.8444833909
  H        -0.0558631013       -3.1588964586       -1.4712509572
  H         1.7047147836       -3.2914142692       -1.3495084918
  H         1.4112613292        4.6963247090        0.8114749922
  H         2.4404015237        3.4174170706        1.5354448300
  H         0.9646403856        3.9325290688        2.3914693967
      40
 i =      111, E =      -325.5844502340
  S        -0.7875507546        0.9511096885        3.6561675411
  S         2.0433044978        1.1165370390        4.0007968330
  F        -0.8094445315        1.3752336998        6.3107335258
  F        -2.7651259168        1.5080813383        5.3124477857
  F        -1.8672867563       -0.4526490726        5.6870263016
  F         3.0595310820       -1.1216777745        5.0653532251
  F         3.9959467557        0.7495683234        5.7491256805
  F         2.0020679305        0.1851447103        6.5003242760
  O        -1.5844198214        0.0552478346        2.8237496805
  O        -0.8077096395        2.3815418369        3.3643307857
  O         1.9433932859        2.4994683507        4.4463028861
  O         2.9392944263        0.8178264937        2.8735027403
  N         0.6699090809        0.2958613808        3.8127847770
  C        -1.5916564923        0.8293681029        5.3484615112
  C         2.8141081948        0.1663305866        5.4171606302
  N        -0.0925107985        0.7684926147        0.1458345154
  N         0.6412452069        2.7456762289        0.6995074597
  C        -0.2381344789       -0.7006460090        0.0480050756
  C         0.9274578603       -1.4619235039        0.6734253270
  C         0.7166803610       -2.9844018455        0.5848934694
  C         0.9351669444        1.4323506376        0.7015684400
  C        -1.0702476641        1.6828155054       -0.2107130540
  C        -0.6117711828        2.9215212993        0.1408736321
  C         0.7486740769       -3.5462029864       -0.8441915915
  C         1.4191684325        3.7731187297        1.4013123326
  H        -0.3627041348       -0.9409792783       -1.0152992563
  H        -1.1649340648       -0.9428519135        0.5852724672
  H         1.8708439649       -1.1928119915        0.1768834790
  H         1.0135954079       -1.1648927368        1.7297390249
  H        -0.2307603280       -3.2470747564        1.0762837395
  H         1.5016858342       -3.4661828789        1.1842812860
  H         1.8193128373        1.0015312339        1.1644090959
  H        -2.0043537977        1.3719161715       -0.6570697503
  H        -1.0711166535        3.8967850245        0.0638059266
  H         0.6564933635       -4.6413588362       -0.8420898783
  H        -0.0685333184       -3.1589403771       -1.4670300801
  H         1.6917821498       -3.2955143078       -1.3487142345
  H         1.4154465159        4.6934096284        0.8092452979
  H         2.4447202533        3.4136884598        1.5313703210
  H         0.9720288542        3.9315986775        2.3910025196
      40
 i =      112, E =      -325.5844520219
  S        -0.7880943844        0.9513268894        3.6562523165
  S         2.0428600002        1.1164125954        4.0006032902
  F        -0.8095338316        1.3753221018        6.3108062906
  F        -2.7653489144        1.5081879937        5.3125711609
  F        -1.8673564397       -0.4524039683        5.6870981222
  F         3.0594748348       -1.1216938510        5.0653673879
  F         3.9958221599        0.7495726671        5.7490414508
  F         2.0020306773        0.1851617819        6.5003711073
  O        -1.5856598903        0.0555725602        2.8243130422
  O        -0.8079252626        2.3817461642        3.3644154208
  O         1.9430860435        2.4993475126        4.4462484628
  O         2.9389627485        0.8177382880        2.8734591505
  N         0.6693314001        0.2959605805        3.8124331400
  C        -1.5918699306        0.8296487633        5.3486906641
  C         2.8139560642        0.1662992401        5.4171203533
  N        -0.0935854195        0.7682226207        0.1476808451
  N         0.6410295010        2.7451147046        0.7007095250
  C        -0.2394951064       -0.7008385998        0.0491795467
  C         0.9255752688       -1.4628287074        0.6745230871
  C         0.7133542141       -2.9852155349        0.5865564994
  C         0.9350187551        1.4317098307        0.7018547848
  C        -1.0720006050        1.6826432860       -0.2067441751
  C        -0.6129689340        2.9212467911        0.1445783684
  C         0.7434054846       -3.5470772713       -0.8423835429
  C         1.4212023732        3.7724313049        1.3999362296
  H        -0.3634590770       -0.9406250574       -1.0142677419
  H        -1.1666082688       -0.9428992651        0.5859655346
  H         1.8688910743       -1.1946886305        0.1771916882
  H         1.0121888616       -1.1658268579        1.7307242606
  H        -0.2336508461       -3.2468789299        1.0793569319
  H         1.4990078779       -3.4672961731        1.1849690745
  H         1.8195906354        1.0008132663        1.1639492749
  H        -2.0067382962        1.3716295199       -0.6516722964
  H        -1.0724772654        3.8965428301        0.0693715803
  H         0.6512357441       -4.6422400654       -0.8403716377
  H        -0.0746553729       -3.1598076247       -1.4641886520
  H         1.6857256739       -3.2961024287       -1.3484497447
  H         1.4183128235        4.6917209551        0.8063751798
  H         2.4462212874        3.4113914540        1.5291403245
  H         0.9756987695        3.9332053157        2.3899781167
      40
 i =      113, E =      -325.5844541993
  S        -0.7888036902        0.9514869646        3.6563111621
  S         2.0422786718        1.1162907789        4.0003926844
  F        -0.8096302246        1.3753394586        6.3108620816
  F        -2.7655385672        1.5082579974        5.3127107718
  F        -1.8674740411       -0.4522120884        5.6871770529
  F         3.0594531847       -1.1217340309        5.0653566654
  F         3.9956327040        0.7495646519        5.7489592271
  F         2.0019923516        0.1851228562        6.5003878427
  O        -1.5874442603        0.0560939477        2.8248367280
  O        -0.8081540476        2.3819667696        3.3646131989
  O         1.9426548883        2.4992136699        4.4461963395
  O         2.9385253395        0.8177007009        2.8734015131
  N         0.6686486989        0.2959568431        3.8118478763
  C        -1.5921195661        0.8297909103        5.3489602824
  C         2.8137821794        0.1662277489        5.4170801804
  N        -0.0943727612        0.7681734642        0.1486634953
  N         0.6396859920        2.7451076021        0.7017469347
  C        -0.2397397165       -0.7008384469        0.0493916317
  C         0.9258060688       -1.4627240395        0.6737202199
  C         0.7129749712       -2.9850926413        0.5873180277
  C         0.9345548843        1.4318558476        0.7018469009
  C        -1.0738021019        1.6821189051       -0.2038692958
  C        -0.6151738713        2.9208947338        0.1477043489
  C         0.7400768119       -3.5479399175       -0.8411677396
  C         1.4218333757        3.7724351826        1.3983942198
  H        -0.3634913311       -0.9399418292       -1.0141700669
  H        -1.1667039503       -0.9432533708        0.5862414818
  H         1.8681302853       -1.1951315027        0.1739560379
  H         1.0142730972       -1.1652339996        1.7295930942
  H        -0.2328818264       -3.2459862528        1.0826689621
  H         1.5001282709       -3.4665847688        1.1843206695
  H         1.8196608059        1.0013245235        1.1634141379
  H        -2.0087918682        1.3706287132       -0.6478468201
  H        -1.0756375104        3.8959186344        0.0743131941
  H         0.6483095651       -4.6432247643       -0.8385353873
  H        -0.0796169784       -3.1613580992       -1.4613803528
  H         1.6812467154       -3.2966564253       -1.3496940008
  H         1.4192237228        4.6908072476        0.8033669797
  H         2.4464403709        3.4100387584        1.5262728741
  H         0.9782280198        3.9351868433        2.3889447467
      40
 i =      114, E =      -325.5844563055
  S        -0.7894979560        0.9515032468        3.6563560380
  S         2.0417791744        1.1161298323        4.0001852116
  F        -0.8096706061        1.3753515304        6.3109044810
  F        -2.7656701841        1.5082329948        5.3128199656
  F        -1.8674804670       -0.4521432787        5.6872580461
  F         3.0594459216       -1.1217283868        5.0653609572
  F         3.9954666208        0.7495863395        5.7488964672
  F         2.0019658313        0.1851065630        6.5003982657
  O        -1.5894285208        0.0566026655        2.8253624216
  O        -0.8083316158        2.3820758724        3.3648318233
  O         1.9422756287        2.4990115404        4.4461411140
  O         2.9382253437        0.8176735126        2.8733251634
  N         0.6680599371        0.2957352004        3.8112327383
  C        -1.5922769027        0.8297751262        5.3491496502
  C         2.8136304355        0.1662066619        5.4170633641
  N        -0.0949945778        0.7680356844        0.1487012526
  N         0.6380731723        2.7450891697        0.7025033767
  C        -0.2397173508       -0.7009084346        0.0488032288
  C         0.9268489813       -1.4623831370        0.6714942686
  C         0.7136810805       -2.9847358281        0.5874000020
  C         0.9339516797        1.4320934979        0.7015055402
  C        -1.0753242144        1.6814435419       -0.2023611539
  C        -0.6174357705        2.9204081868        0.1498592475
  C         0.7371392894       -3.5492374230       -0.8405203343
  C         1.4215555294        3.7724269337        1.3974152963
  H        -0.3638533199       -0.9394148946       -1.0148055869
  H        -1.1662478968       -0.9438368656        0.5861479831
  H         1.8678008685       -1.1953255934        0.1684800610
  H         1.0182319540       -1.1637972893        1.7268466740
  H        -0.2308794700       -3.2448392581        1.0857833727
  H         1.5025312197       -3.4654608472        1.1828043381
  H         1.8195930288        1.0018919347        1.1624047455
  H        -2.0104528592        1.3695917155       -0.6457717923
  H        -1.0791812190        3.8950178907        0.0779530222
  H         0.6456101399       -4.6445891866       -0.8367288818
  H        -0.0842768715       -3.1634400835       -1.4590877548
  H         1.6769879585       -3.2981950672       -1.3517040079
  H         1.4189776602        4.6902247060        0.8014745487
  H         2.4458582581        3.4091607085        1.5241933874
  H         0.9794278066        3.9363745613        2.3883542035
      40
 i =      115, E =      -325.5844591442
  S        -0.7905374969        0.9514094622        3.6563207706
  S         2.0411142829        1.1157951877        3.9998768675
  F        -0.8096943746        1.3753099976        6.3109044869
  F        -2.7658456586        1.5081776082        5.3129221987
  F        -1.8675302087       -0.4521953010        5.6873161931
  F         3.0594697027       -1.1217800882        5.0653408455
  F         3.9952013386        0.7496038378        5.7488078031
  F         2.0019046204        0.1850389226        6.5003645699
  O        -1.5924967334        0.0573151422        2.8260469880
  O        -0.8085188812        2.3821011373        3.3649854817
  O         1.9417714269        2.4986232725        4.4460038619
  O         2.9378789797        0.8174974307        2.8731789299
  N         0.6672585967        0.2951629072        3.8101670957
  C        -1.5924616409        0.8296142999        5.3492623188
  C         2.8133968618        0.1661208133        5.4169894949
  N        -0.0964881798        0.7673736277        0.1480955640
  N         0.6365818865        2.7441434237        0.7031026662
  C        -0.2413474501       -0.7014251954        0.0474574613
  C         0.9263234136       -1.4628814060        0.6680430551
  C         0.7119726933       -2.9851248822        0.5873792253
  C         0.9328573316        1.4313329821        0.7006295085
  C        -1.0773159327        1.6807708523       -0.2011782982
  C        -0.6195975713        2.9196420340        0.1519558988
  C         0.7297880819       -3.5523337550       -0.8396980616
  C         1.4218447699        3.7710185264        1.3966125674
  H        -0.3662242660       -0.9392217383       -1.0161765575
  H        -1.1674318421       -0.9444750642        0.5853876673
  H         1.8654471673       -1.1970541554        0.1606379579
  H         1.0220405234       -1.1624612624        1.7226253997
  H        -0.2307551233       -3.2437233809        1.0900714328
  H         1.5028258972       -3.4652482774        1.1805630227
  H         1.8190279916        1.0009731853        1.1602600472
  H        -2.0128284361        1.3691407062       -0.6439442591
  H        -1.0824103827        3.8939982537        0.0818140102
  H         0.6369003660       -4.6476524822       -0.8336587383
  H        -0.0931852093       -3.1665976925       -1.4562061172
  H         1.6685129704       -3.3035997262       -1.3540536971
  H         1.4194334090        4.6885055102        0.8001403250
  H         2.4458235983        3.4066165429        1.5219826462
  H         0.9814379110        3.9359139239        2.3880824904
      40
 i =      116, E =      -325.5844627781
  S        -0.7920195668        0.9511582438        3.6562648471
  S         2.0402415806        1.1151293679        3.9994157819
  F        -0.8096949031        1.3753120916        6.3108950800
  F        -2.7661466645        1.5080958461        5.3130386025
  F        -1.8675246246       -0.4523043475        5.6873987397
  F         3.0594720802       -1.1218613127        5.0653467308
  F         3.9948878542        0.7496322129        5.7486657911
  F         2.0018253000        0.1850045883        6.5003470041
  O        -1.5969150309        0.0580928238        2.8272773934
  O        -0.8087553687        2.3819245151        3.3649917503
  O         1.9411288075        2.4978950236        4.4457813583
  O         2.9374894842        0.8170943984        2.8729307841
  N         0.6661281059        0.2941361194        3.8087209357
  C        -1.5926725511        0.8294560993        5.3493378637
  C         2.8130734938        0.1660083774        5.4168614264
  N        -0.0997586793        0.7657687691        0.1474617007
  N         0.6363386561        2.7411827091        0.7038444848
  C        -0.2468253269       -0.7026903460        0.0458249649
  C         0.9206151250       -1.4658225716        0.6647726759
  C         0.7026916464       -2.9876931692        0.5883310613
  C         0.9311823840        1.4281793062        0.6993504424
  C        -1.0800305607        1.6806209488       -0.1992895810
  C        -0.6205928870        2.9186085766        0.1547904373
  C         0.7135179524       -3.5584371771       -0.8376759927
  C         1.4245983145        3.7665894401        1.3962573466
  H        -0.3722403746       -0.9396108284       -1.0179114697
  H        -1.1731991116       -0.9447022078        0.5835550478
  H         1.8585066312       -1.2029849898        0.1531893889
  H         1.0211032037       -1.1630405351        1.7184072298
  H        -0.2385619774       -3.2431242554        1.0956459544
  H         1.4948179990       -3.4683927274        1.1792883981
  H         1.8176395987        0.9963945548        1.1568251135
  H        -2.0167222734        1.3706108416       -0.6407689021
  H        -1.0832054073        3.8933000760        0.0868798031
  H         0.6168036502       -4.6534203935       -0.8286382460
  H        -0.1099679614       -3.1711662934       -1.4525230625
  H         1.6517332461       -3.3147200621       -1.3548920223
  H         1.4243069139        4.6836382531        0.7991568847
  H         2.4475831251        3.3995702860        1.5213315468
  H         0.9853736951        3.9333750942        2.3878279756
      40
 i =      117, E =      -325.5844663810
  S        -0.7942733475        0.9507919707        3.6561573031
  S         2.0389247840        1.1140113857        3.9986650788
  F        -0.8097116585        1.3753045669        6.3108638049
  F        -2.7666471151        1.5080555982        5.3132117595
  F        -1.8676140615       -0.4524656077        5.6874978041
  F         3.0594603113       -1.1220830345        5.0653357127
  F         3.9943718084        0.7496397781        5.7484174746
  F         2.0016606780        0.1849260211        6.5003030674
  O        -1.6035358611        0.0591325259        2.8293325609
  O        -0.8091109840        2.3815579531        3.3647732929
  O         1.9401742465        2.4967072116        4.4454357271
  O         2.9368937444        0.8163535728        2.8725245054
  N         0.6643741931        0.2925736768        3.8064103367
  C        -1.5930096547        0.8293448586        5.3494303603
  C         2.8125404161        0.1657344690        5.4165846003
  N        -0.1062928812        0.7624754262        0.1472196651
  N         0.6381771630        2.7346104780        0.7049781205
  C        -0.2591100990       -0.7053176734        0.0439279698
  C         0.9057876319       -1.4731846579        0.6620308767
  C         0.6796231971       -2.9941620600        0.5910821924
  C         0.9285066545        1.4207274331        0.6974232118
  C        -1.0843860400        1.6812690615       -0.1952239812
  C        -0.6198365936        2.9170523550        0.1596672952
  C         0.6804211817       -3.5698618071       -0.8333199919
  C         1.4321348166        3.7567779769        1.3960110141
  H        -0.3847862455       -0.9409070992       -1.0200488629
  H        -1.1868453955       -0.9442138519        0.5803576026
  H         1.8432718112       -1.2165290352        0.1464680813
  H         1.0117174025       -1.1674706208        1.7145061799
  H        -0.2604206752       -3.2432083959        1.1039907137
  H         1.4719484418       -3.4774552562        1.1796132718
  H         1.8149461727        0.9854365423        1.1511639557
  H        -2.0236681694        1.3752034864       -0.6340533495
  H        -1.0799642656        3.8931816152        0.0951636703
  H         0.5750304622       -4.6640621947       -0.8197590300
  H        -0.1419851346       -3.1781491120       -1.4465690305
  H         1.6192598036       -3.3362914703       -1.3535627798
  H         1.4367398360        4.6730965627        0.7978599592
  H         2.4531648352        3.3844276691        1.5215666107
  H         0.9941518791        3.9272460349        2.3874750085
      40
 i =      118, E =      -325.5844690382
  S        -0.7936183162        0.9507324327        3.6561810883
  S         2.0393684464        1.1141539032        3.9988522223
  F        -0.8096946888        1.3753078201        6.3108545802
  F        -2.7665400745        1.5080433574        5.3131322859
  F        -1.8675687535       -0.4525499710        5.6874470005
  F         3.0594421833       -1.1220974773        5.0653435977
  F         3.9945213197        0.7496127945        5.7484528407
  F         2.0016912321        0.1849634028        6.5003123128
  O        -1.6016041211        0.0585643270        2.8289716759
  O        -0.8090030260        2.3813951743        3.3646430174
  O         1.9405219505        2.4968618824        4.4455872261
  O         2.9371127149        0.8165271216        2.8725156828
  N         0.6649469755        0.2927686310        3.8069570906
  C        -1.5928607849        0.8293685913        5.3493241325
  C         2.8126801062        0.1657516826        5.4165823928
  N        -0.1063801999        0.7630737806        0.1459637028
  N         0.6383218783        2.7348470277        0.7047346249
  C        -0.2592747182       -0.7048315933        0.0431045629
  C         0.9052517519       -1.4720086735        0.6628439916
  C         0.6812587935       -2.9931272270        0.5909547687
  C         0.9278388502        1.4208157766        0.6976555316
  C        -1.0834413101        1.6824601315       -0.1980536345
  C        -0.6186447180        2.9178688621        0.1573113047
  C         0.6863201404       -3.5682845873       -0.8334808782
  C         1.4308399364        3.7569249553        1.3975874771
  H        -0.3842291290       -0.9410899678       -1.0208978539
  H        -1.1874350492       -0.9436631949        0.5788158587
  H         1.8435248863       -1.2142084297        0.1497775667
  H         1.0086488601       -1.1667222107        1.7156294493
  H        -0.2596719595       -3.2436607823        1.1010749908
  H         1.4725069045       -3.4755118052        1.1815801765
  H         1.8136166753        0.9851393544        1.1522097017
  H        -2.0221706813        1.3770526938       -0.6383712040
  H        -1.0775468381        3.8943552845        0.0916192398
  H         0.5825936017       -4.6623798350       -0.8200080665
  H        -0.1353152405       -3.1778665126       -1.4484670266
  H         1.6256231462       -3.3333559069       -1.3516056660
  H         1.4391668874        4.6724940721        0.7983941004
  H         2.4509187905        3.3835698669        1.5282905311
  H         0.9887778946        3.9291122107        2.3869319249
      40
 i =      119, E =      -325.5844724838
  S        -0.7930733896        0.9506072930        3.6561497816
  S         2.0397222041        1.1141207625        3.9988318454
  F        -0.8096618685        1.3753351058        6.3108587790
  F        -2.7664115352        1.5080846296        5.3130654519
  F        -1.8675333701       -0.4526049805        5.6874307577
  F         3.0593986260       -1.1221393748        5.0653572601
  F         3.9946748262        0.7495901866        5.7484264125
  F         2.0017247155        0.1850420607        6.5003137287
  O        -1.5999318989        0.0578831188        2.8288700059
  O        -0.8089621991        2.3810952452        3.3643673284
  O         1.9407323263        2.4968251579        4.4457223399
  O         2.9372461836        0.8166007668        2.8723466505
  N         0.6653741139        0.2928896471        3.8071604774
  C        -1.5926793772        0.8295167177        5.3492618379
  C         2.8127961352        0.1657355506        5.4164925305
  N        -0.1092750324        0.7625201385        0.1449512752
  N         0.6397740565        2.7324346353        0.7045433316
  C        -0.2644458005       -0.7053652180        0.0423468391
  C         0.8985690198       -1.4735923379        0.6637050472
  C         0.6734535030       -2.9945938985        0.5925817419
  C         0.9262771787        1.4177147650        0.6969133055
  C        -1.0843628917        1.6843393040       -0.1988196821
  C        -0.6166219274        2.9183561862        0.1568504731
  C         0.6797868903       -3.5710011033       -0.8312273682
  C         1.4327297204        3.7528501514        1.3994916416
  H        -0.3893607011       -0.9422183378       -1.0216090225
  H        -1.1931969200       -0.9428975706        0.5774462128
  H         1.8381318747       -1.2172486660        0.1526693341
  H         1.0002837482       -1.1680643404        1.7165816374
  H        -0.2687523276       -3.2439839307        1.1008888804
  H         1.4631761940       -3.4771013043        1.1850518096
  H         1.8112462835        0.9800878844        1.1509699679
  H        -2.0237706097        1.3814807293       -0.6393862782
  H        -1.0725541580        3.8960608987        0.0914060017
  H         0.5737880356       -4.6646805711       -0.8164338706
  H        -0.1406506712       -3.1798724244       -1.4473787388
  H         1.6198746998       -3.3383216995       -1.3487703561
  H         1.4464406643        4.6677314376        0.7994300661
  H         2.4513051156        3.3766424903        1.5355453252
  H         0.9867696612        3.9274170870        2.3868010214
      40
 i =      120, E =      -325.5844750131
  S        -0.7927617920        0.9506192379        3.6560979359
  S         2.0398505679        1.1142046598        3.9987326495
  F        -0.8096483452        1.3753477317        6.3108498160
  F        -2.7662685987        1.5081689409        5.3130476233
  F        -1.8675437923       -0.4525237578        5.6874357083
  F         3.0593672641       -1.1221582940        5.0653535956
  F         3.9947164375        0.7495613820        5.7484277003
  F         2.0017036975        0.1850595029        6.5003020270
  O        -1.5989935839        0.0575777406        2.8287995155
  O        -0.8090233108        2.3810265996        3.3642086759
  O         1.9407486991        2.4968915321        4.4457869544
  O         2.9371666057        0.8166919041        2.8721984904
  N         0.6655170900        0.2931650563        3.8071608573
  C        -1.5925824491        0.8296979429        5.3492834236
  C         2.8128203158        0.1656997825        5.4164404344
  N        -0.1118100514        0.7623831229        0.1447588086
  N         0.6401651762        2.7310855571        0.7045047892
  C        -0.2682172490       -0.7054991108        0.0423984696
  C         0.8944521491       -1.4741557744        0.6639422592
  C         0.6684610389       -2.9951397640        0.5945060284
  C         0.9249200455        1.4159410876        0.6961244212
  C        -1.0860853238        1.6856509538       -0.1978319535
  C        -0.6163625312        2.9188486634        0.1579270015
  C         0.6745501359       -3.5734155358       -0.8284380824
  C         1.4342173892        3.7501230834        1.4002203678
  H        -0.3939619417       -0.9426776938       -1.0214243565
  H        -1.1969156677       -0.9423313612        0.5780088846
  H         1.8342874452       -1.2190145281        0.1528263355
  H         0.9962015969       -1.1679871770        1.7165825849
  H        -0.2739963890       -3.2433265761        1.1027188401
  H         1.4579317445       -3.4770619099        1.1879278753
  H         1.8096268648        0.9770996372        1.1494138841
  H        -2.0262763746        1.3842952724       -0.6376823750
  H        -1.0706637469        3.8972886084        0.0934967157
  H         0.5686857055       -4.6668849589       -0.8120601628
  H        -0.1465841187       -3.1835452158       -1.4444215863
  H         1.6139214987       -3.3410323169       -1.3476158168
  H         1.4508801673        4.6647830676        0.7998973338
  H         2.4518185580        3.3716727738        1.5383479706
  H         0.9868721715        3.9258792192        2.3868241154
      40
 i =      121, E =      -325.5844782144
  S        -0.7926323981        0.9507032358        3.6561060395
  S         2.0398555163        1.1143341616        3.9984909063
  F        -0.8096398379        1.3753662350        6.3108889463
  F        -2.7661020135        1.5082765541        5.3130812707
  F        -1.8675497013       -0.4523622070        5.6874598601
  F         3.0593476514       -1.1221352680        5.0653460454
  F         3.9947169041        0.7495534429        5.7483977289
  F         2.0017007267        0.1850697899        6.5002672798
  O        -1.5987934288        0.0574973653        2.8290301489
  O        -0.8091431884        2.3810858656        3.3640964296
  O         1.9407116001        2.4969598277        4.4458131487
  O         2.9369811114        0.8168505132        2.8719847170
  N         0.6654361238        0.2935376745        3.8068827533
  C        -1.5925129042        0.8299123668        5.3494049419
  C         2.8128058429        0.1656812474        5.4163905377
  N        -0.1157920339        0.7619594376        0.1449586212
  N         0.6401467135        2.7291070417        0.7046078131
  C        -0.2739606672       -0.7058463557        0.0427918798
  C         0.8892167907       -1.4751289528        0.6626330081
  C         0.6612235306       -2.9960170639        0.5975160381
  C         0.9229560261        1.4135105860        0.6946239548
  C        -1.0895923178        1.6869255380       -0.1947078322
  C        -0.6172106564        2.9191825918        0.1610351771
  C         0.6633908819       -3.5783956950       -0.8236044084
  C         1.4367653037        3.7461071929        1.4002586242
  H        -0.4023155522       -0.9430567788       -1.0207493127
  H        -1.2017241445       -0.9417497214        0.5806153666
  H         1.8282022387       -1.2223506781        0.1487195073
  H         0.9936017279       -1.1671917898        1.7144501814
  H        -0.2805774765       -3.2414217453        1.1081565398
  H         1.4514580533       -3.4769665640        1.1907567223
  H         1.8077644180        0.9731500403        1.1461177459
  H        -2.0313502870        1.3873577507       -0.6324184812
  H        -1.0701029486        3.8984119650        0.0989014715
  H         0.5580232397       -4.6718720570       -0.8038092488
  H        -0.1603701727       -3.1909313635       -1.4377287604
  H         1.6004187759       -3.3465130566       -1.3478258605
  H         1.4551627025        4.6610637659        0.8003978622
  H         2.4535292890        3.3650812310        1.5377296517
  H         0.9901969861        3.9221820769        2.3872732207
      40
 i =      122, E =      -325.5844815025
  S        -0.7931367310        0.9508267529        3.6562244702
  S         2.0395460798        1.1142702888        3.9980514943
  F        -0.8096377462        1.3753980219        6.3109777532
  F        -2.7661058119        1.5083366422        5.3131821583
  F        -1.8675640901       -0.4522174031        5.6875222866
  F         3.0593461100       -1.1221401266        5.0653294643
  F         3.9945375234        0.7495686412        5.7483395235
  F         2.0016504751        0.1850392509        6.5002091683
  O        -1.6007644652        0.0579495592        2.8299870182
  O        -0.8093115543        2.3812585673        3.3641168358
  O         1.9404817214        2.4967829378        4.4457488764
  O         2.9366636536        0.8168537982        2.8716731110
  N         0.6648804306        0.2935694025        3.8059920891
  C        -1.5925630348        0.8300365926        5.3496044623
  C         2.8126369612        0.1656303160        5.4163098789
  N        -0.1214539008        0.7606795817        0.1457553950
  N         0.6403054258        2.7256818449        0.7051296189
  C        -0.2829128372       -0.7067751741        0.0433538187
  C         0.8807006622       -1.4780491392        0.6600530338
  C         0.6478824346       -2.9985018342        0.6017521271
  C         0.9205784744        1.4095843675        0.6924024146
  C        -1.0948670789        1.6879311180       -0.1888132716
  C        -0.6187672794        2.9189073820        0.1668205896
  C         0.6414967387       -3.5869407830       -0.8168108239
  C         1.4417948835        3.7399028841        1.3991764076
  H        -0.4151272469       -0.9434494029       -1.0198630987
  H        -1.2093954858       -0.9408703878        0.5843918092
  H         1.8181002898       -1.2297443291        0.1408786351
  H         0.9906092791       -1.1671624391        1.7104208946
  H        -0.2922403275       -3.2387747230        1.1178241586
  H         1.4394760522       -3.4792547812        1.1933213610
  H         1.8059911053        0.9670973239        1.1404181519
  H        -2.0392681395        1.3907310597       -0.6225185703
  H        -1.0703998317        3.8990309931        0.1083173515
  H         0.5364373992       -4.6804171415       -0.7917670158
  H        -0.1860711656       -3.2021373721       -1.4275380329
  H         1.5751105494       -3.3570771244       -1.3485893904
  H         1.4610999528        4.6553909230        0.8000180457
  H         2.4577097175        3.3555162556        1.5332586099
  H         0.9985801774        3.9162924911        2.3877197868
      40
 i =      123, E =      -325.5844832198
  S        -0.7939481643        0.9509395636        3.6564808884
  S         2.0391046250        1.1140149180        3.9976760147
  F        -0.8096501285        1.3754256702        6.3110994503
  F        -2.7662823256        1.5083564607        5.3133067762
  F        -1.8676021442       -0.4521409825        5.6875822144
  F         3.0593778704       -1.1221628963        5.0653090660
  F         3.9943391736        0.7496023722        5.7482564454
  F         2.0016271511        0.1849975043        6.5001536656
  O        -1.6036467252        0.0585676429        2.8313013153
  O        -0.8094190139        2.3814357327        3.3642491523
  O         1.9402254820        2.4964338666        4.4456571652
  O         2.9363420487        0.8166723883        2.8714233903
  N         0.6641582132        0.2932634049        3.8051224309
  C        -1.5927143407        0.8300473633        5.3498122775
  C         2.8124587681        0.1655880315        5.4162336234
  N        -0.1269855270        0.7588119566        0.1468676664
  N         0.6412812110        2.7215693090        0.7056485754
  C        -0.2926567476       -0.7081065097        0.0439266570
  C         0.8705067439       -1.4824362740        0.6578180900
  C         0.6314820814       -3.0021721344        0.6057984433
  C         0.9185911979        1.4049061453        0.6904431034
  C        -1.0996069715        1.6885995353       -0.1828485129
  C        -0.6194337016        2.9182263068        0.1723841892
  C         0.6159035788       -3.5960345318       -0.8104595467
  C         1.4481205235        3.7330665224        1.3974830949
  H        -0.4282411448       -0.9438811937       -1.0190823091
  H        -1.2182604240       -0.9398743179        0.5876418675
  H         1.8066729407       -1.2392211877        0.1339141012
  H         0.9857190897       -1.1688625616        1.7068128329
  H        -0.3070887341       -3.2366319139        1.1274347834
  H         1.4238289081       -3.4840481486        1.1953489365
  H         1.8045236749        0.9601114353        1.1349494318
  H        -2.0467310977        1.3938894900       -0.6124441904
  H        -1.0696414325        3.8993216977        0.1170090644
  H         0.5096023076       -4.6895971298       -0.7805821877
  H        -0.2144511397       -3.2121062410       -1.4180290204
  H         1.5469573145       -3.3695678358       -1.3485769403
  H         1.4675294266        4.6490943820        0.7990647355
  H         2.4633902302        3.3456465414        1.5270948829
  H         1.0093081517        3.9096754323        2.3879356403
      40
 i =      124, E =      -325.5844840265
  S        -0.7938576077        0.9509723609        3.6566408376
  S         2.0392024107        1.1140210072        3.9978753302
  F        -0.8096620701        1.3754287769        6.3111318862
  F        -2.7663746336        1.5083081978        5.3132927680
  F        -1.8676089460       -0.4521864682        5.6875752843
  F         3.0594008958       -1.1221515700        5.0653124039
  F         3.9943768938        0.7496160238        5.7482918294
  F         2.0016536530        0.1849966801        6.5001724433
  O        -1.6034025813        0.0585592587        2.8312713316
  O        -0.8093000322        2.3814900157        3.3644224802
  O         1.9403395823        2.4964714287        4.4456833569
  O         2.9364190709        0.8166071479        2.8715417197
  N         0.6642972740        0.2931715061        3.8055856085
  C        -1.5927587923        0.8299381626        5.3497957092
  C         2.8125163341        0.1656341116        5.4162957031
  N        -0.1256126057        0.7591237173        0.1471424263
  N         0.6413459069        2.7225296253        0.7053776635
  C        -0.2907610031       -0.7077955866        0.0443161462
  C         0.8724441282       -1.4818296662        0.6584933131
  C         0.6343413542       -3.0015598611        0.6051134916
  C         0.9192967580        1.4060477334        0.6910786831
  C        -1.0983329528        1.6882363514       -0.1837910885
  C        -0.6190551983        2.9182845403        0.1710459426
  C         0.6202264197       -3.5940692586       -0.8116539646
  C         1.4473918235        3.7347341185        1.3970411815
  H        -0.4259543785       -0.9435776600       -1.0187150559
  H        -1.2163117906       -0.9398401883        0.5879392483
  H         1.8087404509       -1.2376969319        0.1355051805
  H         0.9866969090       -1.1689231706        1.7077239477
  H        -0.3043277979       -3.2370613589        1.1260026211
  H         1.4264398285       -3.4836622237        1.1947157730
  H         1.8051926412        0.9618890126        1.1362712403
  H        -2.0449254209        1.3928211916       -0.6139460063
  H        -1.0697352536        3.8990923160        0.1144192268
  H         0.5151834948       -4.6878526565       -0.7828458749
  H        -0.2098055602       -3.2101541268       -1.4196375343
  H         1.5516933847       -3.3663067220       -1.3482030089
  H         1.4650851617        4.6509668362        0.7989315099
  H         2.4632558737        3.3487421707        1.5255882111
  H         1.0092651015        3.9104669784        2.3878519639
      40
 i =      125, E =      -325.5844847433
  S        -0.7937440187        0.9510237246        3.6569153004
  S         2.0393341111        1.1139887319        3.9980858044
  F        -0.8096837873        1.3754497165        6.3111884819
  F        -2.7665288897        1.5082471161        5.3132871751
  F        -1.8676103531       -0.4522299833        5.6875789280
  F         3.0594176370       -1.1221557436        5.0653197247
  F         3.9944129675        0.7496257141        5.7483309881
  F         2.0016742574        0.1850027896        6.5002004403
  O        -1.6031516785        0.0585402411        2.8314126629
  O        -0.8091452622        2.3815325511        3.3646637635
  O         1.9404947782        2.4964749323        4.4457257939
  O         2.9365039656        0.8165364135        2.8716407548
  N         0.6644471479        0.2930261792        3.8061779904
  C        -1.5928262824        0.8298411443        5.3498037176
  C         2.8125768255        0.1656804867        5.4163528907
  N        -0.1255013425        0.7591080822        0.1478390581
  N         0.6419512019        2.7225947443        0.7052622758
  C        -0.2911180084       -0.7077325455        0.0450915674
  C         0.8715489108       -1.4821884462        0.6597778024
  C         0.6331435607       -3.0017974942        0.6057479080
  C         0.9195534596        1.4060681855        0.6916112245
  C        -1.0978578711        1.6883116634       -0.1836776742
  C        -0.6183367437        2.9183904693        0.1705517128
  C         0.6197441035       -3.5935127734       -0.8113473411
  C         1.4481898324        3.7350898250        1.3962922861
  H        -0.4261833272       -0.9434599873       -1.0179881888
  H        -1.2167443079       -0.9394742793        0.5887267628
  H         1.8083105862       -1.2381997225        0.1377634112
  H         0.9849071170       -1.1696172390        1.7091678960
  H        -0.3056999812       -3.2374798444        1.1262437987
  H         1.4248216876       -3.4843820952        1.1953847660
  H         1.8053890440        0.9619105731        1.1368967141
  H        -2.0445255300        1.3929980758       -0.6137034362
  H        -1.0687104265        3.8992896776        0.1128846103
  H         0.5157989348       -4.6875045927       -0.7830300551
  H        -0.2102540312       -3.2097996961       -1.4194872995
  H         1.5514441730       -3.3649058738       -1.3468456080
  H         1.4649043413        4.6513668462        0.7982609333
  H         2.4643492044        3.3497145262        1.5238658716
  H         1.0109774519        3.9106222308        2.3874101617
      40
 i =      126, E =      -325.5844854573
  S        -0.7937066645        0.9510499660        3.6571048162
  S         2.0393828831        1.1139251528        3.9982463216
  F        -0.8097168126        1.3754629185        6.3112161592
  F        -2.7666958204        1.5082138508        5.3132842460
  F        -1.8676380661       -0.4522615500        5.6875791742
  F         3.0594294821       -1.1221677215        5.0653259456
  F         3.9944498890        0.7496331097        5.7483528272
  F         2.0016889945        0.1850073549        6.5002338355
  O        -1.6029715156        0.0585145919        2.8315004648
  O        -0.8090419168        2.3815263944        3.3648351559
  O         1.9405677515        2.4964612378        4.4457387533
  O         2.9364891574        0.8164339768        2.8716930927
  N         0.6644945119        0.2928680310        3.8066839126
  C        -1.5929102612        0.8297963261        5.3498016586
  C         2.8126200285        0.1657105770        5.4163825289
  N        -0.1257696287        0.7591544336        0.1484979978
  N         0.6424124925        2.7226272864        0.7050169408
  C        -0.2918462995       -0.7076589042        0.0459071352
  C         0.8704237864       -1.4823946569        0.6610313453
  C         0.6318675138       -3.0019393594        0.6066196337
  C         0.9194923653        1.4059995869        0.6920503277
  C        -1.0976912745        1.6885682258       -0.1835784883
  C        -0.6177374740        2.9186093909        0.1699478044
  C         0.6187149659       -3.5932492004       -0.8106687676
  C         1.4487983788        3.7353522297        1.3955686354
  H        -0.4269612600       -0.9434531343       -1.0171657813
  H        -1.2175244422       -0.9391109222        0.5896086027
  H         1.8075975931       -1.2385396286        0.1398227377
  H         0.9830076276       -1.1700152637        1.7105641492
  H        -0.3069504473       -3.2378732619        1.1271413802
  H         1.4235386609       -3.4846719573        1.1961909990
  H         1.8052179123        0.9617415017        1.1374360048
  H        -2.0444028285        1.3934261562       -0.6135155860
  H        -1.0675535896        3.8996763812        0.1112795999
  H         0.5155617423       -4.6873840069       -0.7824380411
  H        -0.2115650168       -3.2098755196       -1.4186861404
  H         1.5505039377       -3.3641069608       -1.3456662476
  H         1.4650396928        4.6515348141        0.7974315814
  H         2.4651322633        3.3503487565        1.5227686729
  H         1.0120736267        3.9110043948        2.3867768586
      40
 i =      127, E =      -325.5844868101
  S        -0.7937494871        0.9510667287        3.6573558989
  S         2.0393442507        1.1138088669        3.9984413751
  F        -0.8097814845        1.3754758523        6.3112327545
  F        -2.7669625904        1.5081820817        5.3132880052
  F        -1.8676887989       -0.4522821808        5.6875904533
  F         3.0594346975       -1.1221883916        5.0653300717
  F         3.9944722364        0.7496380328        5.7483561588
  F         2.0016951073        0.1850110700        6.5002775803
  O        -1.6028632374        0.0584923663        2.8316664964
  O        -0.8089459143        2.3814581898        3.3650025572
  O         1.9405866616        2.4964240614        4.4457451128
  O         2.9363516556        0.8162817361        2.8717440876
  N         0.6644213520        0.2926121752        3.8073895078
  C        -1.5930634963        0.8297858461        5.3498175633
  C         2.8126446607        0.1657270045        5.4163992359
  N        -0.1268032024        0.7593168572        0.1497233512
  N         0.6428222544        2.7227146259        0.7045310722
  C        -0.2936397879       -0.7074965917        0.0476237486
  C         0.8682931953       -1.4825530933        0.6630135566
  C         0.6296036076       -3.0020841145        0.6086572387
  C         0.9189032221        1.4058531294        0.6927648100
  C        -1.0979996563        1.6891572126       -0.1832632145
  C        -0.6171433887        2.9191098579        0.1690195811
  C         0.6157241329       -3.5933490210       -0.8086987260
  C         1.4496046753        3.7357555005        1.3942296896
  H        -0.4292375041       -0.9435287644       -1.0153773481
  H        -1.2192466463       -0.9384120457        0.5917207788
  H         1.8058615289       -1.2390281498        0.1424524093
  H         0.9802626966       -1.1702097929        1.7126213385
  H        -0.3087117114       -3.2384001140        1.1301510863
  H         1.4219914761       -3.4845916859        1.1975697857
  H         1.8044086773        0.9613513886        1.1383387840
  H        -2.0448803493        1.3943776075       -0.6129705835
  H        -1.0658854115        3.9005262940        0.1087964769
  H         0.5140055251       -4.6876476953       -0.7801457227
  H        -0.2158420106       -3.2110870302       -1.4158308513
  H         1.5469907451       -3.3632789034       -1.3440361010
  H         1.4657350771        4.6515634259        0.7955707171
  H         2.4660170429        3.3509026835        1.5213983593
  H         1.0133288037        3.9121974789        2.3853885717
      40
 i =      128, E =      -325.5844890031
  S        -0.7939292075        0.9510587704        3.6575961653
  S         2.0391687912        1.1136788445        3.9985958140
  F        -0.8098673329        1.3754946189        6.3112439850
  F        -2.7672669912        1.5081760957        5.3133185653
  F        -1.8677589425       -0.4522761206        5.6876154123
  F         3.0594361860       -1.1222106766        5.0653364167
  F         3.9944686876        0.7496444990        5.7483413535
  F         2.0016909469        0.1850024949        6.5003315590
  O        -1.6030418388        0.0584753973        2.8319833101
  O        -0.8089208974        2.3813259833        3.3650851990
  O         1.9404890474        2.4963890755        4.4457119308
  O         2.9360447249        0.8161292105        2.8717417419
  N         0.6641692753        0.2923278783        3.8080825636
  C        -1.5932526491        0.8298416702        5.3498720716
  C         2.8126315282        0.1657161206        5.4164007982
  N        -0.1284955206        0.7596389943        0.1512678768
  N         0.6424181468        2.7231813219        0.7036685078
  C        -0.2959907923       -0.7072421202        0.0502168680
  C         0.8665465781       -1.4822034495        0.6646301369
  C         0.6280394487       -3.0018525283        0.6115581113
  C         0.9175502766        1.4060691902        0.6936276685
  C        -1.0990070117        1.6897428028       -0.1830524395
  C        -0.6173054422        2.9197567837        0.1675159147
  C         0.6103977805       -3.5940799715       -0.8054550475
  C         1.4494692767        3.7367823989        1.3922886692
  H        -0.4333264396       -0.9437491358       -1.0124912107
  H        -1.2208821540       -0.9376221756        0.5958077795
  H         1.8037688514       -1.2390103198        0.1433224570
  H         0.9792740965       -1.1694801534        1.7140732266
  H        -0.3085032398       -3.2385895166        1.1363857875
  H         1.4227963776       -3.4834116139        1.1983626279
  H         1.8028408580        0.9614956847        1.1395752529
  H        -2.0459457728        1.3950742107       -0.6125773073
  H        -1.0649205532        3.9014914600        0.1052395669
  H         0.5104747095       -4.6885631333       -0.7754794553
  H        -0.2243156539       -3.2138483663       -1.4098030384
  H         1.5398056464       -3.3631205861       -1.3436179831
  H         1.4660528765        4.6518406149        0.7925381761
  H         2.4657901694        3.3518634613        1.5202456059
  H         1.0131390959        3.9147257476        2.3830728806
      40
 i =      129, E =      -325.5844927533
  S        -0.7942450257        0.9510257696        3.6578650489
  S         2.0388347348        1.1135906474        3.9986714978
  F        -0.8099580478        1.3755157067        6.3112642261
  F        -2.7675555133        1.5082060594        5.3133817990
  F        -1.8678331516       -0.4522150605        5.6876685002
  F         3.0594184071       -1.1222153251        5.0653343500
  F         3.9944315975        0.7496430802        5.7482953382
  F         2.0016758109        0.1849910267        6.5003706802
  O        -1.6036416469        0.0584325946        2.8326637583
  O        -0.8089823583        2.3811101441        3.3649726620
  O         1.9402632674        2.4963924345        4.4456468008
  O         2.9355269674        0.8160354707        2.8716560662
  N         0.6637209439        0.2920744979        3.8086693451
  C        -1.5934482610        0.8299955328        5.3500095162
  C         2.8125705430        0.1656744308        5.4163720190
  N        -0.1316265564        0.7600465089        0.1532657527
  N         0.6406185532        2.7240719972        0.7020494361
  C        -0.2999188750       -0.7069722581        0.0544707417
  C         0.8648260795       -1.4813261662        0.6655108832
  C         0.6265751206       -3.0012754634        0.6163782200
  C         0.9147049210        1.4066203430        0.6946838163
  C        -1.1013872006        1.6902722861       -0.1832099471
  C        -0.6187628457        2.9205914655        0.1649202524
  C         0.5992383749       -3.5963491521       -0.7994481293
  C         1.4480139142        3.7384457615        1.3892004256
  H        -0.4413685532       -0.9444395381       -1.0075484339
  H        -1.2229216278       -0.9364986209        0.6037079318
  H         1.8002672671       -1.2389058115        0.1405262654
  H         0.9813106765       -1.1672296256        1.7141742672
  H        -0.3059283159       -3.2380130164        1.1488812602
  H         1.4265055521       -3.4808216784        1.1982058375
  H         1.7997134719        0.9621750773        1.1414127890
  H        -2.0483394810        1.3954425013       -0.6126035794
  H        -1.0651295097        3.9026823070        0.0997834417
  H         0.5020109761       -4.6909603509       -0.7662487336
  H        -0.2419343356       -3.2197430582       -1.3975623661
  H         1.5240260922       -3.3644615284       -1.3451724602
  H         1.4662444589        4.6521196528        0.7873722366
  H         2.4638653041        3.3527821744        1.5192112100
  H         1.0108789199        3.9192691173        2.3791224382
      40
 i =      130, E =      -325.5844978421
  S        -0.7946084068        0.9509696779        3.6581228405
  S         2.0384412815        1.1136318698        3.9985623668
  F        -0.8100079410        1.3755499847        6.3113452743
  F        -2.7676382778        1.5083020012        5.3134785336
  F        -1.8678808932       -0.4520922947        5.6877401517
  F         3.0594040324       -1.1221980909        5.0653225427
  F         3.9943586569        0.7496426294        5.7482364483
  F         2.0016541595        0.1849594695        6.5003596782
  O        -1.6047623694        0.0582766174        2.8339110992
  O        -0.8091511940        2.3808566792        3.3645548663
  O         1.9399652042        2.4964646206        4.4455362446
  O         2.9348920230        0.8160968936        2.8713985720
  N         0.6632193027        0.2920213285        3.8087511984
  C        -1.5935233095        0.8302390404        5.3502526685
  C         2.8124758934        0.1656002872        5.4163074621
  N        -0.1363205968        0.7600681194        0.1545578904
  N         0.6370762025        2.7247617049        0.6993393606
  C        -0.3060653527       -0.7070727023        0.0594586238
  C         0.8626914732       -1.4806477614        0.6639830955
  C         0.6236296041       -3.0009262312        0.6225125315
  C         0.9100544699        1.4069444169        0.6953263105
  C        -1.1051266121        1.6903581533       -0.1849063863
  C        -0.6216652406        2.9211673194        0.1606062970
  C         0.5783516123       -3.6015677801       -0.7907899903
  C         1.4449155335        3.7397241536        1.3851319295
  H        -0.4546971766       -0.9460211165       -1.0012809149
  H        -1.2256972874       -0.9350773903        0.6150903361
  H         1.7943743512       -1.2401117819        0.1311434539
  H         0.9872913656       -1.1637851873        1.7109891852
  H        -0.3021923900       -3.2358860682        1.1679188160
  H         1.4313950635       -3.4780518824        1.1960453702
  H         1.7945994164        0.9627828852        1.1434051137
  H        -2.0518683010        1.3951227550       -0.6146386304
  H        -1.0668749751        3.9035848194        0.0921102300
  H         0.4830277416       -4.6961763200       -0.7517887543
  H        -0.2723585770       -3.2291278220       -1.3784831523
  H         1.4954474700       -3.3704782162       -1.3501577518
  H         1.4673397671        4.6512586162        0.7800699425
  H         2.4594085911        3.3517791182        1.5196285681
  H         1.0052814729        3.9251762974        2.3732179641
      40
 i =      131, E =      -325.5845030193
  S        -0.7945235554        0.9509074827        3.6581581429
  S         2.0383961238        1.1139299214        3.9983745851
  F        -0.8099189329        1.3755690994        6.3114338159
  F        -2.7672716937        1.5084255199        5.3135190894
  F        -1.8678212771       -0.4519635494        5.6877798323
  F         3.0593832853       -1.1221358995        5.0653011361
  F         3.9943702347        0.7496238632        5.7482260840
  F         2.0016525742        0.1849609024        6.5002822521
  O        -1.6050857086        0.0578629938        2.8348803497
  O        -0.8092882205        2.3806877840        3.3638815231
  O         1.9398908695        2.4966954728        4.4454726138
  O         2.9346488824        0.8163959046        2.8711367212
  N         0.6632395364        0.2923784118        3.8082999841
  C        -1.5932916214        0.8304395992        5.3504254211
  C         2.8124713620        0.1655741149        5.4162524808
  N        -0.1390378130        0.7598345511        0.1532542616
  N         0.6334686014        2.7254947634        0.6960510543
  C        -0.3096920755       -0.7074086611        0.0620712963
  C         0.8626313597       -1.4800544699        0.6608943417
  C         0.6227803077       -3.0005570309        0.6257445542
  C         0.9060879817        1.4074839250        0.6955177891
  C        -1.1067602497        1.6897595637       -0.1907084339
  C        -0.6237742543        2.9212974324        0.1536264732
  C         0.5620158834       -3.6054801795       -0.7851827735
  C         1.4403107315        3.7410145317        1.3821663148
  H        -0.4641918856       -0.9480789507       -0.9973997939
  H        -1.2264715758       -0.9339361707        0.6230420382
  H         1.7906951054       -1.2408549954        0.1207847490
  H         0.9948046986       -1.1608656806        1.7063290225
  H        -0.2975048017       -3.2334276823        1.1813646011
  H         1.4364229543       -3.4763598448        1.1921293121
  H         1.7896191240        0.9640082131        1.1465428072
  H        -2.0523269628        1.3937419368       -0.6228289903
  H        -1.0685348087        3.9038029841        0.0816798418
  H         0.4667891433       -4.6998079466       -0.7420760369
  H        -0.2952617435       -3.2348844575       -1.3643521075
  H         1.4725988557       -3.3761837659       -1.3559475079
  H         1.4681730288        4.6504099527        0.7739318928
  H         2.4531028331        3.3506336217        1.5231207850
  H         0.9960641964        3.9309403369        2.3675919107
      40
 i =      132, E =      -325.5845079893
  S        -0.7939565306        0.9509178033        3.6579336861
  S         2.0387809271        1.1144735787        3.9981814485
  F        -0.8097312055        1.3755880693        6.3115381973
  F        -2.7665201736        1.5085531342        5.3134737181
  F        -1.8676600833       -0.4518696572        5.6877440555
  F         3.0593583755       -1.1220329001        5.0652936706
  F         3.9944738211        0.7496102874        5.7482831342
  F         2.0016759800        0.1850014993        6.5001872290
  O        -1.6043791749        0.0573342633        2.8352214328
  O        -0.8093614147        2.3807365789        3.3631437716
  O         1.9401219471        2.4971145429        4.4453696726
  O         2.9349626961        0.8168488185        2.8709686049
  N         0.6638864131        0.2932091326        3.8074314067
  C        -1.5927911070        0.8305311815        5.3504550390
  C         2.8125682548        0.1656440192        5.4162570323
  N        -0.1367917613        0.7598992345        0.1492156822
  N         0.6299776373        2.7276931298        0.6925415449
  C        -0.3060487261       -0.7076151087        0.0618232577
  C         0.8694240457       -1.4781220551        0.6569289568
  C         0.6307830476       -2.9987841546        0.6238638828
  C         0.9046702596        1.4101304840        0.6955823689
  C        -1.1042204613        1.6877674648       -0.2011244652
  C        -0.6248536912        2.9207653298        0.1437460679
  C         0.5617384590       -3.6041360718       -0.7861387451
  C         1.4325507728        3.7447012862        1.3812582310
  H        -0.4634686658       -0.9502303503       -0.9965988521
  H        -1.2207672981       -0.9339724030        0.6260020594
  H         1.7944778293       -1.2378277786        0.1120918452
  H         1.0063381397       -1.1581997630        1.7015011306
  H        -0.2861572747       -3.2313584255        1.1841924649
  H         1.4474086539       -3.4744271511        1.1855836835
  H         1.7869969666        0.9688418760        1.1514668372
  H        -2.0468514207        1.3895375690       -0.6384291739
  H        -1.0710785221        3.9024521500        0.0680170781
  H         0.4652527445       -4.6981040591       -0.7426398509
  H        -0.2972354134       -3.2322623696       -1.3609831805
  H         1.4687158411       -3.3760918320       -1.3626503674
  H         1.4642357818        4.6527162928        0.7712012554
  H         2.4442968050        3.3542920180        1.5292348441
  H         0.9821006331        3.9364379924        2.3636886553
      40
 i =      133, E =      -325.5845103051
  S        -0.7941014872        0.9511650101        3.6580918494
  S         2.0388547308        1.1145895308        3.9978813569
  F        -0.8096324363        1.3756601995        6.3117252321
  F        -2.7663151732        1.5085911029        5.3135136972
  F        -1.8675642055       -0.4517759133        5.6877500988
  F         3.0593398799       -1.1220133765        5.0652894868
  F         3.9944103435        0.7496192493        5.7482759644
  F         2.0016587582        0.1850330385        6.5001319521
  O        -1.6057571124        0.0575356757        2.8363472816
  O        -0.8093918044        2.3810520612        3.3629409295
  O         1.9402397914        2.4971008146        4.4452581817
  O         2.9351442636        0.8169166878        2.8707676839
  N         0.6639268502        0.2935362406        3.8064379828
  C        -1.5926245888        0.8305729663        5.3505808078
  C         2.8125175922        0.1657131362        5.4162288111
  N        -0.1385680771        0.7581283333        0.1477515017
  N         0.6300050426        2.7254295964        0.6908200211
  C        -0.3107622693       -0.7091495612        0.0625690914
  C         0.8648843115       -1.4812713534        0.6550724807
  C         0.6214265383       -3.0011380893        0.6259671574
  C         0.9032565544        1.4077075905        0.6945250076
  C        -1.1046352867        1.6868777581       -0.2034888651
  C        -0.6242720199        2.9195787331        0.1413203975
  C         0.5434564209       -3.6085837219       -0.7828126639
  C         1.4337957433        3.7413425544        1.3796234327
  H        -0.4711501191       -0.9527025718       -0.9951606251
  H        -1.2242516982       -0.9330606115        0.6297003206
  H         1.7881309584       -1.2444070835        0.1057584152
  H         1.0067833553       -1.1595823052        1.6984374037
  H        -0.2936206202       -3.2293061985        1.1909940069
  H         1.4388365626       -3.4788056054        1.1843356628
  H         1.7850419652        0.9659645080        1.1509385741
  H        -2.0472484788        1.3895208425       -0.6413905278
  H        -1.0698091381        3.9015859651        0.0651324140
  H         0.4444529384       -4.7022429209       -0.7373350190
  H        -0.3163946784       -3.2347190484       -1.3547186236
  H         1.4479522023       -3.3837778867       -1.3645858659
  H         1.4658705025        4.6495911519        0.7701732939
  H         2.4451085297        3.3500688630        1.5266508002
  H         0.9840977721        3.9327237609        2.3623751768
      40
 i =      134, E =      -325.5845114581
  S        -0.7940411058        0.9513681149        3.6582908611
  S         2.0390593262        1.1146781433        3.9979430365
  F        -0.8096095010        1.3756969723        6.3117986939
  F        -2.7664053338        1.5085688629        5.3135129691
  F        -1.8675469885       -0.4517537738        5.6877421125
  F         3.0593621631       -1.1220111232        5.0652680461
  F         3.9944398804        0.7496428903        5.7483085711
  F         2.0016600920        0.1850500353        6.5001202268
  O        -1.6058603484        0.0576376646        2.8367460461
  O        -0.8093710347        2.3812768267        3.3631645712
  O         1.9404576885        2.4971760863        4.4452398641
  O         2.9354600533        0.8169105944        2.8708842780
  N         0.6641158375        0.2936941759        3.8063083592
  C        -1.5926317663        0.8305778305        5.3505912906
  C         2.8125723150        0.1657990703        5.4162343342
  N        -0.1374149065        0.7575425179        0.1476452762
  N         0.6301474376        2.7250660995        0.6909977722
  C        -0.3093316928       -0.7097695882        0.0629942186
  C         0.8663444415       -1.4817455119        0.6553591311
  C         0.6219940362       -3.0012146280        0.6256053490
  C         0.9037548336        1.4075284024        0.6952585417
  C        -1.1032915655        1.6859278454       -0.2047813242
  C        -0.6236309116        2.9187513577        0.1401401665
  C         0.5425438318       -3.6072550407       -0.7835310847
  C         1.4326559358        3.7418645220        1.3798815758
  H        -0.4699826163       -0.9537347898       -0.9945464644
  H        -1.2224345679       -0.9337680690        0.6306342591
  H         1.7894402664       -1.2452075953        0.1060152973
  H         1.0084689840       -1.1603874008        1.6987203967
  H        -0.2927743619       -3.2290760879        1.1910175303
  H         1.4392400472       -3.4801426010        1.1830724493
  H         1.7854497095        0.9661669113        1.1521962118
  H        -2.0452760259        1.3883689273       -0.6436929574
  H        -1.0692058620        3.9006304092        0.0630694301
  H         0.4421762274       -4.7009516268       -0.7388945124
  H        -0.3165374953       -3.2315867018       -1.3551997945
  H         1.4471371000       -3.3831322239       -1.3654336249
  H         1.4642225141        4.6500454636        0.7702776661
  H         2.4442237928        3.3516606781        1.5274872981
  H         0.9823031612        3.9331096424        2.3622381896
      40
 i =      135, E =      -325.5845121228
  S        -0.7942419028        0.9514716035        3.6585114926
  S         2.0390287729        1.1146001120        3.9980405210
  F        -0.8096496823        1.3757215389        6.3118635794
  F        -2.7666477607        1.5085657612        5.3135238734
  F        -1.8675831615       -0.4517193198        5.6877563038
  F         3.0593625122       -1.1220397654        5.0652616936
  F         3.9944159471        0.7496571979        5.7482892922
  F         2.0016554864        0.1850557510        6.5001594959
  O        -1.6063517172        0.0577134022        2.8372433989
  O        -0.8093771971        2.3813407083        3.3633322226
  O         1.9404639843        2.4971151573        4.4452576589
  O         2.9354642324        0.8167585636        2.8709720282
  N         0.6639804599        0.2935632260        3.8063384028
  C        -1.5927627049        0.8306179147        5.3506293625
  C         2.8125586245        0.1658316722        5.4162286019
  N        -0.1373040932        0.7571274558        0.1477243670
  N         0.6307471728        2.7244844608        0.6907573417
  C        -0.3096293296       -0.7102169248        0.0636656077
  C         0.8654891055       -1.4825948000        0.6565258165
  C         0.6198296737       -3.0017255639        0.6264106272
  C         0.9037339914        1.4068597529        0.6958279977
  C        -1.1024405093        1.6857646872       -0.2059052043
  C        -0.6225010935        2.9184202431        0.1387791527
  C         0.5397036150       -3.6068419913       -0.7829434826
  C         1.4327684523        3.7417075803        1.3796624676
  H        -0.4703207798       -0.9546275667       -0.9937459158
  H        -1.2227770875       -0.9338079637        0.6313858705
  H         1.7889904547       -1.2468542334        0.1076191636
  H         1.0072020098       -1.1613977063        1.6999584308
  H        -0.2950165064       -3.2290507211        1.1918483764
  H         1.4366302683       -3.4816254889        1.1835768775
  H         1.7850049955        0.9652431223        1.1532743698
  H        -2.0441560105        1.3886094240       -0.6454729133
  H        -1.0672585658        3.9004927065        0.0607610783
  H         0.4386878279       -4.7004815879       -0.7388822686
  H        -0.3190086334       -3.2302459226       -1.3544981839
  H         1.4444019334       -3.3828992408       -1.3646808594
  H         1.4640884358        4.6497562846        0.7697712616
  H         2.4445187933        3.3520287285        1.5277343826
  H         0.9819961636        3.9332187208        2.3617028065
      40
 i =      136, E =      -325.5845125298
  S        -0.7945528113        0.9515014805        3.6586966619
  S         2.0388377569        1.1144709404        3.9980914718
  F        -0.8097018431        1.3757431896        6.3118994644
  F        -2.7668839577        1.5085810289        5.3135755192
  F        -1.8676400520       -0.4516836338        5.6877799068
  F         3.0593507728       -1.1220723574        5.0652656995
  F         3.9943611182        0.7496621399        5.7482536555
  F         2.0016396960        0.1850505080        6.5002049900
  O        -1.6070302074        0.0577604324        2.8377789193
  O        -0.8094489079        2.3813141544        3.3634126368
  O         1.9403282486        2.4970106291        4.4452669419
  O         2.9352903812        0.8166243782        2.8710017765
  N         0.6636794661        0.2933412734        3.8063895499
  C        -1.5929184148        0.8306716319        5.3507028214
  C         2.8125031961        0.1658193687        5.4162270376
  N        -0.1374690264        0.7568142577        0.1476948559
  N         0.6309790500        2.7240762183        0.6902898505
  C        -0.3102083157       -0.7105912396        0.0644830688
  C         0.8649034747       -1.4831825011        0.6571275701
  C         0.6180069009       -3.0020925772        0.6274028200
  C         0.9034584423        1.4063587119        0.6961572944
  C        -1.1020040620        1.6856230993       -0.2070303046
  C        -0.6218016232        2.9181945350        0.1373490898
  C         0.5358677622       -3.6071876310       -0.7818794318
  C         1.4325830824        3.7416670725        1.3791979965
  H        -0.4716099861       -0.9554968113       -0.9927321287
  H        -1.2230782604       -0.9337495743        0.6328933009
  H         1.7883798090       -1.2481645889        0.1078050753
  H         1.0070065721       -1.1618935560        1.7005125710
  H        -0.2965503094       -3.2286318877        1.1937580113
  H         1.4349154900       -3.4825687412        1.1839807269
  H         1.7843238595        0.9645469831        1.1541522079
  H        -2.0434682416        1.3887508419       -0.6472165402
  H        -1.0658957117        3.9004163613        0.0585193844
  H         0.4341969736       -4.7007750691       -0.7376035849
  H        -0.3235344554       -3.2301595767       -1.3522437532
  H         1.4400014368       -3.3836647523       -1.3648747826
  H         1.4633792977        4.6496490790        0.7691889319
  H         2.4445786528        3.3526068640        1.5274066231
  H         0.9816529837        3.9331183380        2.3611257121
      40
 i =      137, E =      -325.5845128446
  S        -0.7948738276        0.9515013517        3.6588115656
  S         2.0385910064        1.1143455414        3.9981534339
  F        -0.8097526279        1.3757528593        6.3119054982
  F        -2.7670803402        1.5086056870        5.3136286551
  F        -1.8676994813       -0.4516239681        5.6878148264
  F         3.0593451928       -1.1220996184        5.0652652685
  F         3.9943012696        0.7496562045        5.7482112184
  F         2.0016292115        0.1850290314        6.5002379394
  O        -1.6076436956        0.0577998517        2.8381678559
  O        -0.8095201122        2.3812516111        3.3633870389
  O         1.9401497273        2.4968939450        4.4453577776
  O         2.9350253679        0.8165496818        2.8710328243
  N         0.6633196459        0.2931105038        3.8064706183
  C        -1.5930708011        0.8307371494        5.3507763038
  C         2.8124412157        0.1657701814        5.4162301767
  N        -0.1380442644        0.7566327294        0.1473264731
  N         0.6315754927        2.7234207225        0.6899067819
  C        -0.3118380506       -0.7107708043        0.0648746019
  C         0.8623355053       -1.4840698727        0.6585219657
  C         0.6141440182       -3.0027894052        0.6288221871
  C         0.9029856275        1.4054546678        0.6963989401
  C        -1.1015395298        1.6861198185       -0.2085199667
  C        -0.6205877821        2.9184020625        0.1359045596
  C         0.5323679264       -3.6078277521       -0.7803304952
  C         1.4334339174        3.7408520365        1.3788968963
  H        -0.4729899309       -0.9561752220       -0.9922429250
  H        -1.2251264861       -0.9329367532        0.6330308083
  H         1.7863865768       -1.2499012806        0.1097503661
  H         1.0038596467       -1.1627444335        1.7019118624
  H        -0.3010848328       -3.2283943355        1.1943130367
  H         1.4299950826       -3.4838997162        1.1862335916
  H         1.7831655069        0.9630233120        1.1550902594
  H        -2.0428588705        1.3899673261       -0.6495205648
  H        -1.0636739499        3.9009915453        0.0564997645
  H         0.4307556103       -4.7013458296       -0.7361629413
  H        -0.3272741951       -3.2309378766       -1.3504251160
  H         1.4362825704       -3.3839817459       -1.3633883649
  H         1.4651551586        4.6485797041        0.7683982735
  H         2.4452122621        3.3512578672        1.5280107107
  H         0.9819030516        3.9331174546        2.3604440929
      40
 i =      138, E =      -325.5845130773
  S        -0.7951174417        0.9514927151        3.6588653043
  S         2.0383881666        1.1142625260        3.9980984788
  F        -0.8097788565        1.3757682606        6.3119184997
  F        -2.7671683105        1.5086182013        5.3136842131
  F        -1.8677132921       -0.4515874939        5.6878349485
  F         3.0593282722       -1.1221061493        5.0652752183
  F         3.9942382506        0.7496510034        5.7481858917
  F         2.0016138450        0.1850178150        6.5002497014
  O        -1.6082433515        0.0578481052        2.8385300302
  O        -0.8095944099        2.3812085704        3.3633192592
  O         1.9399718518        2.4968036536        4.4453714086
  O         2.9348294893        0.8165329499        2.8709827363
  N         0.6630596279        0.2929759180        3.8063362507
  C        -1.5931442041        0.8307882074        5.3508523844
  C         2.8123701110        0.1657195312        5.4162318716
  N        -0.1382728433        0.7564207865        0.1470044199
  N         0.6315274145        2.7231235875        0.6896256714
  C        -0.3126289087       -0.7109510212        0.0653833904
  C         0.8616856164       -1.4844377473        0.6585559054
  C         0.6125407839       -3.0030666535        0.6299595414
  C         0.9027569269        1.4051195316        0.6961927781
  C        -1.1015806483        1.6860293891       -0.2090417420
  C        -0.6205170968        2.9182621164        0.1354770890
  C         0.5287510694       -3.6087524764       -0.7789559822
  C         1.4334655475        3.7404743763        1.3786369803
  H        -0.4747143486       -0.9568334644       -0.9915308580
  H        -1.2255811065       -0.9324629747        0.6344440150
  H         1.7854598519       -1.2510259451        0.1088410571
  H         1.0041830315       -1.1625894000        1.7017122853
  H        -0.3024756752       -3.2276801169        1.1963515366
  H         1.4285361658       -3.4843590230        1.1870275000
  H         1.7827757001        0.9625245737        1.1550375456
  H        -2.0428413755        1.3900135602       -0.6503061097
  H        -1.0635374486        3.9008953123        0.0561221107
  H         0.4272869044       -4.7022224550       -0.7342845722
  H        -0.3321834152       -3.2322420093       -1.3475889966
  H         1.4316431008       -3.3848997239       -1.3638251338
  H         1.4647768433        4.6482736483        0.7682932232
  H         2.4453603434        3.3510769476        1.5273372691
  H         0.9822160676        3.9324202936        2.3603904136
      40
 i =      139, E =      -325.5845132327
  S        -0.7951715956        0.9514989047        3.6588115287
  S         2.0383346988        1.1142565866        3.9980312450
  F        -0.8097710516        1.3757686042        6.3119126110
  F        -2.7671375052        1.5086340399        5.3136992973
  F        -1.8677178307       -0.4515722627        5.6878347505
  F         3.0593351827       -1.1221073937        5.0652719320
  F         3.9942134606        0.7496509988        5.7481852301
  F         2.0016069273        0.1850007342        6.5002261267
  O        -1.6084100609        0.0578635735        2.8385795389
  O        -0.8096135394        2.3812163672        3.3632122037
  O         1.9399194523        2.4967800560        4.4453732591
  O         2.9347856767        0.8165562650        2.8709389686
  N         0.6630042281        0.2929737246        3.8061781361
  C        -1.5931359121        0.8308042126        5.3508672132
  C         2.8123440969        0.1656774131        5.4162248550
  N        -0.1384497578        0.7563134281        0.1466092493
  N         0.6316108294        2.7228501922        0.6895728247
  C        -0.3133243558       -0.7109687082        0.0652964851
  C         0.8607483059       -1.4846585399        0.6586809302
  C         0.6111782380       -3.0032549679        0.6306488398
  C         0.9026785943        1.4047974293        0.6959012042
  C        -1.1016542310        1.6861303230       -0.2092725633
  C        -0.6204276433        2.9182804934        0.1355111609
  C         0.5270723789       -3.6093248305       -0.7781087255
  C         1.4338775470        3.7399138458        1.3786167893
  H        -0.4755714205       -0.9570689854       -0.9915489281
  H        -1.2263168071       -0.9319485825        0.6345094440
  H         1.7845414270       -1.2516899702        0.1088341992
  H         1.0034831244       -1.1624454851        1.7017000204
  H        -0.3040129545       -3.2272775795        1.1969212755
  H         1.4268615744       -3.4846783267        1.1880132285
  H         1.7826481855        0.9620159394        1.1546860020
  H        -2.0429530107        1.3902504937       -0.6506309257
  H        -1.0634900586        3.9009847107        0.0564420568
  H         0.4259458237       -4.7028527382       -0.7332225373
  H        -0.3344136795       -3.2331937724       -1.3461883928
  H         1.4295507884       -3.3852338664       -1.3635496664
  H         1.4654781111        4.6477330513        0.7682991231
  H         2.4456440847        3.3501299947        1.5272492646
  H         0.9827080271        3.9319191528        2.3604415977
      40
 i =      140, E =      -325.5845133502
  S        -0.7951816413        0.9515092418        3.6587249250
  S         2.0383432932        1.1142513555        3.9979359096
  F        -0.8097492470        1.3757752671        6.3119023974
  F        -2.7670850611        1.5086376889        5.3136941737
  F        -1.8676971549       -0.4515671785        5.6878303249
  F         3.0593354477       -1.1220995168        5.0652723248
  F         3.9942078289        0.7496531712        5.7481885126
  F         2.0016024011        0.1850023306        6.5002011357
  O        -1.6085194029        0.0578828677        2.8385639388
  O        -0.8096252326        2.3812391318        3.3631082915
  O         1.9399153907        2.4967591592        4.4453177918
  O         2.9348391329        0.8165569765        2.8708922172
  N         0.6630263288        0.2930003958        3.8059452869
  C        -1.5930988201        0.8308126197        5.3508517676
  C         2.8123284175        0.1656606578        5.4162104167
  N        -0.1383775955        0.7562645108        0.1463510959
  N         0.6316480135        2.7227565931        0.6895864619
  C        -0.3135091074       -0.7109273124        0.0652276449
  C         0.8603776842       -1.4846790394        0.6588407583
  C         0.6106371760       -3.0032689199        0.6312567681
  C         0.9028005610        1.4047198444        0.6956065981
  C        -1.1017041468        1.6861157635       -0.2092098005
  C        -0.6205114159        2.9182380653        0.1357853449
  C         0.5262367719       -3.6095065602       -0.7774295187
  C         1.4341023034        3.7396359108        1.3786571359
  H        -0.4758352217       -0.9572149003       -0.9915755255
  H        -1.2265499044       -0.9315780246        0.6344882611
  H         1.7842269212       -1.2520477202        0.1089885008
  H         1.0032730383       -1.1621022369        1.7017386205
  H        -0.3045957414       -3.2269831177        1.1975401406
  H         1.4262406350       -3.4847460192        1.1886499425
  H         1.7828645026        0.9619020994        1.1541911006
  H        -2.0430649240        1.3902191634       -0.6504833301
  H        -1.0638077162        3.9009188452        0.0570404870
  H         0.4257997406       -4.7031074599       -0.7325104073
  H        -0.3357733083       -3.2338155979       -1.3450590903
  H         1.4283232183       -3.3849398479       -1.3632704653
  H         1.4658290108        4.6475092717        0.7684234010
  H         2.4457900900        3.3496364733        1.5271549881
  H         0.9830505415        3.9316017025        2.3605633637
      40
 i =      141, E =      -325.5845134648
  S        -0.7951545364        0.9515186278        3.6586277859
  S         2.0383904554        1.1142490307        3.9978441709
  F        -0.8097283153        1.3757731267        6.3118922407
  F        -2.7670268135        1.5086416866        5.3136771323
  F        -1.8676853913       -0.4515769729        5.6878152360
  F         3.0593421055       -1.1221036134        5.0652666477
  F         3.9942046314        0.7496570128        5.7481914706
  F         2.0015942519        0.1850000088        6.5001747476
  O        -1.6085051651        0.0578714727        2.8384868618
  O        -0.8096272774        2.3812632307        3.3630071404
  O         1.9399409941        2.4967523898        4.4452313449
  O         2.9349436554        0.8165280340        2.8708550913
  N         0.6631017890        0.2930376332        3.8057173012
  C        -1.5930569613        0.8308076397        5.3508188578
  C         2.8123208669        0.1656506215        5.4161843446
  N        -0.1381582382        0.7562686521        0.1461367335
  N         0.6317170580        2.7227909858        0.6895393327
  C        -0.3133305446       -0.7108748583        0.0650911553
  C         0.8603830259       -1.4845569319        0.6590786748
  C         0.6106602455       -3.0031607722        0.6317323529
  C         0.9030016393        1.4047754201        0.6953823386
  C        -1.1016234942        1.6860838422       -0.2092448855
  C        -0.6205292272        2.9182144144        0.1358612723
  C         0.5260822781       -3.6094062456       -0.7769375357
  C         1.4341629766        3.7396107308        1.3786844812
  H        -0.4755474010       -0.9572988294       -0.9917087368
  H        -1.2264704373       -0.9313917835        0.6342096385
  H         1.7843523041       -1.2520937093        0.1094596846
  H         1.0031688039       -1.1617180735        1.7019267471
  H        -0.3045160114       -3.2267913688        1.1980514265
  H         1.4263053966       -3.4846354561        1.1890377041
  H         1.7831700466        0.9620026565        1.1538265247
  H        -2.0429858184        1.3901090223       -0.6504889143
  H        -1.0640121753        3.9008598101        0.0572750650
  H         0.4262605325       -4.7031197144       -0.7320441362
  H        -0.3363523750       -3.2340857449       -1.3441527289
  H         1.4278802009       -3.3843701127       -1.3629990840
  H         1.4658408018        4.6475640438        0.7685650143
  H         2.4458501643        3.3495873729        1.5270565205
  H         0.9831675337        3.9314360133        2.3606524610
      40
 i =      142, E =      -325.5845136469
  S        -0.7951187112        0.9515141292        3.6584955828
  S         2.0384623743        1.1142311513        3.9977260353
  F        -0.8096997526        1.3757743284        6.3118736969
  F        -2.7669573297        1.5086375613        5.3136492445
  F        -1.8676603500       -0.4515920210        5.6877996096
  F         3.0593421373       -1.1221033605        5.0652639405
  F         3.9942103498        0.7496625926        5.7481891674
  F         2.0015880616        0.1850125753        6.5001489503
  O        -1.6084807922        0.0578463667        2.8383689311
  O        -0.8096398455        2.3812774593        3.3628979177
  O         1.9399824856        2.4967342770        4.4450934206
  O         2.9351058271        0.8164746580        2.8708152466
  N         0.6632132662        0.2930781225        3.8054110337
  C        -1.5930006785        0.8308004086        5.3507672752
  C         2.8123185170        0.1656597008        5.4161483065
  N        -0.1376625508        0.7563542557        0.1459524038
  N         0.6317508116        2.7230094427        0.6895061078
  C        -0.3126199502       -0.7107775417        0.0649366756
  C         0.8609414871       -1.4842327386        0.6594390013
  C         0.6113820241       -3.0028779312        0.6323946209
  C         0.9033668973        1.4050685526        0.6951862160
  C        -1.1013982080        1.6859803706       -0.2092888851
  C        -0.6206005911        2.9181696864        0.1359115737
  C         0.5262826474       -3.6091180923       -0.7762281792
  C         1.4339553174        3.7398940752        1.3787979842
  H        -0.4745837960       -0.9573549579       -0.9918878149
  H        -1.2259219717       -0.9313387237        0.6337445134
  H         1.7850953060       -1.2519147353        0.1101622975
  H         1.0035037638       -1.1610684752        1.7022385699
  H        -0.3035380942       -3.2265532485        1.1990504941
  H         1.4273601906       -3.4842542724        1.1893057616
  H         1.7837039629        0.9624797058        1.1534896430
  H        -2.0426946476        1.3897946490       -0.6505221455
  H        -1.0643607468        3.9007042359        0.0574292721
  H         0.4275076457       -4.7029833293       -0.7313393493
  H        -0.3369145029       -3.2344324147       -1.3427370428
  H         1.4275382903       -3.3833132095       -1.3627756774
  H         1.4653391318        4.6480108236        0.7689134609
  H         2.4457323157        3.3500980557        1.5269678294
  H         0.9830056671        3.9313557499        2.3608427965
      40
 i =      143, E =      -325.5845139385
  S        -0.7950690059        0.9514940726        3.6583298752
  S         2.0385482565        1.1142063544        3.9976023758
  F        -0.8096713809        1.3757632267        6.3118480150
  F        -2.7668702041        1.5086309925        5.3136126874
  F        -1.8676382692       -0.4516226279        5.6877763463
  F         3.0593431105       -1.1221165165        5.0652571316
  F         3.9942100535        0.7496659444        5.7481827359
  F         2.0015754215        0.1850235946        6.5001252492
  O        -1.6083637488        0.0578045323        2.8381448570
  O        -0.8096514458        2.3812809768        3.3627899261
  O         1.9400283307        2.4967170673        4.4449378191
  O         2.9353093883        0.8164013580        2.8707866227
  N         0.6633588124        0.2931176041        3.8050796360
  C        -1.5929391185        0.8307738550        5.3507026096
  C         2.8123193589        0.1656732362        5.4161015461
  N        -0.1368867133        0.7565258167        0.1457656838
  N         0.6318407511        2.7234129346        0.6894547350
  C        -0.3113061674       -0.7106603524        0.0646171352
  C         0.8620532741       -1.4836943247        0.6599941910
  C         0.6128449630       -3.0024103829        0.6333109030
  C         0.9038969957        1.4055623709        0.6950712148
  C        -1.1009281118        1.6858604722       -0.2094968827
  C        -0.6205671826        2.9181628644        0.1357746882
  C         0.5269355438       -3.6086919469       -0.7752036307
  C         1.4335435147        3.7404746023        1.3790347523
  H        -0.4725713028       -0.9573301391       -0.9923210537
  H        -1.2249499600       -0.9315206267        0.6326982783
  H         1.7864927067       -1.2514340549        0.1112798447
  H         1.0040616907       -1.1601528950        1.7027773071
  H        -0.3015800409       -3.2262694018        1.2006025131
  H         1.4294648699       -3.4834991092        1.1895481983
  H         1.7844075907        0.9632573614        1.1533372132
  H        -2.0420591237        1.3893907683       -0.6508573316
  H        -1.0645838251        3.9005633402        0.0572773615
  H         0.4295859190       -4.7027380684       -0.7302278096
  H        -0.3373611291       -3.2349891331       -1.3406753701
  H         1.4273654106       -3.3818530380       -1.3625400800
  H         1.4641343544        4.6489340474        0.7696316145
  H         2.4456089148        3.3512821150        1.5266830119
  H         0.9827462036        3.9311368498        2.3612927030
      40
 i =      144, E =      -325.5845144197
  S        -0.7949848557        0.9514457235        3.6581423644
  S         2.0386525765        1.1141852804        3.9975177933
  F        -0.8096453880        1.3757450804        6.3118094421
  F        -2.7667717301        1.5086130288        5.3135693761
  F        -1.8676123451       -0.4516621892        5.6877542004
  F         3.0593430640       -1.1221252189        5.0652532482
  F         3.9942229384        0.7496682705        5.7481734545
  F         2.0015740683        0.1850416778        6.5001126570
  O        -1.6081034136        0.0577501829        2.8377844480
  O        -0.8096615308        2.3812629001        3.3627299539
  O         1.9400824403        2.4967041282        4.4448145672
  O         2.9355230466        0.8163505859        2.8707876521
  N         0.6635369583        0.2931593056        3.8047929286
  C        -1.5928725386        0.8307289029        5.3506261590
  C         2.8123446606        0.1657070692        5.4160654816
  N        -0.1357228445        0.7567538747        0.1455028171
  N         0.6320094374        2.7239226351        0.6894873209
  C        -0.3092974342       -0.7105646564        0.0640003430
  C         0.8637180832       -1.4830652183        0.6607039245
  C         0.6148116255       -3.0018501076        0.6347921365
  C         0.9046518497        1.4062071723        0.6950602700
  C        -1.1000811564        1.6856869519       -0.2099550274
  C        -0.6203566238        2.9181372777        0.1354946594
  C         0.5270600391       -3.6085759139       -0.7733642858
  C         1.4328994798        3.7412366248        1.3796136489
  H        -0.4692779909       -0.9572272810       -0.9931627344
  H        -1.2235650417       -0.9319880657        0.6308185212
  H         1.7885806312       -1.2510090840        0.1126568380
  H         1.0048820430       -1.1589664065        1.7034353002
  H        -0.2987322405       -3.2257615442        1.2034379396
  H         1.4325145776       -3.4825007571        1.1898886207
  H         1.7853035310        0.9642835318        1.1534343466
  H        -2.0409150966        1.3888747796       -0.6516514599
  H        -1.0646238012        3.9003548070        0.0568999847
  H         0.4315794111       -4.7028208747       -0.7278834059
  H        -0.3390606386       -3.2363722901       -1.3370718996
  H         1.4259989845       -3.3804902408       -1.3624542088
  H         1.4620716933        4.6503468215        0.7711177525
  H         2.4454928912        3.3531126605        1.5262997301
  H         0.9823931400        3.9304122034        2.3622626697
      40
 i =      145, E =      -325.5845151073
  S        -0.7949502027        0.9513876264        3.6579942961
  S         2.0386927277        1.1141618416        3.9975284974
  F        -0.8096373481        1.3757169905        6.3117620126
  F        -2.7667146979        1.5085918085        5.3135452659
  F        -1.8676019367       -0.4517001673        5.6877383899
  F         3.0593404827       -1.1221419236        5.0652514669
  F         3.9942202621        0.7496613390        5.7481663985
  F         2.0015705526        0.1850498905        6.5001243785
  O        -1.6078520470        0.0577616976        2.8373409579
  O        -0.8096599180        2.3812359047        3.3627697609
  O         1.9400882289        2.4966817847        4.4448305499
  O         2.9356341549        0.8163443253        2.8708423417
  N         0.6636269474        0.2931505122        3.8046991337
  C        -1.5928477668        0.8306678177        5.3505682335
  C         2.8123707574        0.1657315283        5.4160607328
  N        -0.1346509040        0.7567831563        0.1450808620
  N         0.6324973743        2.7240440299        0.6895456209
  C        -0.3075869757       -0.7106827640        0.0630175879
  C         0.8646605892       -1.4829035409        0.6616201839
  C         0.6153475711       -3.0016395447        0.6372652130
  C         0.9053580645        1.4063787970        0.6951739246
  C        -1.0989401479        1.6855678446       -0.2108551488
  C        -0.6196013778        2.9180708790        0.1349033883
  C         0.5241628425       -3.6095704342       -0.7701095912
  C         1.4326296976        3.7414438363        1.3804467779
  H        -0.4655396794       -0.9571893388       -0.9944983255
  H        -1.2228804421       -0.9325878286        0.6279610182
  H         1.7900721132       -1.2516270340        0.1141171188
  H         1.0048645261       -1.1579302488        1.7041836571
  H        -0.2969089874       -3.2249106267        1.2082231596
  H         1.4344070618       -3.4818763623        1.1907858555
  H         1.7859000707        0.9646029869        1.1539175112
  H        -2.0394410168        1.3887091218       -0.6531692920
  H        -1.0637749872        3.9002501659        0.0561078587
  H         0.4305407803       -4.7039067329       -0.7233954185
  H        -0.3444209689       -3.2392502797       -1.3312673445
  H         1.4208372812       -3.3805826751       -1.3622917376
  H         1.4599334053        4.6514891822        0.7732487708
  H         2.4459326743        3.3545736237        1.5256218462
  H         0.9827027667        3.9285924598        2.3637506880
      40
 i =      146, E =      -325.5845159455
  S        -0.7948722938        0.9513645495        3.6579820191
  S         2.0387110308        1.1141999417        3.9977293087
  F        -0.8096608330        1.3756873528        6.3117272214
  F        -2.7667207239        1.5085712527        5.3135431970
  F        -1.8676121891       -0.4517195215        5.6877322187
  F         3.0593467096       -1.1221420676        5.0652563377
  F         3.9942414128        0.7496488992        5.7481762270
  F         2.0015939454        0.1850415620        6.5001637734
  O        -1.6074035832        0.0578143981        2.8368974091
  O        -0.8096137665        2.3812295177        3.3629446339
  O         1.9400959696        2.4967052511        4.4450790946
  O         2.9355697043        0.8164554605        2.8709670922
  N         0.6636476884        0.2931447518        3.8050306755
  C        -1.5928708000        0.8306119268        5.3505484210
  C         2.8124308184        0.1657473791        5.4161241813
  N        -0.1342364814        0.7562665520        0.1443683824
  N         0.6334467292        2.7231182802        0.6895471515
  C        -0.3076022951       -0.7112511479        0.0618497528
  C         0.8631689508       -1.4840701391        0.6626748061
  C         0.6116708215       -3.0024793680        0.6412351732
  C         0.9056825673        1.4053294450        0.6953120811
  C        -1.0977167120        1.6855149153       -0.2123381389
  C        -0.6180682141        2.9177948222        0.1339116110
  C         0.5141995340       -3.6128285698       -0.7647055562
  C         1.4333589005        3.7401604522        1.3813367166
  H        -0.4632406970       -0.9575583671       -0.9960290943
  H        -1.2242422354       -0.9329044665        0.6247454599
  H         1.7892091157       -1.2549282550        0.1151557733
  H         1.0028573984       -1.1577157813        1.7048038974
  H        -0.2988431690       -3.2235207109        1.2159497321
  H         1.4321360378       -3.4828540710        1.1926053341
  H         1.7856821394        0.9631466624        1.1547030103
  H        -2.0379889532        1.3892250434       -0.6555122417
  H        -1.0615561186        3.9002134875        0.0548216681
  H         0.4214882155       -4.7070825025       -0.7156104648
  H        -0.3575238613       -3.2442167704       -1.3221580771
  H         1.4076247120       -3.3841509374       -1.3620678682
  H         1.4591757967        4.6511847511        0.7755098599
  H         2.4472254109        3.3540842238        1.5249637876
  H         0.9840993312        3.9253740110        2.3653296036
      40
 i =      147, E =      -325.5845164493
  S        -0.7948976801        0.9513900739        3.6580668429
  S         2.0386370910        1.1142284010        3.9979754754
  F        -0.8096972943        1.3756816841        6.3117025726
  F        -2.7668232129        1.5085652681        5.3135734035
  F        -1.8676375827       -0.4517080678        5.6877385373
  F         3.0593460837       -1.1221318884        5.0652703699
  F         3.9942515932        0.7496363885        5.7482014889
  F         2.0016081692        0.1850244438        6.5002134379
  O        -1.6072503979        0.0579736416        2.8366501105
  O        -0.8095559017        2.3812606062        3.3631489492
  O         1.9400628866        2.4967147016        4.4453984213
  O         2.9353431056        0.8165645345        2.8710777727
  N         0.6634976247        0.2930905707        3.8055860068
  C        -1.5929522742        0.8305989484        5.3505585407
  C         2.8124498177        0.1657261925        5.4162176660
  N        -0.1349801171        0.7553701472        0.1437809852
  N         0.6344937196        2.7214041763        0.6895267443
  C        -0.3098568453       -0.7119741319        0.0609310212
  C         0.8592301995       -1.4861290030        0.6634149259
  C         0.6048613570       -3.0040649809        0.6445301546
  C         0.9053610865        1.4033183385        0.6953084008
  C        -1.0972694365        1.6856369707       -0.2133250259
  C        -0.6165157260        2.9174482242        0.1333174783
  C         0.5022150197       -3.6165950559       -0.7601571238
  C         1.4351780577        3.7376584209        1.3816955788
  H        -0.4637702083       -0.9580227957       -0.9971959646
  H        -1.2276637781       -0.9326380618        0.6223497043
  H         1.7857698501       -1.2593924971        0.1155787204
  H         0.9990074835       -1.1586281980        1.7051042896
  H        -0.3045110406       -3.2225246226        1.2221433309
  H         1.4258221968       -3.4851177500        1.1945473829
  H         1.7846689224        0.9602252447        1.1551185515
  H        -2.0376870362        1.3903569294       -0.6569091635
  H        -1.0590144378        3.9003428943        0.0541415447
  H         0.4088544921       -4.7105818947       -0.7089663893
  H        -0.3710792475       -3.2483862238       -1.3153251063
  H         1.3935564472       -3.3895062342       -1.3613122147
  H         1.4613530532        4.6489434202        0.7762722444
  H         2.4489024632        3.3509666097        1.5249581711
  H         0.9862120886        3.9226518217        2.3658968614
      40
 i =      148, E =      -325.5845166548
  S        -0.7947513753        0.9514211945        3.6581143406
  S         2.0386757673        1.1142883326        3.9981485070
  F        -0.8097259220        1.3756790287        6.3116821737
  F        -2.7668782416        1.5085573887        5.3135678929
  F        -1.8676557372       -0.4517167299        5.6877283415
  F         3.0593506988       -1.1221128510        5.0652822561
  F         3.9943000030        0.7496317651        5.7482336006
  F         2.0016306313        0.1850131861        6.5002342915
  O        -1.6067205404        0.0579997305        2.8363531393
  O        -0.8094733236        2.3812928672        3.3632417645
  O         1.9401253105        2.4967816287        4.4455592341
  O         2.9352303099        0.8166332602        2.8711348111
  N         0.6635108959        0.2931264711        3.8061323571
  C        -1.5929890909        0.8305932362        5.3505310520
  C         2.8124763594        0.1657066340        5.4162802217
  N        -0.1354745623        0.7551445187        0.1437970844
  N         0.6350070603        2.7207310965        0.6897787044
  C        -0.3111245367       -0.7120186550        0.0604951274
  C         0.8571514690       -1.4869266698        0.6635879899
  C         0.6023020467       -3.0047485640        0.6439966755
  C         0.9052966808        1.4025072867        0.6951846251
  C        -1.0974711598        1.6859104407       -0.2127998420
  C        -0.6160724959        2.9174495355        0.1340003023
  C         0.5018376352       -3.6169997113       -0.7609003298
  C         1.4364817850        3.7364836997        1.3818020960
  H        -0.4643198358       -0.9577603199       -0.9977718267
  H        -1.2293925704       -0.9322600212        0.6213178408
  H         1.7841515767       -1.2603810882        0.1164943984
  H         0.9962946924       -1.1597636577        1.7054454266
  H        -0.3080046815       -3.2230559255        1.2201154340
  H         1.4220602806       -3.4862619934        1.1953044185
  H         1.7844529388        0.9589334265        1.1547877008
  H        -2.0382268313        1.3910650947       -0.6560018524
  H        -1.0583399615        3.9005288442        0.0552223320
  H         0.4071226470       -4.7108494207       -0.7100472110
  H        -0.3697313017       -3.2476859392       -1.3178924484
  H         1.3945655413       -3.3908892188       -1.3601925552
  H         1.4637835022        4.6474485397        0.7760101712
  H         2.4497591998        3.3488354005        1.5255888635
  H         0.9874343780        3.9223251917        2.3657998772
      40
 i =      149, E =      -325.5845167818
  S        -0.7947866746        0.9514726210        3.6581094046
  S         2.0386143309        1.1142779339        3.9982139003
  F        -0.8097548309        1.3756874793        6.3116565508
  F        -2.7669875740        1.5085595003        5.3135726695
  F        -1.8676867430       -0.4517070993        5.6877258402
  F         3.0593567800       -1.1221059252        5.0652857512
  F         3.9943054949        0.7496359483        5.7482431963
  F         2.0016344898        0.1849970780        6.5002382741
  O        -1.6067049253        0.0581156344        2.8362175828
  O        -0.8094427443        2.3813469508        3.3632537664
  O         1.9401266983        2.4967778637        4.4456283881
  O         2.9350893841        0.8166249437        2.8711366172
  N         0.6633900821        0.2930993583        3.8063923484
  C        -1.5930650375        0.8306150423        5.3505064183
  C         2.8124492664        0.1656661381        5.4163037317
  N        -0.1362248920        0.7547516450        0.1435910756
  N         0.6353387734        2.7198583942        0.6897289805
  C        -0.3129466187       -0.7121907223        0.0602621459
  C         0.8545234633       -1.4879382250        0.6637738174
  C         0.5985353137       -3.0055774504        0.6442339714
  C         0.9049421375        1.4014788668        0.6949336496
  C        -1.0977972715        1.6860768523       -0.2127474180
  C        -0.6157108032        2.9173146006        0.1341498368
  C         0.4985897736       -3.6179044566       -0.7607195556
  C         1.4375707062        3.7351845598        1.3815037525
  H        -0.4659537759       -0.9578813584       -0.9980075527
  H        -1.2314770653       -0.9316695501        0.6209223242
  H         1.7818143383       -1.2621887663        0.1169318153
  H         0.9937736827       -1.1607022650        1.7056133060
  H        -0.3123401240       -3.2231420438        1.2198081441
  H         1.4174330958       -3.4876878540        1.1962482143
  H         1.7839099123        0.9574147836        1.1543737257
  H        -2.0388163761        1.3917081456       -0.6557339175
  H        -1.0576500301        3.9006098596        0.0555637877
  H         0.4024844370       -4.7116424822       -0.7097858851
  H        -0.3720088891       -3.2475920359       -1.3186298482
  H         1.3921790318       -3.3929681855       -1.3592425482
  H         1.4668410082        4.6455208379        0.7748308019
  H         2.4501364948        3.3461716988        1.5267205150
  H         0.9878645316        3.9226366924        2.3649065037
      40
 i =      150, E =      -325.5845168580
  S        -0.7947937301        0.9514947226        3.6580129992
  S         2.0385985197        1.1142489246        3.9982131809
  F        -0.8097640921        1.3756898168        6.3116157626
  F        -2.7670412219        1.5085519407        5.3135641040
  F        -1.8676900568       -0.4517112108        5.6877046870
  F         3.0593473119       -1.1221104564        5.0652916119
  F         3.9943071699        0.7496348682        5.7482435125
  F         2.0016302286        0.1849990304        6.5002402339
  O        -1.6066137842        0.0581748706        2.8359704478
  O        -0.8094322341        2.3813793452        3.3631883013
  O         1.9401344549        2.4967602935        4.4456022313
  O         2.9350648312        0.8165770221        2.8711224566
  N         0.6633549521        0.2930975251        3.8064564067
  C        -1.5931027837        0.8306245709        5.3504493987
  C         2.8124243877        0.1656454215        5.4163050105
  N        -0.1364180646        0.7546015365        0.1433397345
  N         0.6357764079        2.7194356789        0.6895965664
  C        -0.3137121688       -0.7122165335        0.0599726388
  C         0.8530305515       -1.4884459902        0.6641790903
  C         0.5964986456       -3.0059931987        0.6440906811
  C         0.9049436004        1.4009440396        0.6947443284
  C        -1.0977024000        1.6862727263       -0.2129826120
  C        -0.6152033962        2.9173220378        0.1339797971
  C         0.4984784044       -3.6178871591       -0.7611594811
  C         1.4383546664        3.7345082336        1.3813251360
  H        -0.4663066680       -0.9579440950       -0.9983589363
  H        -1.2326234010       -0.9312504224        0.6202021009
  H         1.7808374871       -1.2630542932        0.1181004439
  H         0.9918008997       -1.1613251635        1.7061584037
  H        -0.3152609706       -3.2233674706        1.2183320315
  H         1.4143958588       -3.4885415783        1.1971973851
  H         1.7837481721        0.9565619814        1.1542033430
  H        -2.0388163839        1.3922059042       -0.6559798152
  H        -1.0568859189        3.9007612558        0.0554613161
  H         0.4014942268       -4.7115836350       -0.7107302154
  H        -0.3708707125       -3.2467486080       -1.3204809579
  H         1.3933082511       -3.3934514639       -1.3579824080
  H         1.4683318815        4.6445920771        0.7743781445
  H         2.4506160618        3.3449428377        1.5269926987
  H         0.9884691739        3.9225438148        2.3645256226
      40
 i =      151, E =      -325.5845169419
  S        -0.7947794314        0.9515207461        3.6578384713
  S         2.0385977578        1.1142207537        3.9981957328
  F        -0.8097775224        1.3756807127        6.3115608319
  F        -2.7670721306        1.5085415590        5.3135382645
  F        -1.8676942528       -0.4517232833        5.6876724904
  F         3.0593448831       -1.1221165779        5.0652946615
  F         3.9943035105        0.7496388122        5.7482363647
  F         2.0016280443        0.1849990370        6.5002396619
  O        -1.6064147045        0.0582472191        2.8355376439
  O        -0.8094240770        2.3814260619        3.3630888921
  O         1.9401559829        2.4967392429        4.4455620405
  O         2.9350697167        0.8165260147        2.8711040450
  N         0.6633523945        0.2931276728        3.8064421640
  C        -1.5931343273        0.8306191012        5.3503624725
  C         2.8124061796        0.1656369461        5.4162958464
  N        -0.1364843989        0.7543974244        0.1427265331
  N         0.6364605719        2.7188219090        0.6892937771
  C        -0.3145326547       -0.7123080859        0.0592721844
  C         0.8509400864       -1.4892502426        0.6649645242
  C         0.5932830910       -3.0066180225        0.6446861962
  C         0.9050048664        1.4002034283        0.6944800115
  C        -1.0972190532        1.6865375431       -0.2138881213
  C        -0.6142478360        2.9173131129        0.1332763952
  C         0.4967493875       -3.6184191054       -0.7606984886
  C         1.4393262801        3.7335481861        1.3811803302
  H        -0.4661040865       -0.9580765387       -0.9992117967
  H        -1.2342251030       -0.9307608460        0.6184475181
  H         1.7795917971       -1.2647124854        0.1200199811
  H         0.9888323884       -1.1620322857        1.7070667916
  H        -0.3193636472       -3.2233201382        1.2177765742
  H         1.4101162331       -3.4897386431        1.1988636004
  H         1.7834910237        0.9554208430        1.1541585994
  H        -2.0383049917        1.3929449491       -0.6572386540
  H        -1.0554129474        3.9009626140        0.0546593556
  H         0.3989125140       -4.7120665703       -0.7104710228
  H        -0.3715797347       -3.2466182759       -1.3211894013
  H         1.3926091426       -3.3945880671       -1.3562165878
  H         1.4701999526        4.6434590630        0.7740370451
  H         2.4512315356        3.3433482384        1.5274701292
  H         0.9890694356        3.9221126141        2.3640991988
      40
 i =      152, E =      -325.5845170162
  S        -0.7947808616        0.9515345788        3.6576208187
  S         2.0385924222        1.1141947157        3.9981575317
  F        -0.8097747673        1.3756692449        6.3114956365
  F        -2.7670655657        1.5085321850        5.3135136746
  F        -1.8676891355       -0.4517359145        5.6876430056
  F         3.0593421008       -1.1221251185        5.0652939334
  F         3.9942918828        0.7496415281        5.7482262240
  F         2.0016210057        0.1850039071        6.5002386659
  O        -1.6062524882        0.0583330008        2.8350338428
  O        -0.8094278137        2.3814708012        3.3629874311
  O         1.9401683197        2.4967155155        4.4455080533
  O         2.9351046508        0.8164827790        2.8710873006
  N         0.6633612126        0.2931730254        3.8063503712
  C        -1.5931460595        0.8306019320        5.3502713977
  C         2.8123953525        0.1656447107        5.4162816231
  N        -0.1364340789        0.7542826063        0.1420722080
  N         0.6371374327        2.7183463231        0.6889876113
  C        -0.3150151401       -0.7123516189        0.0583671458
  C         0.8491601220       -1.4898690742        0.6657641809
  C         0.5905835782       -3.0070665715        0.6452075242
  C         0.9050738388        1.3996100065        0.6943411066
  C        -1.0965453136        1.6868603363       -0.2150755576
  C        -0.6131876601        2.9174037434        0.1323074888
  C         0.4960353540       -3.6188454179       -0.7603238136
  C         1.4401405751        3.7327803054        1.3811033668
  H        -0.4652341032       -0.9580589351       -1.0003425675
  H        -1.2356282783       -0.9304275057        0.6161514551
  H         1.7787278473       -1.2660031337        0.1221257598
  H         0.9859006652       -1.1625909017        1.7080374362
  H        -0.3230803537       -3.2232174123        1.2169099812
  H         1.4063412421       -3.4905920892        1.2006704023
  H         1.7832036807        0.9544909006        1.1543918720
  H        -2.0374814021        1.3937240774       -0.6590137828
  H        -1.0537557977        3.9012728854        0.0534086529
  H         0.3975028598       -4.7124451597       -0.7102499020
  H        -0.3711417473       -3.2465624298       -1.3222999468
  H         1.3930663593       -3.3955228077       -1.3542693542
  H         1.4717434708        4.6425930668        0.7738549530
  H         2.4517541363        3.3420835975        1.5279251447
  H         0.9895062594        3.9216982632        2.3637704443
      40
 i =      153, E =      -325.5845170662
  S        -0.7947197429        0.9515431521        3.6575237090
  S         2.0386214005        1.1142192586        3.9981663659
  F        -0.8097710076        1.3756571601        6.3114681033
  F        -2.7670252007        1.5085272926        5.3134965121
  F        -1.8676796650       -0.4517408493        5.6876259052
  F         3.0593442076       -1.1221241998        5.0652914607
  F         3.9942945027        0.7496411950        5.7482261572
  F         2.0016250865        0.1850060903        6.5002401733
  O        -1.6060078533        0.0583388379        2.8347475372
  O        -0.8094165788        2.3814884964        3.3629311501
  O         1.9401950277        2.4967362590        4.4455125419
  O         2.9351308831        0.8165022613        2.8710941846
  N         0.6634158795        0.2932363795        3.8063546131
  C        -1.5931297159        0.8305862911        5.3502289937
  C         2.8124139308        0.1656608806        5.4162838479
  N        -0.1363736326        0.7542210966        0.1416121687
  N         0.6376141171        2.7180404076        0.6887479128
  C        -0.3153316801       -0.7123879171        0.0578115671
  C         0.8479746061       -1.4902991436        0.6663667916
  C         0.5887364886       -3.0073650170        0.6457273731
  C         0.9051003597        1.3992269380        0.6943318012
  C        -1.0959679400        1.6870975400       -0.2160941012
  C        -0.6123598588        2.9174996583        0.1314436477
  C         0.4954067823       -3.6192946263       -0.7598442048
  C         1.4406684929        3.7322810671        1.3810701130
  H        -0.4646409636       -0.9580879590       -1.0010372344
  H        -1.2365650528       -0.9301681712        0.6146718937
  H         1.7781492990       -1.2669149437        0.1235473008
  H         0.9838875019       -1.1629646189        1.7087322077
  H        -0.3256316053       -3.2230507560        1.2164904691
  H         1.4037614708       -3.4911375490        1.2020786193
  H         1.7829221652        0.9538827854        1.1547656261
  H        -2.0367379305        1.3942890633       -0.6605869658
  H        -1.0524556900        3.9015329311        0.0522294978
  H         0.3964454106       -4.7128521571       -0.7097519706
  H        -0.3710929486       -3.2468042342       -1.3227558409
  H         1.3931229931       -3.3963214503       -1.3529383377
  H         1.4725481715        4.6421050462        0.7738545506
  H         2.4521688494        3.3413925814        1.5280707083
  H         0.9898699093        3.9212625848        2.3636439914
      40
 i =      154, E =      -325.5845171158
  S        -0.7947102605        0.9515425311        3.6574781860
  S         2.0386259371        1.1142395714        3.9981796342
  F        -0.8097617635        1.3756504247        6.3114568422
  F        -2.7669840264        1.5085302658        5.3134920442
  F        -1.8676714857       -0.4517372676        5.6876231962
  F         3.0593491672       -1.1221207783        5.0652894973
  F         3.9942901640        0.7496426093        5.7482292097
  F         2.0016264081        0.1850063309        6.5002438663
  O        -1.6059550954        0.0583488613        2.8346281537
  O        -0.8094141059        2.3814912425        3.3629040040
  O         1.9401932817        2.4967470686        4.4455390013
  O         2.9351348166        0.8165341756        2.8711063241
  N         0.6634288105        0.2932660871        3.8063509100
  C        -1.5931107110        0.8305754241        5.3502170266
  C         2.8124322699        0.1656753344        5.4162942694
  N        -0.1363662207        0.7542082923        0.1412742676
  N         0.6379685613        2.7178181598        0.6886283632
  C        -0.3156096425       -0.7123767106        0.0573338262
  C         0.8470059139       -1.4905768389        0.6668645170
  C         0.5873554433       -3.0075349622        0.6461010794
  C         0.9050595786        1.3989451112        0.6944182555
  C        -1.0954882605        1.6873390330       -0.2169431412
  C        -0.6116788386        2.9176335602        0.1307501805
  C         0.4954757241       -3.6196836258       -0.7595238834
  C         1.4411036586        3.7318925640        1.3810919419
  H        -0.4640788586       -0.9580201009       -1.0016484082
  H        -1.2373880470       -0.9299511538        0.6133551542
  H         1.7776695106       -1.2674564417        0.1247353826
  H         0.9821243641       -1.1632300394        1.7093218299
  H        -0.3277511090       -3.2228846049        1.2158217610
  H         1.4016597451       -3.4914282328        1.2034472470
  H         1.7826060008        0.9534044622        1.1551883993
  H        -2.0360994093        1.3947963893       -0.6619429886
  H        -1.0513672789        3.9018107631        0.0512205438
  H         0.3961655688       -4.7131968560       -0.7093485237
  H        -0.3702606822       -3.2470976916       -1.3235563906
  H         1.3939377585       -3.3970250338       -1.3516443462
  H         1.4733604533        4.6416884653        0.7738216273
  H         2.4524701138        3.3407430582        1.5283670371
  H         0.9901064894        3.9210363685        2.3635403495
      40
 i =      155, E =      -325.5845171635
  S        -0.7946750573        0.9515455131        3.6575233570
  S         2.0386488712        1.1142791846        3.9982211802
  F        -0.8097528929        1.3756489267        6.3114699326
  F        -2.7669459614        1.5085362251        5.3134967196
  F        -1.8676645719       -0.4517276343        5.6876280142
  F         3.0593539398       -1.1221148029        5.0652875543
  F         3.9942989891        0.7496388636        5.7482388236
  F         2.0016331771        0.1850040834        6.5002471205
  O        -1.6058853460        0.0583108994        2.8346946940
  O        -0.8093973222        2.3814790758        3.3629022454
  O         1.9402044467        2.4967784487        4.4455940974
  O         2.9351334737        0.8165847611        2.8711342857
  N         0.6634567318        0.2932893351        3.8064200654
  C        -1.5930846637        0.8305759919        5.3502365203
  C         2.8124586699        0.1656827631        5.4163121885
  N        -0.1364142532        0.7541685411        0.1411462656
  N         0.6382688003        2.7176253045        0.6885646320
  C        -0.3159529072       -0.7123889776        0.0572421160
  C         0.8462344396       -1.4907870327        0.6673692870
  C         0.5862743963       -3.0076678032        0.6466035222
  C         0.9050253564        1.3986933392        0.6945405690
  C        -1.0951757306        1.6875063816       -0.2174397191
  C        -0.6111579483        2.9177304456        0.1303096790
  C         0.4952902248       -3.6200721664       -0.7590189723
  C         1.4415310876        3.7315662069        1.3810904724
  H        -0.4639597427       -0.9580846648       -1.0017900159
  H        -1.2380387000       -0.9297058735        0.6128420676
  H         1.7771853763       -1.2678644285        0.1256117767
  H         0.9808431360       -1.1634001948        1.7098542529
  H        -0.3293627456       -3.2227042002        1.2155939780
  H         1.4000483056       -3.4916586729        1.2046544304
  H         1.7823528601        0.9529771361        1.1555568128
  H        -2.0357092989        1.3951593303       -0.6627514964
  H        -1.0505583489        3.9020233416        0.0505470593
  H         0.3957515923       -4.7135516987       -0.7087165584
  H        -0.3699602713       -3.2474624455       -1.3237895279
  H         1.3942084736       -3.3976615278       -1.3505958810
  H         1.4738562120        4.6413793670        0.7738462584
  H         2.4528747333        3.3403206221        1.5283245619
  H         0.9905748167        3.9207240314        2.3635564339
      40
 i =      156, E =      -325.5845172308
  S        -0.7946719732        0.9515495157        3.6576082745
  S         2.0386713371        1.1143096655        3.9982556596
  F        -0.8097433261        1.3756524431        6.3115000510
  F        -2.7669162909        1.5085478654        5.3135066839
  F        -1.8676595394       -0.4517154800        5.6876411689
  F         3.0593617464       -1.1221071738        5.0652873838
  F         3.9943070062        0.7496381371        5.7482508225
  F         2.0016377604        0.1849994551        6.5002489208
  O        -1.6059556058        0.0582701872        2.8349137380
  O        -0.8093829498        2.3814616873        3.3629151404
  O         1.9402072573        2.4967985546        4.4456515133
  O         2.9351383674        0.8166318048        2.8711615126
  N         0.6634671925        0.2932854246        3.8064567499
  C        -1.5930573248        0.8305851680        5.3502761733
  C         2.8124799968        0.1656826035        5.4163313470
  N        -0.1364565250        0.7541526014        0.1411513261
  N         0.6385513399        2.7174734382        0.6886012142
  C        -0.3162752500       -0.7123644299        0.0572872980
  C         0.8455322869       -1.4909016146        0.6680079344
  C         0.5854225743       -3.0077365643        0.6471778863
  C         0.9050382294        1.3984992178        0.6946647751
  C        -1.0949624361        1.6876588118       -0.2176122897
  C        -0.6107540662        2.9178214072        0.1301693256
  C         0.4956876399       -3.6204038650       -0.7584801935
  C         1.4420159482        3.7312849359        1.3811098747
  H        -0.4638230529       -0.9581346640       -1.0017853646
  H        -1.2386501715       -0.9294213755        0.6125054105
  H         1.7767555875       -1.2680556207        0.1266545699
  H         0.9795578832       -1.1634777230        1.7105278599
  H        -0.3308385729       -3.2225463449        1.2152415168
  H         1.3985769191       -3.4917735112        1.2061015573
  H         1.7822127437        0.9526224289        1.1557951625
  H        -2.0354975497        1.3954483316       -0.6630400082
  H        -1.0499700041        3.9022003627        0.0502698846
  H         0.3958827907       -4.7138551457       -0.7080500595
  H        -0.3688755799       -3.2477490819       -1.3242655730
  H         1.3952486939       -3.3982883751       -1.3492335034
  H         1.4746311462        4.6410426137        0.7737633502
  H         2.4532735888        3.3398014514        1.5284880629
  H         0.9910285762        3.9206495438        2.3635264103
      40
 i =      157, E =      -325.5845173335
  S        -0.7946697786        0.9515608485        3.6577462247
  S         2.0387101246        1.1143400668        3.9982942583
  F        -0.8097299787        1.3756632918        6.3115463844
  F        -2.7668939902        1.5085620568        5.3135242581
  F        -1.8676521923       -0.4516998829        5.6876584683
  F         3.0593664452       -1.1221004699        5.0652881936
  F         3.9943259023        0.7496328975        5.7482661583
  F         2.0016424863        0.1849958055        6.5002485165
  O        -1.6060654738        0.0582009029        2.8352859836
  O        -0.8093617643        2.3814391016        3.3629361383
  O         1.9402217199        2.4968212243        4.4457101109
  O         2.9351653338        0.8166699037        2.8711990485
  N         0.6634879339        0.2932717572        3.8064970253
  C        -1.5930238325        0.8306083624        5.3503358069
  C         2.8124994076        0.1656746923        5.4163491475
  N        -0.1364772383        0.7540676271        0.1413157112
  N         0.6389548024        2.7172753469        0.6886449148
  C        -0.3166435851       -0.7123976426        0.0576423890
  C         0.8447985722       -1.4910223790        0.6689771103
  C         0.5844782326       -3.0078250235        0.6483112527
  C         0.9051602692        1.3982395437        0.6947859395
  C        -1.0947911313        1.6877496082       -0.2174990812
  C        -0.6103223914        2.9178554921        0.1302031556
  C         0.4956654232       -3.6209047992       -0.7572814579
  C         1.4426812259        3.7309586993        1.3810769171
  H        -0.4637893141       -0.9583866535       -1.0014260356
  H        -1.2392646944       -0.9290823768        0.6125976177
  H         1.7762641605       -1.2683517167        0.1279372796
  H         0.9783196288       -1.1634096389        1.7114702068
  H        -0.3323105082       -3.2222778922        1.2156487024
  H         1.3970691740       -3.4919179917        1.2080082902
  H         1.7822121611        0.9521857010        1.1559621937
  H        -2.0354213935        1.3956505837       -0.6628365222
  H        -1.0494166678        3.9023118491        0.0502329078
  H         0.3955597414       -4.7143268397       -0.7066024450
  H        -0.3682817487       -3.2482018003       -1.3239512388
  H         1.3957629719       -3.3992033640       -1.3474053423
  H         1.4753903729        4.6406831548        0.7736916895
  H         2.4539125080        3.3393226407        1.5283746551
  H         0.9918406084        3.9204426195        2.3635453769
      40
 i =      158, E =      -325.5845175094
  S        -0.7946736564        0.9515799176        3.6579260805
  S         2.0387800318        1.1143648969        3.9983119038
  F        -0.8097150246        1.3756795742        6.3116178702
  F        -2.7668707370        1.5085812814        5.3135408044
  F        -1.8676442048       -0.4516856124        5.6876818854
  F         3.0593729782       -1.1220934354        5.0652896257
  F         3.9943505939        0.7496304514        5.7482816583
  F         2.0016443266        0.1849920431        6.5002411230
  O        -1.6062631000        0.0580951866        2.8358480101
  O        -0.8093405322        2.3814159713        3.3629574196
  O         1.9402529856        2.4968395391        4.4457408725
  O         2.9352476496        0.8166880153        2.8712375735
  N         0.6635356967        0.2932527920        3.8064609661
  C        -1.5929767167        0.8306445868        5.3504182100
  C         2.8125132868        0.1656613094        5.4163575646
  N        -0.1362649397        0.7539999149        0.1416937312
  N         0.6394417076        2.7171904410        0.6887378776
  C        -0.3166616592       -0.7124292627        0.0582975594
  C         0.8444022335       -1.4909753665        0.6704785738
  C         0.5840173783       -3.0078016994        0.6500931301
  C         0.9055491983        1.3981322995        0.6948674341
  C        -1.0946183505        1.6877261599       -0.2169159652
  C        -0.6099820510        2.9178191509        0.1305898199
  C         0.4966083669       -3.6214508806       -0.7553948684
  C         1.4434234125        3.7308208694        1.3809936772
  H        -0.4632816665       -0.9587698537       -1.0007530038
  H        -1.2395557294       -0.9287488464        0.6129464581
  H         1.7761581278       -1.2684367193        0.1298858566
  H         0.9772538178       -1.1630257394        1.7129229965
  H        -0.3334293978       -3.2219012036        1.2164854432
  H         1.3959047543       -3.4918386889        1.2108473163
  H         1.7826123019        0.9520087529        1.1559251269
  H        -2.0354567486        1.3956021867       -0.6618327612
  H        -1.0491400299        3.9022806339        0.0506636910
  H         0.3959320168       -4.7148322573       -0.7043557229
  H        -0.3663452481       -3.2485495831       -1.3234134955
  H         1.3976043378       -3.4004810005       -1.3444493327
  H         1.4764504017        4.6404149685        0.7734098034
  H         2.4545654906        3.3389429942        1.5284628698
  H         0.9926012577        3.9206552983        2.3634144451
      40
 i =      159, E =      -325.5845177610
  S        -0.7946952981        0.9516050193        3.6581115971
  S         2.0388484788        1.1143700160        3.9983171213
  F        -0.8096986435        1.3757034524        6.3116920525
  F        -2.7668660868        1.5085996587        5.3135617774
  F        -1.8676320023       -0.4516687346        5.6877041173
  F         3.0593714072       -1.1220906273        5.0652937084
  F         3.9943794687        0.7496261285        5.7482940966
  F         2.0016419560        0.1849941370        6.5002352247
  O        -1.6065015735        0.0579775245        2.8364735487
  O        -0.8093265629        2.3813966192        3.3629695684
  O         1.9402921504        2.4968463406        4.4457356957
  O         2.9353594524        0.8166641559        2.8712811204
  N         0.6635849892        0.2932349734        3.8064049670
  C        -1.5929342660        0.8306948979        5.3505045904
  C         2.8125128746        0.1656462741        5.4163557489
  N        -0.1358208959        0.7537975376        0.1421918875
  N         0.6400720000        2.7170803609        0.6887459507
  C        -0.3163622921       -0.7126248051        0.0592525605
  C         0.8443263155       -1.4909632776        0.6723864771
  C         0.5836249236       -3.0078091142        0.6530254800
  C         0.9061942528        1.3980004036        0.6948873636
  C        -1.0943643331        1.6874873461       -0.2161175702
  C        -0.6096040256        2.9176106449        0.1310373006
  C         0.4967295096       -3.6225138295       -0.7520258898
  C         1.4442044240        3.7307518226        1.3807925135
  H        -0.4624599803       -0.9594883996       -0.9997370171
  H        -1.2395153347       -0.9285492058        0.6136421991
  H         1.7763166972       -1.2689380941        0.1319849255
  H         0.9768219202       -1.1622537527        1.7146276538
  H        -0.3341476633       -3.2211853980        1.2191612617
  H         1.3950363746       -3.4917186239        1.2145690819
  H         1.7833526950        0.9519003477        1.1557829837
  H        -2.0354672086        1.3952468654       -0.6604015772
  H        -1.0489376537        3.9020258124        0.0512024405
  H         0.3951602946       -4.7158064715       -0.7001967102
  H        -0.3653967105       -3.2493307849       -1.3210572595
  H         1.3983800105       -3.4027728073       -1.3405071400
  H         1.4773153977        4.6402260419        0.7730700864
  H         2.4553141381        3.3387955801        1.5282954223
  H         0.9934716491        3.9208237104        2.3632185983
      40
 i =      160, E =      -325.5845180630
  S        -0.7946886684        0.9516253344        3.6582109646
  S         2.0389086986        1.1143660498        3.9982884883
  F        -0.8096932560        1.3757182721        6.3117446980
  F        -2.7668625930        1.5086099349        5.3135625908
  F        -1.8676274844       -0.4516629912        5.6877149119
  F         3.0593680383       -1.1220914177        5.0652935942
  F         3.9943982342        0.7496274979        5.7482933633
  F         2.0016365134        0.1849990898        6.5002248950
  O        -1.6066061594        0.0578651395        2.8368881063
  O        -0.8093250234        2.3813929697        3.3629504878
  O         1.9403419034        2.4968562779        4.4456510660
  O         2.9354918658        0.8166012673        2.8713080011
  N         0.6636639488        0.2932617028        3.8063088997
  C        -1.5929043315        0.8307302121        5.3505571168
  C         2.8125019227        0.1656459283        5.4163326758
  N        -0.1348549979        0.7536864807        0.1427546147
  N         0.6404011468        2.7173860754        0.6886861924
  C        -0.3148843371       -0.7128379140        0.0602462265
  C         0.8458608419       -1.4905975847        0.6739598940
  C         0.5851642810       -3.0075303928        0.6557811973
  C         0.9071458392        1.3984193772        0.6947944896
  C        -1.0940652024        1.6869032687       -0.2151050226
  C        -0.6096906016        2.9172403285        0.1316149064
  C         0.4989151743       -3.6233418485       -0.7487586125
  C         1.4442562393        3.7314272584        1.3804870707
  H        -0.4607706252       -0.9601794610       -0.9986572906
  H        -1.2380180352       -0.9288343178        0.6146236104
  H         1.7778477996       -1.2689212852        0.1334856123
  H         0.9783997370       -1.1610700136        1.7159539830
  H        -0.3327981049       -3.2203871924        1.2218307805
  H         1.3962659381       -3.4910276677        1.2180876644
  H         1.7846773627        0.9527592446        1.1554168002
  H        -2.0353595281        1.3941949403       -0.6586256576
  H        -1.0495597426        3.9014176418        0.0519507424
  H         0.3959150607       -4.7164834453       -0.6960579131
  H        -0.3621227385       -3.2495105157       -1.3189757455
  H         1.4015083204       -3.4053110931       -1.3363920385
  H         1.4774499118        4.6407024398        0.7724738615
  H         2.4553491295        3.3396165189        1.5283641820
  H         0.9932951284        3.9218204900        2.3627495280
      40
 i =      161, E =      -325.5845183492
  S        -0.7947175328        0.9516438186        3.6581245867
  S         2.0388616620        1.1143334450        3.9982860719
  F        -0.8097082892        1.3757204251        6.3117130156
  F        -2.7669203779        1.5086041314        5.3135574954
  F        -1.8676342103       -0.4516579973        5.6876986546
  F         3.0593528786       -1.1220986210        5.0652971590
  F         3.9943859814        0.7496295939        5.7482810523
  F         2.0016278510        0.1850062030        6.5002362881
  O        -1.6065615808        0.0579121483        2.8366883992
  O        -0.8093426452        2.3814267408        3.3629055180
  O         1.9403409514        2.4968431590        4.4455807664
  O         2.9354867768        0.8165265549        2.8713174256
  N         0.6636333438        0.2933018211        3.8063588398
  C        -1.5929512536        0.8307400379        5.3505209386
  C         2.8124697999        0.1656521772        5.4163226932
  N        -0.1341716231        0.7533070451        0.1427949737
  N         0.6406061498        2.7172830276        0.6884154909
  C        -0.3139145091       -0.7133041183        0.0606297997
  C         0.8468340221       -1.4909027081        0.6744729159
  C         0.5852061103       -3.0077289037        0.6581859319
  C         0.9077321945        1.3983687033        0.6945993212
  C        -1.0937094941        1.6862483017       -0.2150210913
  C        -0.6096126160        2.9167200509        0.1314813966
  C         0.4974784749       -3.6249200049       -0.7455166950
  C         1.4441103703        3.7316212112        1.3801410681
  H        -0.4599302542       -0.9608914026       -0.9982057536
  H        -1.2369940824       -0.9293172888        0.6151223140
  H         1.7786655355       -1.2703666826        0.1332755602
  H         0.9803307208       -1.1603769701        1.7160838317
  H        -0.3323139028       -3.2194264281        1.2254406592
  H         1.3964375625       -3.4910832208        1.2204009854
  H         1.7854536543        0.9530066080        1.1552071998
  H        -2.0350040630        1.3933080693       -0.6583216033
  H        -1.0497149152        3.9007676823        0.0518469565
  H         0.3927529171       -4.7178267418       -0.6915905084
  H        -0.3632754921       -3.2503439302       -1.3156442742
  H         1.4001257510       -3.4089242663       -1.3337031692
  H         1.4772875116        4.6407587259        0.7719643509
  H         2.4551766702        3.3399754905        1.5283241430
  H         0.9928779176        3.9221491993        2.3622423303
      40
 i =      162, E =      -325.5845185456
  S        -0.7946813679        0.9516451754        3.6579054679
  S         2.0387898407        1.1143393378        3.9982799256
  F        -0.8097299278        1.3756999998        6.3116353907
  F        -2.7669317316        1.5085888983        5.3135299707
  F        -1.8676475661       -0.4516651817        5.6876674775
  F         3.0593458699       -1.1220995831        5.0652916587
  F         3.9943629608        0.7496344413        5.7482626924
  F         2.0016294911        0.1850108446        6.5002470009
  O        -1.6062328327        0.0580194048        2.8360109136
  O        -0.8093540634        2.3814673994        3.3628428703
  O         1.9403256685        2.4968706818        4.4455061927
  O         2.9354376751        0.8165025576        2.8713158098
  N         0.6636254078        0.2933971002        3.8064470638
  C        -1.5929980737        0.8307036678        5.3504261134
  C         2.8124632872        0.1656862261        5.4163134966
  N        -0.1333435475        0.7532943851        0.1427459760
  N         0.6402195187        2.7177715551        0.6881759172
  C        -0.3121451496       -0.7134828382        0.0606931924
  C         0.8492501763       -1.4905488171        0.6739894423
  C         0.5876848146       -3.0073420200        0.6588061624
  C         0.9081716105        1.3990367176        0.6944683665
  C        -1.0934248608        1.6856201722       -0.2151664720
  C        -0.6100854391        2.9164052409        0.1312403362
  C         0.4993467759       -3.6253380959       -0.7443933120
  C         1.4430512862        3.7326190532        1.3798755355
  H        -0.4586657661       -0.9610500082       -0.9980931564
  H        -1.2348239853       -0.9301141366        0.6155553301
  H         1.7806312466       -1.2702901247        0.1319798399
  H         0.9836985561       -1.1595612077        1.7153566689
  H        -0.3294631459       -3.2187877374        1.2267672644
  H         1.3992768299       -3.4901704485        1.2209167790
  H         1.7862045415        0.9542838348        1.1551055006
  H        -2.0344690326        1.3921686469       -0.6585939113
  H        -1.0506307641        3.9001973933        0.0515641569
  H         0.3936974926       -4.7180571074       -0.6897024474
  H        -0.3613168972       -3.2504560866       -1.3144953057
  H         1.4020534450       -3.4104658367       -1.3328271425
  H         1.4757701050        4.6417545615        0.7716536343
  H         2.4542984130        3.3415526620        1.5281534836
  H         0.9915844253        3.9229404883        2.3618946223
      40
 i =      163, E =      -325.5845186199
  S        -0.7946681847        0.9516462898        3.6577377232
  S         2.0387294729        1.1143574395        3.9983156690
  F        -0.8097413985        1.3756825158        6.3115636648
  F        -2.7669455559        1.5085769030        5.3135167292
  F        -1.8676545995       -0.4516689302        5.6876432703
  F         3.0593452886       -1.1220971478        5.0652901282
  F         3.9943417687        0.7496365572        5.7482610802
  F         2.0016311810        0.1850078341        6.5002611775
  O        -1.6060106852        0.0581498042        2.8354316410
  O        -0.8093541833        2.3814979320        3.3628157392
  O         1.9402930666        2.4968918841        4.4455360144
  O         2.9353535222        0.8165360242        2.8713276304
  N         0.6635760861        0.2934358079        3.8065747398
  C        -1.5930408809        0.8306694284        5.3503448725
  C         2.8124674481        0.1657001891        5.4163329684
  N        -0.1331311394        0.7532171081        0.1423989025
  N         0.6400235848        2.7177860143        0.6880584583
  C        -0.3117299629       -0.7135990907        0.0604016322
  C         0.8498704416       -1.4906032993        0.6734346145
  C         0.5880098344       -3.0072930622        0.6591108184
  C         0.9081365038        1.3990950059        0.6944555349
  C        -1.0931724513        1.6854239855       -0.2158669554
  C        -0.6100922803        2.9162958442        0.1307173423
  C         0.4987976434       -3.6259954053       -0.7437130588
  C         1.4425735032        3.7327675052        1.3798825354
  H        -0.4584920421       -0.9611195591       -0.9983709126
  H        -1.2343003010       -0.9303621853        0.6153953502
  H         1.7810556375       -1.2707731457        0.1308826573
  H         0.9848508283       -1.1592904015        1.7146287913
  H        -0.3288920621       -3.2182904731        1.2276183920
  H         1.3998254996       -3.4899505767        1.2210485367
  H         1.7861187705        0.9544500157        1.1553054189
  H        -2.0339749406        1.3918798966       -0.6597669470
  H        -1.0506596813        3.9000601526        0.0508885514
  H         0.3929765720       -4.7186414380       -0.6883717814
  H        -0.3622262486       -3.2513136426       -1.3134176350
  H         1.4011212663       -3.4115223862       -1.3328418691
  H         1.4750337496        4.6419780470        0.7717419587
  H         2.4539287582        3.3419569917        1.5281193680
  H         0.9910303680        3.9228403080        2.3619058973
      40
 i =      164, E =      -325.5845186481
  S        -0.7946501578        0.9516507554        3.6576669271
  S         2.0387119661        1.1143813661        3.9983448510
  F        -0.8097460277        1.3756747897        6.3115305838
  F        -2.7669515794        1.5085696686        5.3135100128
  F        -1.8676578436       -0.4516723263        5.6876324776
  F         3.0593477555       -1.1220902178        5.0652886118
  F         3.9943369216        0.7496378037        5.7482643181
  F         2.0016359478        0.1850049121        6.5002671314
  O        -1.6058945288        0.0582143313        2.8351593097
  O        -0.8093451258        2.3815157258        3.3628100578
  O         1.9402761784        2.4969147949        4.4455689706
  O         2.9353106380        0.8165695398        2.8713422488
  N         0.6635515615        0.2934437160        3.8066459638
  C        -1.5930594378        0.8306503554        5.3503037617
  C         2.8124765871        0.1657069540        5.4163510863
  N        -0.1329617904        0.7532362172        0.1422047377
  N         0.6398530461        2.7179032844        0.6880168833
  C        -0.3113981134       -0.7135995878        0.0603158672
  C         0.8504366443       -1.4904449925        0.6731571409
  C         0.5886550730       -3.0071141602        0.6591501253
  C         0.9081269075        1.3992550286        0.6944645921
  C        -1.0930350815        1.6853174271       -0.2162487948
  C        -0.6101757814        2.9162731809        0.1304517712
  C         0.4993298440       -3.6261490678       -0.7435552689
  C         1.4422214307        3.7330071250        1.3798887822
  H        -0.4583533468       -0.9611713245       -0.9984208902
  H        -1.2338319299       -0.9304399019        0.6154980030
  H         1.7814694151       -1.2706251243        0.1303381718
  H         0.9855828018       -1.1590063904        1.7142691530
  H        -0.3282448852       -3.2179978842        1.2276681955
  H         1.4005385355       -3.4896194464        1.2211246372
  H         1.7860889330        0.9547018422        1.1554284065
  H        -2.0336894811        1.3916368725       -0.6604130535
  H        -1.0508548425        3.8999912949        0.0505370901
  H         0.3936417141       -4.7187851332       -0.6879276720
  H        -0.3618142951       -3.2517056758       -1.3132467603
  H         1.4015519187       -3.4117151043       -1.3328726061
  H         1.4744786171        4.6422480474        0.7717684426
  H         2.4536794390        3.3424127515        1.5280915810
  H         0.9906459734        3.9229446353        2.3619227615
      40
 i =      165, E =      -325.5845186597
  S        -0.7946511808        0.9516551252        3.6576388142
  S         2.0387048079        1.1143882239        3.9983584472
  F        -0.8097513884        1.3756722687        6.3115157508
  F        -2.7669704572        1.5085655440        5.3135081515
  F        -1.8676623519       -0.4516772721        5.6876269597
  F         3.0593488504       -1.1220880600        5.0652897943
  F         3.9943355890        0.7496382930        5.7482674136
  F         2.0016373884        0.1850017572        6.5002712201
  O        -1.6058655010        0.0582548497        2.8350426778
  O        -0.8093370929        2.3815268939        3.3628179401
  O         1.9402677765        2.4969217348        4.4455899417
  O         2.9352922881        0.8165792314        2.8713524909
  N         0.6635256828        0.2934250177        3.8066790677
  C        -1.5930772798        0.8306422601        5.3502816950
  C         2.8124737774        0.1657039512        5.4163595510
  N        -0.1328390397        0.7532431718        0.1420749763
  N         0.6397535701        2.7179700193        0.6879990540
  C        -0.3112080962       -0.7135978712        0.0602952932
  C         0.8507573027       -1.4903194773        0.6730707852
  C         0.5890637659       -3.0069953029        0.6592180938
  C         0.9081483575        1.3993521888        0.6944320337
  C        -1.0929703695        1.6852391021       -0.2164210474
  C        -0.6102581699        2.9162393231        0.1303546096
  C         0.4996963414       -3.6261917658       -0.7434494739
  C         1.4420172123        3.7331562174        1.3798875656
  H        -0.4582548796       -0.9612591672       -0.9983994536
  H        -1.2335584458       -0.9304446793        0.6156153108
  H         1.7817147306       -1.2704686996        0.1301362783
  H         0.9859269101       -1.1587950436        1.7141353756
  H        -0.3278392754       -3.2178298409        1.2277059773
  H         1.4009794292       -3.4894333922        1.2212006520
  H         1.7861094210        0.9548512982        1.1554267683
  H        -2.0335612496        1.3914528752       -0.6606697993
  H        -1.0510564541        3.8999135655        0.0504340170
  H         0.3941543746       -4.7188396908       -0.6876873263
  H        -0.3614985436       -3.2519149395       -1.3131600061
  H         1.4018649543       -3.4117204154       -1.3328388975
  H         1.4742624297        4.6423679271        0.7717166945
  H         2.4535087729        3.3426482665        1.5281927124
  H         0.9903613559        3.9231142457        2.3618842060
      40
 i =      166, E =      -325.5845264407
  S        -0.7946511808        0.9516551252        3.6576388142
  S         2.0387048079        1.1143882239        3.9983584472
  F        -0.8097513884        1.3756722687        6.3115157508
  F        -2.7669704572        1.5085655440        5.3135081515
  F        -1.8676623519       -0.4516772721        5.6876269597
  F         3.0593488504       -1.1220880600        5.0652897943
  F         3.9943355890        0.7496382930        5.7482674136
  F         2.0016373884        0.1850017572        6.5002712201
  O        -1.6058655010        0.0582548497        2.8350426778
  O        -0.8093370929        2.3815268939        3.3628179401
  O         1.9402677765        2.4969217348        4.4455899417
  O         2.9352922881        0.8165792314        2.8713524909
  N         0.6635256828        0.2934250177        3.8066790677
  C        -1.5930772798        0.8306422601        5.3502816950
  C         2.8124737774        0.1657039512        5.4163595510
  N        -0.1328390397        0.7532431718        0.1420749763
  N         0.6397535701        2.7179700193        0.6879990540
  C        -0.3112080962       -0.7135978712        0.0602952932
  C         0.8507573027       -1.4903194773        0.6730707852
  C         0.5890637659       -3.0069953029        0.6592180938
  C         0.9081483575        1.3993521888        0.6944320337
  C        -1.0929703695        1.6852391021       -0.2164210474
  C        -0.6102581699        2.9162393231        0.1303546096
  C         0.4996963414       -3.6261917658       -0.7434494739
  C         1.4420172123        3.7331562174        1.3798875656
  H        -0.4582548796       -0.9612591672       -0.9983994536
  H        -1.2335584458       -0.9304446793        0.6156153108
  H         1.7817147306       -1.2704686996        0.1301362783
  H         0.9859269101       -1.1587950436        1.7141353756
  H        -0.3278392754       -3.2178298409        1.2277059773
  H         1.4009794292       -3.4894333922        1.2212006520
  H         1.7861094210        0.9548512982        1.1554267683
  H        -2.0335612496        1.3914528752       -0.6606697993
  H        -1.0510564541        3.8999135655        0.0504340170
  H         0.3941543746       -4.7188396908       -0.6876873263
  H        -0.3614985436       -3.2519149395       -1.3131600061
  H         1.4018649543       -3.4117204154       -1.3328388975
  H         1.4742624297        4.6423679271        0.7717166945
  H         2.4535087729        3.3426482665        1.5281927124
  H         0.9903613559        3.9231142457        2.3618842060
